! Created with skrf 1.9.0 (http://scikit-rf.org).
# Hz S RI R 50.0 
!freq ReS11 ImS11 ReS21 ImS21 ReS12 ImS12 ReS22 ImS22
3500000000.0 0.19441824568354213 -0.25177093762631325 0.07293629047182505 -0.03359384143831712 0.07304515850305067 -0.03391165116775852 0.1741214398865099 -0.28839941935591523
3501562000.0 0.19197739117658424 -0.2519981140340547 0.07162913046096543 -0.03639751916247667 0.07173154858137248 -0.036572576247177045 0.1752815857668681 -0.29214067912622593
3503125000.0 0.18981893347499829 -0.25256476736524436 0.07005548099064911 -0.03954719325095799 0.07020360230061812 -0.03955989593705904 0.17941369578219474 -0.29676021435176386
3504688000.0 0.18738701157814014 -0.2523844128778104 0.06865678531516001 -0.04272539368094828 0.06883250248743376 -0.04262699211757887 0.18440924075922444 -0.30022397896296726
3506250000.0 0.1850821473038201 -0.25242775391933225 0.06702098052709603 -0.04579260757455505 0.06734679313790702 -0.045581365686263385 0.1902186800836513 -0.29911729951434723
3507812000.0 0.1825939616371404 -0.25231827201374907 0.06568573071639401 -0.048660563535425465 0.06581350059150026 -0.04854164432294629 0.19598984209997722 -0.297364851641367
3509375000.0 0.18007425893958387 -0.25171150654655683 0.0636817590863051 -0.05126987674161702 0.06390341882197742 -0.05119983251899025 0.19798498734777445 -0.2928509131931762
3510938000.0 0.1776262804126263 -0.2510577073600088 0.06178686218024739 -0.05365442165353441 0.06193979439868578 -0.05356914482788525 0.19853507994620528 -0.2843851138868818
3512500000.0 0.17499903179336246 -0.2502917998302325 0.059386337317578565 -0.05566023310656509 0.059513511393485694 -0.05582812275788248 0.19573231535833582 -0.2748219994618665
3514062000.0 0.17245986903616017 -0.24960043367240933 0.05680052627815005 -0.05794525961604205 0.057179130946131404 -0.05811554922046673 0.18987160259903452 -0.26676445320451403
3515625000.0 0.16947133946361786 -0.2489400378887837 0.0541378364486222 -0.05998914361902975 0.05444634692407965 -0.06020209180006967 0.181101028786736 -0.26005135605460267
3517188000.0 0.16663091512534586 -0.2478641084328607 0.05148007743024187 -0.06195438424194887 0.051833240011569505 -0.06194899187903784 0.17209063932141133 -0.2539809863462358
3518750000.0 0.1637001817935271 -0.24720169095153569 0.048713922474658514 -0.0640282044330369 0.04891311869515978 -0.06408833484807272 0.16215372944637577 -0.25096823702535137
3520312000.0 0.16059640976103973 -0.2463832363641233 0.045860422542028656 -0.06580035256156855 0.04601059753726432 -0.0656828380247409 0.15117887698484822 -0.2505859186827514
3521875000.0 0.15791602550769474 -0.2462300936821352 0.04315030053565503 -0.06757291648462029 0.043090935388778014 -0.06763084620060317 0.14231562773888187 -0.2517631982561209
3523438000.0 0.15509907747137122 -0.24538626209697403 0.04016257996217831 -0.06920441762441705 0.040242042816920995 -0.06931807938550473 0.13509040033505126 -0.2537647830774023
3525000000.0 0.15266240174467505 -0.24478452489156322 0.03719706271556269 -0.0708414975978501 0.03723626977228539 -0.07099924084873444 0.1296953494967878 -0.25886190926364605
3526562000.0 0.1500747911773216 -0.24415639095966699 0.033953708407637784 -0.0723622920459628 0.03405730091937296 -0.07271702992467219 0.1275621934854936 -0.2630182920820454
3528125000.0 0.1483186365392366 -0.2433930035471548 0.03084232624942241 -0.07402799461179779 0.03100234085674801 -0.0741811395171474 0.1270560323244553 -0.26621528906659203
3529688000.0 0.14628526704162226 -0.24266667236736408 0.027652069456291232 -0.07555759012516629 0.02789479132475379 -0.07574134987112961 0.12791762972594042 -0.2655334378628888
3531250000.0 0.14425953379824014 -0.24157607092888816 0.024569445639731718 -0.07696721737574798 0.02487865342721706 -0.07684332275559035 0.12739927751923216 -0.26510637769536566
3532812000.0 0.14278933049930748 -0.24039941348661095 0.021388214869116327 -0.07791464968714532 0.02168675145488284 -0.0779669591467894 0.12430075201075892 -0.2632116733243899
3534375000.0 0.14106652186518043 -0.2389489544459394 0.01833062552176383 -0.07883616758959265 0.018514742983411377 -0.07865174716353648 0.12185408824031482 -0.26059896333313953
3535938000.0 0.1390569669139386 -0.23759184981075832 0.015056107238688037 -0.07942304759205397 0.015201825896068761 -0.0794885528988447 0.1181972853576684 -0.25790978425953764
3537500000.0 0.1373289549719522 -0.2365679784701109 0.011702873784572777 -0.07994995000120686 0.011865133067578325 -0.08026010584220106 0.11339961807239697 -0.2555907227822636
3539062000.0 0.13542848441152283 -0.2350267293190448 0.008421490223581412 -0.08032580291087582 0.008549997709955216 -0.08062415005156083 0.10755141963454654 -0.25463321217861373
3540625000.0 0.13358901610992502 -0.23431295010679457 0.005043737392808551 -0.08071224941544912 0.005219760979168151 -0.0811158729906042 0.10119775013019829 -0.25281061128093285
3542188000.0 0.13177313181803288 -0.23274017161330288 0.0016416399640854433 -0.080926539741737 0.0018006245442701684 -0.08126885031588973 0.0952450483244717 -0.2541854877227886
3543750000.0 0.12999910431932446 -0.2316442605072551 -0.0016640237198590434 -0.08088974612969767 -0.0016011957710486107 -0.0810312693284697 0.08921125930494894 -0.2559989023979162
3545312000.0 0.12828926507197463 -0.23066420803349044 -0.005170657252701994 -0.0807326556964196 -0.005056324461378906 -0.08086392299021168 0.08468945527732813 -0.259669020009568
3546875000.0 0.12644502614907918 -0.22977994075485786 -0.008779381721722879 -0.08048656394711007 -0.00868830733429831 -0.08055813425339964 0.08211610053969996 -0.26400764135870614
3548438000.0 0.12480108753102606 -0.22931333938628662 -0.012234859974714766 -0.08008783289267117 -0.012207004888325382 -0.08016381218846208 0.08207483781097621 -0.2679386018532337
3550000000.0 0.12287947100807574 -0.22901700589719573 -0.01568809429345972 -0.07959572206185125 -0.015609328694875399 -0.08000170371264151 0.08372663137124066 -0.27111006321628844
3551562000.0 0.12158929158167506 -0.22888374779999884 -0.018990148256426115 -0.0790675525223623 -0.01893630554890808 -0.07944291163324115 0.08630910010209716 -0.27215519662072335
3553125000.0 0.1201413356024863 -0.22870527886484837 -0.02235459127025996 -0.07834569739141138 -0.022263811112321973 -0.07876148454486655 0.08889710489890944 -0.2712203354194774
3554688000.0 0.11920166458523575 -0.22898169373063273 -0.025609926979617215 -0.07748588282565783 -0.025622479631567614 -0.07802452782736247 0.09090686615900534 -0.26940723972537156
3556250000.0 0.1184506358940538 -0.22910944834258382 -0.02895368345638788 -0.07664044361380098 -0.029025163479974213 -0.07708909368135383 0.09244988565434617 -0.2667649970806781
3557812000.0 0.11756694757427133 -0.2293117848277946 -0.03224601909275977 -0.0756596176279485 -0.0323975593723161 -0.07600567149740763 0.09309147347818628 -0.26324977240167896
3559375000.0 0.11706071443777794 -0.22922458328794548 -0.03555780799295118 -0.07454723854256155 -0.03564034558246308 -0.07489795293641521 0.0928465182517759 -0.25978481631191386
3560938000.0 0.11650116580832011 -0.22933359809433773 -0.03865972105392668 -0.07327748547479226 -0.038865278586073033 -0.07338220177483426 0.09136221768866916 -0.2554747035024319
3562500000.0 0.11631317747364796 -0.22953681073807697 -0.041680842462108236 -0.07181840271352774 -0.04186119005744169 -0.07199339901638314 0.08911309454036723 -0.2511612346596985
3564062000.0 0.11541867017262071 -0.2298213685418766 -0.04471122562910366 -0.0699012668480936 -0.04479212897392384 -0.07013281711094768 0.0852519754658442 -0.24810618160299097
3565625000.0 0.11502520728822994 -0.22969313501587968 -0.0477045257423692 -0.06800394035768284 -0.04782308441443013 -0.06836206759780597 0.08105067212441851 -0.2469898251081219
3567188000.0 0.11399536256039958 -0.2299700074690098 -0.05073245155962218 -0.06582691108643866 -0.05083152611895466 -0.06619442635898774 0.07804756484139352 -0.24661250616378547
3568750000.0 0.11327343975032293 -0.2303938561163327 -0.05376833793514349 -0.06378335643473426 -0.05384615365191745 -0.06421147756482942 0.0760128254871214 -0.2464913134517089
3570312000.0 0.11251659725890577 -0.23077314916561967 -0.05656882178169214 -0.061628672040881016 -0.05658840858500323 -0.06190153475202186 0.07446843744540103 -0.24720194254410488
3571875000.0 0.11144385996401453 -0.23157447761630104 -0.05936135133116083 -0.05929161928492834 -0.059471615662676065 -0.059518531508146434 0.07302364985503033 -0.24653362293743075
3573438000.0 0.11040445505762746 -0.23218014767953904 -0.06201699965100061 -0.05675060032855464 -0.06218818486414782 -0.0568018473317957 0.07227132406375615 -0.24613116877519423
3575000000.0 0.1096711258256319 -0.23319827018952471 -0.06459187894675457 -0.05411499347388196 -0.06480988285819847 -0.054221997414847706 0.07143073506385116 -0.24580117091441697
3576562000.0 0.10860771132621028 -0.23424922425037495 -0.06709139859678094 -0.05125483784118895 -0.06723970210719653 -0.05140141494905198 0.07071152967913301 -0.24477840341835397
3578125000.0 0.10797963518622251 -0.23545839821798123 -0.0694517483662691 -0.04821755049421456 -0.06943595979075257 -0.04863373901635742 0.07031589272183252 -0.2432989810796938
3579688000.0 0.10710578798466751 -0.23669538462342601 -0.07167669750320586 -0.04520350150716442 -0.0718471262942159 -0.04565924137454963 0.06973164582760401 -0.24075289242594283
3581250000.0 0.10594151013070635 -0.23828763562596453 -0.07378650883848611 -0.04223992725375529 -0.07383100042293538 -0.042527256898079985 0.06706730826398725 -0.23775536813143747
3582812000.0 0.10531607098341637 -0.23992094494439323 -0.07561516006903589 -0.039108828391212415 -0.07586396502215628 -0.03945004499461148 0.06316491949731706 -0.2344289064233627
3584375000.0 0.10467518679755919 -0.24149829919013954 -0.07735379328182655 -0.035941150497812116 -0.07759644377271832 -0.03620549585078518 0.058789234567650575 -0.23149459258799682
3585938000.0 0.10412818411722088 -0.24344136775989883 -0.07883947261112337 -0.032544368317299205 -0.07921498929645168 -0.03273880883598584 0.053174701207937984 -0.23117025011917886
3587500000.0 0.10363925523423242 -0.24494545354545838 -0.08019006337767619 -0.028996716330868484 -0.08053285587661721 -0.029090880003265672 0.04607759624342382 -0.23162916866846647
3589062000.0 0.10309208315500504 -0.24653638792126348 -0.08145195418156977 -0.025311715952975385 -0.08191632583452717 -0.025329083192635604 0.04086409394644614 -0.2337844569083353
3590625000.0 0.10271938657559271 -0.24793949000284715 -0.08262199400598673 -0.021595298016457553 -0.08291075160959696 -0.021720423667324237 0.036246259732787355 -0.23598124554800026
3592188000.0 0.10204059154022922 -0.24909195263992234 -0.08352511969100203 -0.0177931011888554 -0.0836155195901828 -0.017956014458080392 0.032201212853138164 -0.23919168097473947
3593750000.0 0.10125511566197153 -0.25021997696436465 -0.08420784118045803 -0.013800929854414659 -0.08424329171823224 -0.014165061421574619 0.028008313836116735 -0.2427988463001854
3595312000.0 0.10041626180491198 -0.2509768493882026 -0.0846416960743057 -0.010000072009182945 -0.08457087929921513 -0.010361210734696757 0.02621578632325877 -0.24716509598747002
3596875000.0 0.09917387670875227 -0.25158787508321134 -0.08486738602151671 -0.0060870271125698094 -0.08484754772015624 -0.006454450821056717 0.024371227856476545 -0.2510791013839317
3598438000.0 0.09786241615072515 -0.25273446749060896 -0.08478019173826931 -0.0021840300867153814 -0.0851441288810309 -0.0023675364369484778 0.023477684386901954 -0.25536730589109546
3600000000.0 0.09612437972642993 -0.2534865716164041 -0.084691234551982 0.0016696443725563864 -0.08533091463998073 0.0015297812655935292 0.023684267379886482 -0.2586579506419588
3601562000.0 0.09441897412153998 -0.25437421775186997 -0.0845664591706273 0.005518133774998429 -0.08533123294536404 0.005457826832078626 0.026116760036705006 -0.2604153548832135
3603125000.0 0.09228231599257829 -0.2553898442919616 -0.08426977169158828 0.009307090131892458 -0.08501172203457323 0.009363559401877624 0.027549918786837636 -0.26106407266306547
3604688000.0 0.09042498668954224 -0.2563234192219507 -0.08389398136378552 0.01317010939294984 -0.0842618585372815 0.013105965801284125 0.0280048537822546 -0.2601648760399556
3606250000.0 0.08822541594575592 -0.25766289241687224 -0.08330036816848731 0.016922339250775336 -0.08356490052107696 0.01701390309719782 0.027122081529745636 -0.25920816607486263
3607812000.0 0.08611042535507765 -0.2587814965234384 -0.08265301308736499 0.020724716678690497 -0.08263105255357317 0.02082420614621391 0.02518559885960232 -0.2588638993606214
3609375000.0 0.08396606418891532 -0.25986001502049894 -0.08166849038073193 0.024465938003630804 -0.08162370071509327 0.024464579056546695 0.022913099111346254 -0.2586712538857938
3610938000.0 0.08196833948631661 -0.26093947965723774 -0.08044021137051127 0.028119878303467877 -0.08051187753304585 0.028065601407410955 0.020259387234159567 -0.258995322854336
3612500000.0 0.07971482447727465 -0.26189730000261807 -0.07895550493853153 0.031774611044484806 -0.07923688880418546 0.03164245664365667 0.017894800490970187 -0.2599224150065485
3614062000.0 0.07779998099488364 -0.2630101932829191 -0.07717887016491112 0.035250911829023804 -0.0778345715796932 0.035169541596774836 0.015788148906054483 -0.2615558579719247
3615625000.0 0.07600960956116813 -0.26390087761054015 -0.07539930377235103 0.03868229895668319 -0.07622547539980215 0.03862872034277886 0.013401746591867375 -0.26406957451887414
3617188000.0 0.07431865335948003 -0.2643918683432783 -0.07352527686668864 0.04198175948685157 -0.07432794188841549 0.04217245423913503 0.012253301870147311 -0.2666045817980913
3618750000.0 0.07204126943630175 -0.2651766160434152 -0.07160634388510038 0.04515820097386671 -0.07201955839499713 0.0454966250390681 0.011874992689890182 -0.2694523792234599
3620312000.0 0.07007915875485679 -0.2655583193225519 -0.06948522563707789 0.0483096436742201 -0.06970435045215408 0.04873630553929764 0.013435056788807891 -0.2715036602671092
3621875000.0 0.06835737357185487 -0.2656328704464235 -0.06728726985915195 0.051234720005304366 -0.06738574775717626 0.05175582156421719 0.015130288664185261 -0.27181706981162906
3623438000.0 0.06594223822193432 -0.2651992489723913 -0.06497852737958461 0.05404143177417702 -0.06475915755824681 0.054485908173204624 0.01704727799894972 -0.27080360973930095
3625000000.0 0.06366279634413727 -0.2649177709725479 -0.06226678948859858 0.05667500152797492 -0.062377870983516895 0.05702524988639568 0.01791363910386795 -0.2684191203344294
3626562000.0 0.061144880895984965 -0.26409709828016764 -0.05944763648120436 0.05936945943870875 -0.05966778856214289 0.05942500490279852 0.019085010375387557 -0.2643680032322265
3628125000.0 0.058324293818431266 -0.2635421034503667 -0.05664498732465527 0.061843054710224915 -0.05706284437419315 0.061797351507857444 0.017286476763515045 -0.26100644040653315
3629688000.0 0.05527809033376536 -0.26271812798319316 -0.05361554736192544 0.06426845435025488 -0.054138375794036936 0.06419165282217826 0.014152332521792682 -0.2552814388076504
3631250000.0 0.052091998657624115 -0.26203317248505004 -0.05051305501828203 0.06654149773519519 -0.05112736699439258 0.06649466832145062 0.00982119755129472 -0.2518913130082405
3632812000.0 0.04887798831915335 -0.26144747489065073 -0.04751864189242657 0.06855178232771249 -0.047902500968054165 0.06872252953243224 0.004344083405314406 -0.24928170859557877
3634375000.0 0.0457389814028336 -0.261060272166118 -0.044348084148116404 0.07024465801215014 -0.044531526423852656 0.07063707945814215 -0.002402182615888875 -0.24775571326794524
3635938000.0 0.04255373173201498 -0.26052976602229605 -0.04089117433402512 0.0717667642305675 -0.04109726736275318 0.07242837621190587 -0.008889291965680666 -0.24756090450516113
3637500000.0 0.039415303141064374 -0.25999966339965624 -0.037381025741002556 0.07330071162306306 -0.037428640815409524 0.0739342394517098 -0.01485119314629459 -0.2502037612730452
3639062000.0 0.0362502402998711 -0.25976551778953005 -0.033808718493691534 0.07473077164947009 -0.0337641030994156 0.07509832442800866 -0.019237916518405132 -0.2524756725729005
3640625000.0 0.033416305494934094 -0.2594915197185399 -0.0301072111286683 0.07593510150193077 -0.030248235130335564 0.07609779582143303 -0.021478527704901388 -0.2567931147597573
3642188000.0 0.030719158411314864 -0.25908820941025484 -0.026601909931095017 0.07721557227178594 -0.026898324436731628 0.07696772608442891 -0.02335405367691654 -0.2589053044784542
3643750000.0 0.028106371609067395 -0.2587423543772256 -0.023128760339984608 0.07801568988861819 -0.023414167067411104 0.07791191003646994 -0.024380750054172895 -0.2608108684669352
3645312000.0 0.02567175235839564 -0.258223838951741 -0.019604707718425533 0.07864338001182003 -0.02003688961600709 0.07853477590264585 -0.022048006541324282 -0.26171356015693475
3646875000.0 0.023571208946180637 -0.2577849992997193 -0.016260678432726 0.07906579932578202 -0.016677908008642724 0.0793695296165153 -0.021447300957080882 -0.26043707267860233
3648438000.0 0.0211550866245559 -0.2572622765855676 -0.012874072431190722 0.07949535096511082 -0.013150143740465744 0.07999715569718044 -0.02200422448581333 -0.2577872876598475
3650000000.0 0.01939882448908806 -0.25643271442769433 -0.009450438436257392 0.07969297323530644 -0.009604544399167487 0.08044781413473549 -0.024388004909712747 -0.25466556340668894
3651562000.0 0.01742351763962524 -0.2554095743079523 -0.006105211158584518 0.07986878461069437 -0.006196203945176359 0.08064688917684353 -0.026399386314362675 -0.2513337235037208
3653125000.0 0.015297612427167352 -0.25409683733267974 -0.002592665081680532 0.07982884454787909 -0.002483759571485569 0.0803378293117616 -0.029708115357053932 -0.24883757355888778
3654688000.0 0.013102609081569265 -0.25276110839888777 0.0007738853713262247 0.07964276573720479 0.0009354130085502859 0.0797889773809128 -0.03368877588880633 -0.24715962410338005
3656250000.0 0.011258072777120416 -0.25143048305253435 0.004180817802509554 0.07909894941402845 0.004310759392884621 0.07918387714479623 -0.03829712019740969 -0.24589240244786673
3657812000.0 0.009176289718941293 -0.250069534819105 0.007593807778869806 0.07842862445675236 0.007592434871254682 0.07839373243101658 -0.043610705190383604 -0.24410772048559876
3659375000.0 0.0070876073691662645 -0.2486304854992181 0.01102289233333837 0.07744053350070107 0.01074266692331411 0.07745839865239114 -0.04800519087321178 -0.2455703241863732
3660938000.0 0.004818255740869505 -0.24758631165465017 0.014184127884236465 0.07626152443671713 0.01386727315159528 0.07647998683249407 -0.051427038843773795 -0.24752933619468656
3662500000.0 0.0029405253122102367 -0.24689174609988715 0.017297376430635725 0.07521174685286874 0.016887658087695025 0.07566240743659967 -0.05285271327347598 -0.2500098064635168
3664062000.0 0.0007400210475340608 -0.24624951046708593 0.020252826335529082 0.07392908143618808 0.019991516207318066 0.07471295462078 -0.052900879782612514 -0.25231888638946653
3665625000.0 -0.0013302262805880921 -0.24546344547135243 0.023186508468678497 0.07276544067340694 0.023087496116750983 0.0735566098231216 -0.05130895696900897 -0.25290536034318356
3667188000.0 -0.0034621493245388666 -0.24470451304830798 0.026066708998386867 0.07168134787258507 0.026262155181041524 0.0723675745541598 -0.04961903198537785 -0.2516850246308194
3668750000.0 -0.004932243050470251 -0.24425898544486532 0.02889249126983832 0.07048964376984375 0.029181383125998668 0.07092615699638527 -0.047942424990651406 -0.24965299285196924
3670312000.0 -0.006526229569118532 -0.24402119120081628 0.031756897678046736 0.06922644818545441 0.03213319681483238 0.06950154650495069 -0.04696875525205314 -0.2461775596877774
3671875000.0 -0.007614450709472885 -0.24368684021289164 0.03453130044045752 0.06793911575046005 0.035025326467983724 0.06784674492608508 -0.047059973455249184 -0.2420531761317631
3673438000.0 -0.008779090676826267 -0.24353803247617364 0.03726923188614612 0.06634255896435905 0.0376104331717752 0.06618599042148661 -0.048418415296942886 -0.23819558122760867
3675000000.0 -0.009650432758779592 -0.24287767257967188 0.039875083194739154 0.0645157997754787 0.039934287547935245 0.06459285649341583 -0.04989859185053034 -0.23399246729386275
3676562000.0 -0.010391230679878231 -0.24249294335301927 0.042386327959733544 0.06252358869849543 0.042218438316465816 0.0627531843047795 -0.052168497749131335 -0.22955497770076705
3678125000.0 -0.010858183941191958 -0.2426216016633226 0.04475198976606584 0.06037264433887577 0.044622665434649 0.060920503248158064 -0.05570945685932731 -0.22619147685018887
3679688000.0 -0.01159587056243695 -0.24201143219689708 0.04695272180383078 0.05831764846289994 0.04679395947275574 0.058807016556819816 -0.05935908603078422 -0.2239757183393839
3681250000.0 -0.01197391430744204 -0.24138009300638705 0.04911445688041127 0.056205594960071256 0.04918745428905433 0.05684063291525542 -0.06328180547932234 -0.2229666464115315
3682812000.0 -0.012740827603544362 -0.2406228934413141 0.05109774570531188 0.054190725764894795 0.05138934425454254 0.054722826254616566 -0.0664549524795115 -0.2227867157214713
3684375000.0 -0.013187785038993627 -0.23971220861050682 0.05288844240747866 0.05211458486710978 0.05342077293290518 0.052477430233718515 -0.06792968832170927 -0.22287942437000413
3685938000.0 -0.013695252540771304 -0.23890531008418675 0.05468987572316631 0.04993046326872664 0.05513867351989429 0.05011480791615089 -0.06894064272156931 -0.22248211695627879
3687500000.0 -0.014327354259543627 -0.23804457644156404 0.05654041367613507 0.047620191295001627 0.05696096443923735 0.04771155403721328 -0.06936313288452622 -0.22159098656141782
3689062000.0 -0.014992550001786925 -0.23738518478277335 0.0583647904817064 0.045234840524541485 0.05868453151441832 0.04524524961162265 -0.0700615321018943 -0.21986611205156506
3690625000.0 -0.01583547185090933 -0.2369179724543962 0.06023187838801808 0.04268820962019609 0.060420990443035165 0.04284260235847097 -0.07122744763230429 -0.21818796861533007
3692188000.0 -0.016698696613910186 -0.23642415502069478 0.06195915234827276 0.04019212457763052 0.0619639708663239 0.04041187896588476 -0.07220582574739168 -0.2165473828980592
3693750000.0 -0.01775668236235066 -0.23592353421644324 0.06348522633348254 0.037685275478232215 0.06350935571129962 0.0379040859102874 -0.07311500863099295 -0.214056088077865
3695312000.0 -0.01881441041952239 -0.2356169193053298 0.0648848468332203 0.03503754920414155 0.06499047062029124 0.03530151197787594 -0.0738999957123098 -0.21191624092079814
3696875000.0 -0.01946022403380555 -0.23576892461059443 0.06602805257800948 0.032429967808969805 0.06632597793637704 0.03258517828636897 -0.07576423261466587 -0.20888919949275944
3698438000.0 -0.02004261141270114 -0.2359517209085187 0.06722641974942906 0.029685146546605014 0.06746980934819485 0.02990220285396659 -0.07822061066738736 -0.20673734474251917
3700000000.0 -0.020418717910766347 -0.23594699336232158 0.0682146532211286 0.026923642764004895 0.06870180721039684 0.0269958932885735 -0.08139042749250579 -0.20528340737811762
3701562000.0 -0.020680406564920203 -0.23599257336231164 0.069281032989937 0.0240599788601316 0.06949799568706937 0.0241196146917897 -0.0841714311394784 -0.2052279578693521
3703125000.0 -0.02096272175322664 -0.2359685940832245 0.07006370167208473 0.02116115974698266 0.07029738546158795 0.021181137698927995 -0.08656574082075483 -0.2052013657139934
3704688000.0 -0.02106382378910576 -0.2360216759548091 0.07075278023825074 0.018269530293152952 0.07089681754635842 0.01844320280118845 -0.08750667864007412 -0.20647239432203596
3706250000.0 -0.021638901894496083 -0.2358507417836844 0.07142472901326151 0.015307694377855969 0.0714317603468556 0.015346958521876772 -0.08792148646261873 -0.2063939896552954
3707812000.0 -0.021730254095440413 -0.23543569873254705 0.07189568179043924 0.012381196081574258 0.07196657897955781 0.012632662091776705 -0.08865136712310387 -0.20723086907443686
3709375000.0 -0.02208751737694461 -0.23495283950637025 0.0722075813847682 0.009372110364403042 0.0722951859717373 0.00960577166854703 -0.08872502326921568 -0.20725022912189123
3710938000.0 -0.022513131542340165 -0.23444607507123952 0.0724183965368494 0.006417254519692038 0.07272468260137163 0.006695349421113564 -0.08865762961118204 -0.20740164645625464
3712500000.0 -0.023289410599522685 -0.23388748289508993 0.07257131969042806 0.0034701792366776327 0.07305644961387071 0.0035807048141667163 -0.08822086191777558 -0.20729014770967485
3714062000.0 -0.02401496645194095 -0.2334799910131196 0.07269077379511987 0.0004811000455117082 0.0732427167167524 0.0005667419346312721 -0.08715539354494467 -0.20647774737951963
3715625000.0 -0.024825503819789447 -0.23280704220718149 0.07272111986711996 -0.002538220048424409 0.07334343468631237 -0.002583135322483642 -0.08604872024097308 -0.20700650394090772
3717188000.0 -0.026013497289641772 -0.23232520683497085 0.07276246295775346 -0.00556819146103733 0.07313029274009404 -0.00566327860093133 -0.0854068841745333 -0.20479767442742852
3718750000.0 -0.027062441226756904 -0.23214427803411625 0.07257951766285616 -0.008571492090180658 0.07292673311444421 -0.00881350613774916 -0.08500129453863059 -0.20270249661328116
3720312000.0 -0.028501157878667704 -0.23200939737154316 0.07239090234130358 -0.011687857026819936 0.07240171373334027 -0.011872889433288281 -0.0848491348815851 -0.20046014893831177
3721875000.0 -0.030207360391754437 -0.23179235552123723 0.07175823136415416 -0.014831104768934997 0.0717791720622172 -0.014828588555716463 -0.08538453097793099 -0.19831511714442682
3723438000.0 -0.031845408970551915 -0.23203229297984465 0.07096995629182896 -0.017869014515468632 0.07099797715264546 -0.01776294026187938 -0.08645358371550813 -0.196934088488924
3725000000.0 -0.03316984686344363 -0.23241863154301198 0.0700414875783035 -0.020887284680647357 0.07029909812442794 -0.020726343204217002 -0.08791022769343505 -0.19554452774448136
3726562000.0 -0.034798837563693376 -0.2325924391577723 0.06894270709962362 -0.023807941506227778 0.06939441253050825 -0.02352365576591515 -0.09008343224623086 -0.19476426523055826
3728125000.0 -0.036279491826762225 -0.23291649337543088 0.06766212436675341 -0.02668037018458598 0.06818778618385886 -0.026337811558009336 -0.09052693873142242 -0.1935153457342737
3729688000.0 -0.03763964282377509 -0.2335397775792676 0.06644866651800321 -0.029398779671076628 0.06701783691338639 -0.029257975875708216 -0.09336479347913876 -0.19317201734637737
3731250000.0 -0.03879890334744602 -0.23388702540338083 0.06516338135625999 -0.032004705711497904 0.06564680021480179 -0.03204015017236415 -0.09488034801407942 -0.19268589852428128
3732812000.0 -0.04027969908664976 -0.2342852386876409 0.06375812599529278 -0.03460554705030296 0.0641374500513018 -0.0348809187370227 -0.09717289771411354 -0.19303797215264815
3734375000.0 -0.041606967604580714 -0.2347331684533934 0.06233383435727999 -0.03720776524423793 0.06250950180214401 -0.037630016816947984 -0.09861343638853332 -0.1938838221787861
3735938000.0 -0.042793120438842897 -0.23472466065756437 0.060701453250474144 -0.03979087765623196 0.06085994662724716 -0.04010513707210996 -0.0999288742377073 -0.1961715803898834
3737500000.0 -0.0443143413966314 -0.2347625830413879 0.05890849325117052 -0.04233617604604613 0.059060919842796 -0.04257334393615892 -0.09990609997285607 -0.19620990226744603
3739062000.0 -0.045964066617478955 -0.23449079535255904 0.056839207010292866 -0.04492764411068629 0.057046862627606755 -0.04504801860858313 -0.0994514881082517 -0.19677317524428142
3740625000.0 -0.04782756669292792 -0.23406631547043677 0.05478421699770486 -0.047451483954763694 0.05507548572284455 -0.04729891146115349 -0.09959472926378286 -0.19622479474385474
3742188000.0 -0.04989615439538966 -0.2336535575229784 0.05258323353715732 -0.04983119539735488 0.0528537337765544 -0.04967965090004969 -0.10046124202439635 -0.1951695496977518
3743750000.0 -0.051903963466709044 -0.2334058809488932 0.05026761601926694 -0.05187354300115943 0.050762618726675944 -0.051872652245785356 -0.10201310766928694 -0.1942139235904177
3745312000.0 -0.05415488763797108 -0.2332355164379999 0.04799038998341854 -0.05391173863062117 0.048397574087976 -0.05407638804880514 -0.1037827876947667 -0.19315659875129867
3746875000.0 -0.05690257556915303 -0.23310461005975044 0.045549855657259115 -0.05561786387016917 0.04591294934449779 -0.05603592878663551 -0.10615960871017686 -0.19234453606159996
3748438000.0 -0.05956299341073652 -0.23286899466343045 0.043060675936931934 -0.057278487513951475 0.043342912925375225 -0.05784443460953269 -0.10896597417235415 -0.19162488197100494
3750000000.0 -0.06239882303961541 -0.2330457545833269 0.04054652596669542 -0.058931452721749274 0.04074264780451188 -0.059476924817791 -0.11327486447636957 -0.19174792417262354
3751562000.0 -0.06545903523700028 -0.23322122841375936 0.03794745789290377 -0.06058348866077813 0.03807243527695823 -0.060950162321415355 -0.11682250370976208 -0.19314693140676922
3753125000.0 -0.0682780894578456 -0.23335319494290538 0.03528456894890365 -0.062066701732791385 0.03542386788933113 -0.06223776496642168 -0.12036719107574528 -0.19539419973242386
3754688000.0 -0.07066963177939313 -0.23390430977492926 0.03269250486632939 -0.06347195845069663 0.032762369669973514 -0.06350133448374728 -0.1226506646918623 -0.19886309017283493
3756250000.0 -0.07351164914848164 -0.2342892676240134 0.02996744839879641 -0.06465460052433604 0.02991251008433814 -0.06466046947271022 -0.12401292803795318 -0.20257299863247102
3757812000.0 -0.07579539709460958 -0.23477785129186143 0.027007569362698682 -0.06574622058715673 0.027191770960219932 -0.06577556108152567 -0.12351889321810366 -0.20505398407084335
3759375000.0 -0.07811996878044221 -0.23518010046619003 0.02400539202178269 -0.06668193675779341 0.02426365113477464 -0.06689870260558647 -0.12254269417916731 -0.20697087716877616
3760938000.0 -0.0801360508197523 -0.23522447997978674 0.021033423491738097 -0.06752973950864531 0.021330853559988244 -0.06792490549657171 -0.12143354186092215 -0.2083077739170562
3762500000.0 -0.08220383398598997 -0.23536438410606342 0.018082971448280312 -0.06828617306329658 0.018341479961540615 -0.06875476426325972 -0.12013913395904213 -0.20807587963849283
3764062000.0 -0.08407615852776187 -0.23548912296730093 0.015113450357348703 -0.06887775564114576 0.015268003581669624 -0.06926157807282816 -0.11918593129525319 -0.20695436240951323
3765625000.0 -0.0862052445206462 -0.23498679585681467 0.012126369639161689 -0.06937318853460184 0.012294921788730984 -0.06947174244700795 -0.11822757081636406 -0.2047261231014317
3767188000.0 -0.08761588651179725 -0.2345095528946701 0.009183759108573638 -0.0696369724057149 0.009255144921535403 -0.06975272441586136 -0.1179668087754984 -0.2025739589779476
3768750000.0 -0.08974630484051813 -0.23364788413855941 0.006120779927374164 -0.06977725278901205 0.006217033924826342 -0.06982203255688331 -0.11913603897028922 -0.19892824944057197
3770312000.0 -0.0919517253540303 -0.23260792704499894 0.003202290598605307 -0.0698184520317991 0.0033470073365622754 -0.06986823078325288 -0.12155773444453569 -0.19593266854273866
3771875000.0 -0.09371443785277808 -0.23134765777633 0.0003307292689348679 -0.06955645425093307 0.0005311319494638708 -0.06970606843245432 -0.12493215274109462 -0.19410586613457853
3773438000.0 -0.09606326368883356 -0.23033612032381348 -0.0026698462894442355 -0.06917607411328176 -0.0024009819387598432 -0.06948424326802283 -0.1294719183100266 -0.1928928749240636
3775000000.0 -0.09820453753427896 -0.22917693306122533 -0.00552023547565068 -0.06869569092431357 -0.0052521529706971255 -0.06924149195329665 -0.13333618579782908 -0.19291167837927697
3776562000.0 -0.10093868754906513 -0.2280577473319552 -0.008326449601821577 -0.06811951457521917 -0.008058875476496415 -0.06876902822578097 -0.13573917900018592 -0.1938637655150716
3778125000.0 -0.10314571455548502 -0.2271662342308896 -0.011027653809606882 -0.06748607063629344 -0.010972681004819827 -0.06792451379962205 -0.1370511705409362 -0.19504254436193694
3779688000.0 -0.10550639567711066 -0.2257265254006823 -0.013867310070442045 -0.0667293383734071 -0.013909235144184785 -0.06703515297762092 -0.13747871200574513 -0.19498298374157408
3781250000.0 -0.10781602829741 -0.22503092222618282 -0.016516666108173487 -0.06588769993688547 -0.016776158195181384 -0.06627753717841478 -0.13649881094436378 -0.1952408828930168
3782812000.0 -0.10995163513912201 -0.22432506704580527 -0.01936186120037701 -0.06511184122996135 -0.01965502292997985 -0.06526025064905874 -0.13643683540276752 -0.19216835695579793
3784375000.0 -0.1120816972028126 -0.22335104301994865 -0.022092098379302864 -0.06411113096942549 -0.02216339635715688 -0.06427445914325068 -0.13712765698778087 -0.18947499873103824
3785938000.0 -0.11371888462433934 -0.22284022574368287 -0.02472646225145098 -0.06296802653217748 -0.02474436952965519 -0.0630637613135838 -0.13769721775055693 -0.18549889462288258
3787500000.0 -0.11542345958276318 -0.22208624347049846 -0.027309864106998896 -0.06170606977523788 -0.02726398179520104 -0.06183235119618515 -0.13906192581762394 -0.181097111380215
3789062000.0 -0.11644628051878321 -0.22126847822612794 -0.02979986513403681 -0.060236305376102604 -0.029607846667575648 -0.060462354013248315 -0.14115763011180713 -0.1760826647034057
3790625000.0 -0.11780551292091768 -0.22046993805563422 -0.03230976218090058 -0.05876168657653444 -0.03190790651829486 -0.05919636513956543 -0.14420885258923513 -0.17170854361633608
3792188000.0 -0.11873085100592229 -0.21957264377441035 -0.034568906977051735 -0.05715297001717808 -0.03435775533380936 -0.057638038491411206 -0.15062610320103775 -0.16607535035661414
3793750000.0 -0.11955931965239043 -0.21854320288024956 -0.03665590734394292 -0.05557197072222123 -0.036466294460702035 -0.056083873822566827 -0.1556911654403635 -0.16327208501133209
3795312000.0 -0.12049061246250305 -0.21699155211573565 -0.03855656795120977 -0.05397853418404677 -0.03867413770258641 -0.05439900233228751 -0.16355025042358556 -0.16094329515302136
3796875000.0 -0.12101081129422556 -0.21557720594938695 -0.0403480935860211 -0.052308409343748974 -0.040674740643550304 -0.052768389440002894 -0.1707992148394172 -0.16138631222540778
3798438000.0 -0.12186339327902802 -0.21389715511255833 -0.042036997342365 -0.05046622213895079 -0.042613010982532736 -0.050762166979697355 -0.17473082728142314 -0.16269424093204407
3800000000.0 -0.12257059061223906 -0.21220434447866132 -0.04369694945795248 -0.04860792032869049 -0.04412927552698155 -0.04871424855371675 -0.178607098404836 -0.1642627957302265
3801562000.0 -0.12361047185683849 -0.21001622739865242 -0.04540865779750758 -0.04654124944606086 -0.04576782986067781 -0.046614561596894435 -0.18017957980771449 -0.16525461727256835
3803125000.0 -0.12430175789380594 -0.2080454118377765 -0.04713070882654611 -0.044496507733688226 -0.04742507625778543 -0.04448852909610303 -0.1820695449271103 -0.16619389723061656
3804688000.0 -0.12572168037123652 -0.20611047742139177 -0.048912962516609634 -0.0424320517471709 -0.049020182636464814 -0.04254239707826549 -0.1836455238151255 -0.16569965634282804
3806250000.0 -0.12690600274904398 -0.2042478291145264 -0.050380536236998466 -0.04028385830696741 -0.050421257234849075 -0.04034700943238264 -0.18483253197003885 -0.1656230768627879
3807812000.0 -0.12858029252879186 -0.20263004247194755 -0.0518219175317187 -0.03811602665877788 -0.05187306911696849 -0.038141327332933704 -0.18570487048384204 -0.16444469202310244
3809375000.0 -0.12963164703379176 -0.20084901200739197 -0.05309681632508925 -0.03581140119031962 -0.05312082443864846 -0.03607713341150027 -0.18705727167050148 -0.16291391144827627
3810938000.0 -0.13137171627168362 -0.1995311310818437 -0.05413487248775353 -0.033467130585069185 -0.054331481334368714 -0.033821243687354126 -0.1886133371417256 -0.1609312935236598
3812500000.0 -0.1324870982081114 -0.19832022059458435 -0.05513483056898178 -0.03113338735910226 -0.05538713359785306 -0.03133468405147968 -0.1904735442988277 -0.15936969716864147
3814062000.0 -0.1338510453413882 -0.197081134978015 -0.05613058811699188 -0.02874590442371323 -0.05647964724437449 -0.02904857012684103 -0.19346309126039468 -0.15786068986835677
3815625000.0 -0.13477156714644098 -0.19632688942341978 -0.05697358936885673 -0.026524667325030497 -0.05731152367568827 -0.02676788971189891 -0.19624983453325764 -0.15694858727995342
3817188000.0 -0.1354175134018837 -0.19513146651830765 -0.057784526473954816 -0.024249424364674813 -0.0581186159208137 -0.024468269619112464 -0.19961707777805068 -0.15677836693866534
3818750000.0 -0.13618764790281215 -0.19418450628690173 -0.05848218810484278 -0.022082141946582996 -0.05883347101597393 -0.02205020516423611 -0.20183184526860515 -0.15786094909330975
3820312000.0 -0.1366618242427061 -0.19300628143870774 -0.0590181211847141 -0.019853959370362863 -0.059329332573766984 -0.019846890548881856 -0.20326001697465634 -0.15933754234571174
3821875000.0 -0.13753354225981607 -0.19181478261337032 -0.059562588327842544 -0.01753328228633608 -0.05981700484549524 -0.017437347898155566 -0.2039672884531798 -0.16010640439698953
3823438000.0 -0.1380734137785917 -0.19083490145980575 -0.059994635559536914 -0.015101194151732406 -0.06034219655368249 -0.015028478696477936 -0.20422333545986351 -0.1607463055179173
3825000000.0 -0.1388735196124732 -0.18936039807885918 -0.060436236349397786 -0.012724467217134532 -0.060755830176586034 -0.012773573484955714 -0.2036880567306478 -0.16182752077241935
3826562000.0 -0.1395614335496405 -0.18818893363740688 -0.060799405461935026 -0.01029679825011247 -0.0611097574210975 -0.01050832355373569 -0.20217806381829592 -0.16161821436347085
3828125000.0 -0.1402067202248365 -0.18657514289098684 -0.061083430584728815 -0.007977499793134356 -0.061200432427101895 -0.008129450129903454 -0.20089112583109392 -0.16103395609833596
3829688000.0 -0.14100868385574392 -0.18537784253689543 -0.06122292195991476 -0.005634039101506626 -0.061347384436967786 -0.005716804998703374 -0.19814650833207484 -0.15971996038696462
3831250000.0 -0.14201552658107156 -0.1839738352388173 -0.06122033425372037 -0.0033476136270308423 -0.06138376217077095 -0.0034196726863775515 -0.19697782831718827 -0.15730533262263627
3832812000.0 -0.14326037805742103 -0.18261005101477118 -0.061183216995101514 -0.0009803206345607256 -0.06138190574817292 -0.001024906043607564 -0.19574807787017076 -0.15367863041190546
3834375000.0 -0.14473549406391772 -0.18118728458433572 -0.06101357535207785 0.0013307300773860577 -0.061265060898913815 0.0012981344399245567 -0.19502583178627947 -0.1505066430690523
3835938000.0 -0.1460707216950844 -0.180163106471196 -0.06082460092782307 0.00368938424882275 -0.06114529320058564 0.0038053165663122107 -0.195269902247714 -0.1466169129951755
3837500000.0 -0.14758527793495244 -0.17901409468976434 -0.06059178247775652 0.0060231977308073965 -0.060975778508908014 0.005941763273159139 -0.1959502652277971 -0.14297858881006387
3839062000.0 -0.14928679374693304 -0.17847383803834546 -0.06032524555051577 0.008330288460669471 -0.060696614171116846 0.008238896088196996 -0.19684897338712531 -0.13981455346174504
3840625000.0 -0.15115341391392653 -0.17779233482341503 -0.05987598892244938 0.01062507232387758 -0.06028528679989601 0.010364320945814602 -0.19768742345929471 -0.1365539022445865
3842188000.0 -0.15266529798145426 -0.17724219728922636 -0.059379642804184896 0.012856005124641957 -0.05977834478673324 0.012700465606903851 -0.19947319308532827 -0.13226491874496024
3843750000.0 -0.1540718245859615 -0.1771467111678409 -0.05890996302176147 0.015007528853785661 -0.05929242828683152 0.015014175622343078 -0.20157607659446045 -0.12939053057719266
3845312000.0 -0.15561130360050301 -0.1772141667255338 -0.058307603693634934 0.01729518018060297 -0.05861739882305247 0.017389307309145348 -0.2036884967601958 -0.12554438794843104
3846875000.0 -0.15679642113486097 -0.17685438986650945 -0.057578181171946734 0.019406289587139355 -0.057964343659709046 0.019656370823029082 -0.20653574283762935 -0.12355511348782654
3848438000.0 -0.1579846949409457 -0.17643327133344006 -0.05670164794531479 0.0216200160378858 -0.057186141501035376 0.02172134219880852 -0.20919713054999214 -0.12098027427308916
3850000000.0 -0.15932259421235062 -0.176273763139107 -0.055917792828665436 0.023750884541131473 -0.056266785088771906 0.023884325546170326 -0.21110981318834302 -0.12004197434558966
3851562000.0 -0.16053573954648195 -0.17585900384678643 -0.054921061196298304 0.025864716107943848 -0.05528739475686154 0.0259758916902611 -0.21254468858025122 -0.11868804267511252
3853125000.0 -0.1617755275557895 -0.1753553574662851 -0.0539619151861381 0.028044497908876115 -0.05419615001718967 0.02808485635243756 -0.21381293192617803 -0.11663836234035499
3854688000.0 -0.16331275440384566 -0.17476953384227334 -0.052985442116844896 0.030158760122429018 -0.05298235219368287 0.03028387263785991 -0.21530444991233014 -0.11374759374036238
3856250000.0 -0.16465374887701892 -0.17389385306690772 -0.051803623385362076 0.032212527913977856 -0.05181114613505029 0.03226279863556711 -0.2173234159274763 -0.1108986341875581
3857812000.0 -0.16639183487537218 -0.17338983033641786 -0.050578906360055326 0.034202793461352334 -0.050748546609777685 0.03426305058226059 -0.2199864078697017 -0.10753758034260298
3859375000.0 -0.1681756101502008 -0.17251912798583494 -0.04920588183978282 0.03613275901299876 -0.04941348699708268 0.0361713577707581 -0.22265833394573883 -0.10528578953108757
3860938000.0 -0.17006039888187288 -0.17195506036456842 -0.04767532662417972 0.037948005125800564 -0.04804682361731482 0.0380502578260328 -0.22567506592731534 -0.10277193179345445
3862500000.0 -0.1717192515494355 -0.1711904965883527 -0.04614066763316938 0.03980535751315425 -0.04659667176148034 0.03988454472426006 -0.23004961432019153 -0.10019297750197322
3864062000.0 -0.17405869946331515 -0.17068265680630693 -0.04448226673834577 0.0416321692651093 -0.044990982270167214 0.041639574863420646 -0.23410510073372603 -0.09829332698074218
3865625000.0 -0.17614137766785312 -0.17013252717761423 -0.04287737903469983 0.04344549922311354 -0.043383565351842 0.04354812094486203 -0.2398853782087839 -0.09639255694954392
3867188000.0 -0.17852066937155062 -0.16972584606439756 -0.0413178495583723 0.04503340603748061 -0.04163966837067522 0.04523370742805683 -0.24555054714898636 -0.0974716323039926
3868750000.0 -0.1807870543448786 -0.16955824193791877 -0.03966963310434655 0.046624780325026795 -0.0398825127220235 0.04684256741062219 -0.2498134430465792 -0.09884826296650934
3870312000.0 -0.183084406260929 -0.16943957855732056 -0.03799344457687994 0.04802005301010432 -0.03802724072943732 0.04839904656253102 -0.2534262067501471 -0.10277804689448784
3871875000.0 -0.18516329099702958 -0.16941165731350016 -0.03607523119182281 0.04943199332692069 -0.0361248667148474 0.04990628692931595 -0.2555223792772573 -0.1063441030197026
3873438000.0 -0.1870828846430781 -0.16925431448126796 -0.03411687111314221 0.05094973520180967 -0.03422145214028815 0.051281418805957345 -0.25639752612624567 -0.10971567263299703
3875000000.0 -0.1887999131953157 -0.16946745869364707 -0.03215311274631562 0.05237336330682778 -0.032305545789384424 0.05251957549237099 -0.2559997528225485 -0.11294764576295885
3876562000.0 -0.1904384666263202 -0.16919870149932273 -0.030008738465618735 0.05379890236591378 -0.03021273832324361 0.05376330918242033 -0.25343902365788873 -0.11521267239632979
3878125000.0 -0.19180879340878923 -0.16872610793060616 -0.027885495988236766 0.05506823429596405 -0.02805528107596315 0.05495929677350846 -0.25051083964201465 -0.11610430935317406
3879688000.0 -0.19347076545089015 -0.1681006973685758 -0.025713360968950064 0.05613992257044051 -0.025877424811669495 0.05608510097589485 -0.24708697249041414 -0.11637324460424128
3881250000.0 -0.19511056177463895 -0.16729300270006012 -0.023327616138073368 0.05703911093091649 -0.02359603595575368 0.05724239429624793 -0.24408668559825575 -0.11338146177772758
3882812000.0 -0.1963421203973949 -0.16584758219526047 -0.021022756911096407 0.05792120945834353 -0.021204068256584448 0.05820034315942289 -0.24226537066684029 -0.11073013530178023
3884375000.0 -0.19795806142902064 -0.16487321349608128 -0.018667107813406098 0.05872180003924598 -0.018872175895851294 0.059115127202596936 -0.2416381247618061 -0.10664745656592754
3885938000.0 -0.1995348032482157 -0.16323520144717124 -0.016313743577718125 0.059555049223154015 -0.01652929030948601 0.05988275419772421 -0.24203463170463357 -0.10282218301554907
3887500000.0 -0.2015587656956141 -0.16167257614138028 -0.013966675454644265 0.06012826076592601 -0.014202719427081407 0.0605121771317102 -0.24364063995451202 -0.10041473693367872
3889062000.0 -0.20340963482098987 -0.1600333177883356 -0.011501058645573355 0.06073023756249886 -0.011809612585655918 0.06093688741687089 -0.24464267950784627 -0.09850791729469374
3890625000.0 -0.2056218278592045 -0.15833979958239236 -0.009165269274795431 0.06117907297708793 -0.009275253021723402 0.06129060753159357 -0.24569646225969216 -0.09708723645530089
3892188000.0 -0.20793976397746636 -0.15663944291635382 -0.0067019907673999905 0.061527472324079006 -0.006799300102759414 0.0617704339537745 -0.2462088830581071 -0.09628818044918146
3893750000.0 -0.2099000807395611 -0.154920953946312 -0.004194099419302618 0.06179086556022309 -0.004262651329214759 0.062032884138434635 -0.24591749485122658 -0.09550833437069511
3895312000.0 -0.21238129565153757 -0.15321361348364151 -0.0015872979893669416 0.06200497219861547 -0.0016125561724833319 0.06228395794251329 -0.24432062819794292 -0.09418021054851948
3896875000.0 -0.21490347885821448 -0.15167123486429337 0.0010425015890032667 0.062052787072775964 0.0009608511076788981 0.062341848018686884 -0.24208429513105997 -0.09213104959868755
3898438000.0 -0.2174231525654405 -0.15031073396992536 0.00364029515788472 0.062111251593614525 0.003494825417032784 0.06239642885157067 -0.23901925604206192 -0.08937870246478107
3900000000.0 -0.21970093472605853 -0.14869788768450967 0.006356596232156951 0.061997063420930504 0.006119101940603166 0.06227919549031907 -0.2352911941062045 -0.08441243484893077
3901562000.0 -0.22204819424011527 -0.14739095948090558 0.0089526468051848 0.061919015154424266 0.008791860927998307 0.06205122552953105 -0.23239534980117468 -0.07644450480018787
3903125000.0 -0.22374271623739547 -0.14581204995881933 0.011611255413907106 0.061777464161322036 0.011380091189772653 0.061873367966979634 -0.23165977301545207 -0.0690772187776106
3904688000.0 -0.22562493722588603 -0.14442979934193048 0.014072746701845624 0.061333638531051324 0.014063436316353338 0.06154318650953362 -0.23260648019614122 -0.05811055237018364
3906250000.0 -0.22747800964748607 -0.1425673016947214 0.016648769980015514 0.06097134377387211 0.016506131023237513 0.06124555495315297 -0.2362329922019009 -0.049029089449262236
3907812000.0 -0.22901230145223528 -0.14074499048080968 0.01907569833022096 0.060298785281508185 0.018962185236780452 0.06068891092583068 -0.242179800558424 -0.04067979739048895
3909375000.0 -0.23016502983493156 -0.13837694255076055 0.021458396658050948 0.059633485362748935 0.02137720043980887 0.059945163348289865 -0.24949570525834544 -0.03363994524741313
3910938000.0 -0.2316209066718546 -0.1357359602426093 0.023725334655848977 0.05869737492503836 0.02370484318549864 0.059187229752680384 -0.25767314626096344 -0.03007004476813253
3912500000.0 -0.23309309142421322 -0.13296659880905018 0.025973243669195265 0.05769312487430024 0.025917389943988407 0.05814402817045873 -0.2638262312467702 -0.028839027792792453
3914062000.0 -0.23454591163886346 -0.13047280928673935 0.02821781706345895 0.05655638658407588 0.02814847888896348 0.0570141160168685 -0.26811372058796745 -0.027450406667661926
3915625000.0 -0.2361945601740986 -0.12702788622138964 0.03039509985131761 0.055283017870021565 0.03041250153658069 0.05566183879820418 -0.2706456890731077 -0.027286632772791166
3917188000.0 -0.2378196873563783 -0.12375216331838466 0.03263500815647848 0.054195618393253604 0.03264552678032215 0.05437979764672233 -0.27604851359801075 -0.026966159111522184
3918750000.0 -0.2399841481661317 -0.12064888009218991 0.03481089420252972 0.052898664218590366 0.03493488430183184 0.0530744287645511 -0.27807329990584495 -0.025301156120226227
3920312000.0 -0.24179564911449086 -0.11726077363963358 0.037007468398473714 0.05157429314442585 0.037061384761911766 0.051732847470713654 -0.2799350501571547 -0.025340695919151026
3921875000.0 -0.24411561291521286 -0.11399764936774638 0.03917366887229762 0.04990266454601259 0.039175315999759604 0.05016981845158951 -0.2800181906056078 -0.024031998757672732
3923438000.0 -0.2463339332475939 -0.11094957701298853 0.04131987376438877 0.04812321325798832 0.04127173930454891 0.0483895080023275 -0.2798302148167446 -0.02184330587327459
3925000000.0 -0.24828069338195563 -0.10807878796573651 0.043393690013544865 0.04620813800470876 0.043295697018801746 0.046563712281885675 -0.27988697691650466 -0.018244464310838482
3926562000.0 -0.2505875559029778 -0.10468306312002293 0.04555086814089612 0.044177182402189534 0.045379217317636084 0.04451977662205575 -0.2804418618875907 -0.012787070866977788
3928125000.0 -0.2525650007893896 -0.10202083823981863 0.04738292350331431 0.042222206454006976 0.04734420099928884 0.04274176065800439 -0.2843669487330993 -0.008057083589942062
3929688000.0 -0.25457988734823006 -0.09916716068517277 0.04904416224974733 0.04023144018755895 0.04911628624596785 0.0406633684300717 -0.2896011327878054 -0.004269419432490533
3931250000.0 -0.2564615107190474 -0.0965234404001406 0.05058741414516844 0.038348157635686005 0.0506942004552538 0.038774351938850066 -0.2965108387985233 -0.003630638965264478
3932812000.0 -0.25810468878394605 -0.09370632767839275 0.051878282962736826 0.03646205221614285 0.05226945483444818 0.03670756228429347 -0.30077829390635585 -0.0025862414477258295
3934375000.0 -0.25945781914605176 -0.09078975181572266 0.05308863148163868 0.034483532174413745 0.05343285007771328 0.034685848717179286 -0.3046072617258233 -0.0069319347583375835
3935938000.0 -0.2607707725823013 -0.08838334082056234 0.05433920863572028 0.03247001219767106 0.05472430889655688 0.03260732113289947 -0.30603629204996446 -0.010109972682498716
3937500000.0 -0.2617060613761813 -0.08526782023356884 0.055581043633307584 0.0302695494605099 0.05596968783671718 0.0304077697664656 -0.30573838739922904 -0.013593133513876985
3939062000.0 -0.26263236324387434 -0.08259611789495848 0.05691573010496992 0.028107052257465463 0.057143930167270963 0.028152522094865882 -0.30346517924247524 -0.016453198222339493
3940625000.0 -0.26340353934471655 -0.07947043206706779 0.058253919010912175 0.025764382623822062 0.05829110250493727 0.025876654808139537 -0.3015400415286222 -0.018075100225160047
3942188000.0 -0.2640802613900054 -0.0762669050143681 0.05925201586526427 0.023227228851861726 0.05923500338640644 0.023391495595540573 -0.2974548588622183 -0.01905515609270158
3943750000.0 -0.2647861593491635 -0.07293564784528063 0.06016861851580102 0.020580086556839027 0.060101980130628216 0.020825531690564166 -0.2927280107914344 -0.018923516397477698
3945312000.0 -0.2655309438922612 -0.06963857514406724 0.06074276187588293 0.01793307856174527 0.06080006875931868 0.018096281353081722 -0.28644330723958494 -0.018404628190861975
3946875000.0 -0.2666666573194929 -0.06642311781898691 0.06121240552603176 0.015169723583933484 0.06140563479029162 0.015358318608360219 -0.2804459937027985 -0.015186848730801157
3948438000.0 -0.26765470243256445 -0.06308122299518572 0.061577807087152325 0.012348212024498878 0.061840996192721244 0.012604527047146744 -0.27553621477137064 -0.010194697459240438
3950000000.0 -0.26866473386454426 -0.05997044120540492 0.06178499405647975 0.009714633415328553 0.06220773886676109 0.010032049983991088 -0.2712982852626749 -0.004267702168355675
3951562000.0 -0.2700219677115159 -0.05674525611150936 0.06204555462865159 0.0071696942122610454 0.06245807898890477 0.007507103890297813 -0.2686048516966735 0.0013007924713474258
3953125000.0 -0.2710384157151155 -0.05412116730906512 0.06218292286691703 0.0047839226728495325 0.06269238727800239 0.005052779693826825 -0.2669552685865684 0.007186872030871755
3954688000.0 -0.27218708377337303 -0.051439121602275414 0.062385396220720014 0.002364900148838417 0.06265668925320014 0.0025077128282581106 -0.26595324864181447 0.012345598673287227
3956250000.0 -0.2732626859204631 -0.04918407454242958 0.06242933617668255 -9.002571382918377e-05 0.06278034946704455 -7.673757004669352e-05 -0.26472567058414 0.01726330154955288
3957812000.0 -0.2743915444996106 -0.046736645161100134 0.06247881021397123 -0.0026987366728461384 0.06286241885058325 -0.002784737107697547 -0.264443960039987 0.02224509894962217
3959375000.0 -0.27475254528950094 -0.04425347127519382 0.06235360724280544 -0.005357379944667683 0.06273912115741831 -0.005473377954180647 -0.2639501337653372 0.02714854185214798
3960938000.0 -0.27553020996583194 -0.04183191826717575 0.06211249021947108 -0.007963053865378914 0.06243730454940527 -0.008163998248676922 -0.2641456148164196 0.03136099382181787
3962500000.0 -0.2760217154689543 -0.039550020861654454 0.06167681834947256 -0.010699012209222097 0.062009903725722335 -0.010727642259067182 -0.26433395331210435 0.035564428386469324
3964062000.0 -0.2765334881085811 -0.03736278337697859 0.061159444833374446 -0.01326500855790666 0.06134491790982414 -0.013304904330269512 -0.26425468664465074 0.03926374894739878
3965625000.0 -0.2766855375396317 -0.03491894122842935 0.06051200950816042 -0.015732797597127993 0.06052933624573015 -0.015769063304856907 -0.26358801248736197 0.042718994140406356
3967188000.0 -0.27661327094726085 -0.0327658837967811 0.05967939632920521 -0.01826810862865343 0.059652845104075765 -0.0180869353637105 -0.2628463414854171 0.04730766463201502
3968750000.0 -0.27679926183134684 -0.030781405493754334 0.0589093109280531 -0.02066663370268124 0.05889853036578546 -0.020385160566661818 -0.2626698857805654 0.05211240835404029
3970312000.0 -0.2766833091896607 -0.028251718080163333 0.05792028353592628 -0.022931371026226114 0.05818513286765535 -0.022712810335466765 -0.26349755684869103 0.05671740974566773
3971875000.0 -0.2764258569315994 -0.025617794490827392 0.056822898776808795 -0.025172897962711847 0.057396272525473885 -0.024943391577050205 -0.26463639294765906 0.0608816527858321
3973438000.0 -0.27642962367089235 -0.022885140402161913 0.05572340831574988 -0.02747339318036927 0.05648499474681919 -0.02734904428670219 -0.26654244639669844 0.06495056150636933
3975000000.0 -0.27634316784853896 -0.01983095767864219 0.054526282429471655 -0.029615571116579326 0.05535184815742424 -0.029669167398691017 -0.26755261721457413 0.06858051722748125
3976562000.0 -0.2766251826673185 -0.017189062555122564 0.05327499251725885 -0.03182059299599413 0.054017085101465745 -0.03191384270404247 -0.26883397025647765 0.07175378936214101
3978125000.0 -0.2769401434322101 -0.014499421191627747 0.05199756695287893 -0.03387442153304987 0.0524892051900775 -0.034246551867190674 -0.270968503095917 0.07621936403375747
3979688000.0 -0.2772712782871234 -0.011804599518108187 0.05075687242539601 -0.03584125321271385 0.051000649106314765 -0.03636221725986861 -0.2748696344544487 0.07970941875198886
3981250000.0 -0.2779593673444875 -0.009318452684177867 0.04943570717594987 -0.037835361806571675 0.049486253807171414 -0.03831595742816087 -0.27918117687364435 0.08223712976703865
3982812000.0 -0.2781558670739677 -0.006844136877640358 0.04806441830526361 -0.03973819933484205 0.04802592670299939 -0.04023847287019246 -0.2848795630418393 0.08274744487326087
3984375000.0 -0.27835994944346315 -0.00469693060630469 0.04653938755484575 -0.04156607540061978 0.046457439208344005 -0.04188209707515059 -0.28975689041560576 0.08056912791302703
3985938000.0 -0.27836039186753037 -0.002191528647605721 0.04491675378251697 -0.043415751785706704 0.04481576561874183 -0.04357160686237088 -0.2929525534281098 0.07788538215988369
3987500000.0 -0.2787373835604887 -2.9946055115984657e-05 0.04317678085442327 -0.045393485273363544 0.043220489313203374 -0.045123867001385876 -0.29390538607695144 0.07474262569350786
3989062000.0 -0.27827420234219563 0.002508388283590082 0.04134705646350105 -0.047302207416310416 0.04147690318069456 -0.04684387919939385 -0.29485428897394034 0.07082407943560161
3990625000.0 -0.27826368678483265 0.005017605718369457 0.039445408593980644 -0.04900345407092114 0.03968972655247231 -0.04851196981900521 -0.293608150866271 0.06685126276647699
3992188000.0 -0.27783148295729987 0.0075107178515346675 0.037443484787226956 -0.05043471288120551 0.037888346921794054 -0.050242299594287776 -0.29174426867392 0.0623929551175423
3993750000.0 -0.2773593809924553 0.010081932460780636 0.03536425247641715 -0.051754502610289604 0.03583563751916648 -0.0517884276053962 -0.2875319185469041 0.06013062992848736
3995312000.0 -0.2769665427664622 0.012763063755642406 0.03315509660800088 -0.05300546904808484 0.03374909344836622 -0.05324478570934097 -0.28291628096140925 0.058884685913679395
3996875000.0 -0.27636094611686934 0.015534660748833263 0.03089043114863402 -0.05395714566305212 0.03142939052618911 -0.054567110935670494 -0.2768631809644285 0.05841760506698683
3998438000.0 -0.27585556974445424 0.018344127895456152 0.028590830783944275 -0.055053577696271484 0.029091102746873283 -0.05567089508743191 -0.27136484188696763 0.059839790732670026
4000000000.0 -0.2752006295016792 0.02155202882601955 0.026387008674794724 -0.056170097321193206 0.026742055407055293 -0.05669573785258722 -0.2672287529861088 0.06300988890062946
4001562000.0 -0.27474425908279415 0.02488389385770272 0.02430912867973864 -0.05721869244066927 0.024289623278738452 -0.05763159144331761 -0.2634435431268587 0.06720173977337517
4003125000.0 -0.2740586764581064 0.028619281717592874 0.022115405247376492 -0.0582324206939714 0.02195727144032548 -0.05842448739204122 -0.26166899098528 0.07097647811738433
4004688000.0 -0.2740466299916177 0.03208798747290414 0.01983429910805937 -0.05910284080753449 0.019633808648290174 -0.059255742707332165 -0.2604368917100071 0.0737923269832358
4006250000.0 -0.2737775647112197 0.0356157992147519 0.017418446490132498 -0.05991676657410758 0.01720315938927367 -0.06000067333856832 -0.2605785030437344 0.0759590192367192
4007812000.0 -0.2738130741393557 0.039150765941712413 0.014864160974599925 -0.060802715125853064 0.01474628084286168 -0.06070630709174226 -0.2604010581357764 0.07720107791726089
4009375000.0 -0.27414687246080566 0.04251397960594132 0.012221891322622858 -0.06136199740847986 0.012322302255509305 -0.06144812179967723 -0.2576530515382574 0.07683931736325643
4010938000.0 -0.2741812644609673 0.04602025070255024 0.009416719318359145 -0.06191225086766377 0.009898403057024207 -0.061955248262651114 -0.2557677572581421 0.076963892619539
4012500000.0 -0.2742655821421777 0.049184447695104314 0.006815796285543598 -0.06233036495344375 0.007335558123447179 -0.06234491710536976 -0.25193633033665436 0.07734660630113593
4014062000.0 -0.27425085327328386 0.05206195253483282 0.004297835215835984 -0.06239281050030949 0.004831913712982886 -0.06256709348122838 -0.24713636840189177 0.07874417230297494
4015625000.0 -0.2743289461298997 0.05501867360654042 0.0018849028498363206 -0.06241276491340578 0.002259866752868704 -0.0626863061792487 -0.24148883086445702 0.08157367334425283
4017188000.0 -0.2737276360199032 0.058243627383427365 -0.0006218969722313929 -0.06222649939498224 -0.00032273302852917817 -0.06267336303465734 -0.235151371515871 0.08620940835437671
4018750000.0 -0.2732145281311937 0.06116990967466524 -0.0030113378960653983 -0.062066367552178106 -0.0029724587627132687 -0.06260795755836382 -0.22958351516304007 0.09297034360969408
4020312000.0 -0.27264079320373547 0.06384088114451114 -0.005512422830238062 -0.061930587614775115 -0.005490512065301676 -0.06251019877426361 -0.22628257014719327 0.10133821794488841
4021875000.0 -0.2719809048835258 0.06736944641262237 -0.007977911018277621 -0.06165884490295795 -0.00807417641015063 -0.06222523939886753 -0.2239435801373927 0.11054694590463844
4023438000.0 -0.2707803501958517 0.07066827361349834 -0.010487182402108742 -0.061354800619844475 -0.010613601802000298 -0.061806227128881695 -0.22505876949890857 0.11960823900788804
4025000000.0 -0.27036461449569027 0.07389292712357726 -0.013051896875159417 -0.06101894074837407 -0.013128190626967049 -0.06130125586032555 -0.2275448656193488 0.12787457233706326
4026562000.0 -0.2693747908629215 0.07725426851454377 -0.01556393254114896 -0.060532539472286546 -0.015599445405575882 -0.06067097495576513 -0.23126395892938245 0.1348451539113114
4028125000.0 -0.2680889119813755 0.08081395660922898 -0.01808848164590834 -0.059786300009963406 -0.018084470834499915 -0.05992235412767786 -0.23578877016809413 0.1400264570239803
4029688000.0 -0.26690512383175363 0.08446147424277359 -0.02051082550001773 -0.05897327690321852 -0.020515978044690533 -0.059097800711067544 -0.24055883871104575 0.14281378439207845
4031250000.0 -0.26589935358263594 0.08817043738131744 -0.022928711054741834 -0.05808888421317647 -0.022908793450235932 -0.058302423621914734 -0.2453732180077473 0.14501123441156247
4032812000.0 -0.2652137231739564 0.09217328281698883 -0.025234314335231434 -0.057031426903561735 -0.025127555459670024 -0.05741479013770125 -0.24879284460730863 0.1448439585445463
4034375000.0 -0.2644066896051081 0.0959821151642877 -0.02750692056919202 -0.05589393618603444 -0.027402772820372887 -0.05638145542762926 -0.2507444592388885 0.14415984459136041
4035938000.0 -0.2635290062746711 0.09982178182076212 -0.02970537785731336 -0.05457261034207287 -0.02969378845184738 -0.055163336365856956 -0.25036534858882264 0.14392010855721013
4037500000.0 -0.2631017399391532 0.1036625589545349 -0.031975316535448155 -0.0532451975573872 -0.03199694947716606 -0.05376804429360131 -0.24857841997639124 0.1447959768701763
4039062000.0 -0.26258237512159055 0.1073396555540547 -0.03422252915199191 -0.05196011729736069 -0.034336503687517235 -0.052350833055880334 -0.24616336266015953 0.14825313839567983
4040625000.0 -0.26228319324868204 0.11078014168294871 -0.036379985827079436 -0.05049515329454406 -0.036549095418680705 -0.05088800345342593 -0.24452208372551687 0.15293848712144673
4042188000.0 -0.2617011003669119 0.11403175680735628 -0.03836503936034243 -0.04912576065526947 -0.03865815971404013 -0.04936643949336999 -0.24602637679936945 0.15794652291543876
4043750000.0 -0.26093642665503064 0.11674300775351595 -0.04042682132068517 -0.04756481093810841 -0.04062518690427104 -0.047763927111054455 -0.24710112017528776 0.16308059551080323
4045312000.0 -0.2604232370735868 0.11920465068027006 -0.04220044331171293 -0.045985297634177635 -0.042484244302372805 -0.046248470458080324 -0.2509659019632265 0.16708767552499587
4046875000.0 -0.2591202825583032 0.12197064130412526 -0.04404600266042056 -0.04432964365420081 -0.044234136972390856 -0.04458989810382091 -0.2547221175806448 0.17049268497156186
4048438000.0 -0.257949384820158 0.12465062954312993 -0.04584312185934604 -0.04257607983771621 -0.04595204652760864 -0.04282886666761213 -0.2590186815963935 0.17206006211853242
4050000000.0 -0.2564398005816137 0.12701704612993803 -0.04765061899008961 -0.04076462898782878 -0.047695261884295896 -0.0409919032396918 -0.26249083672287715 0.17266683262441979
4051562000.0 -0.2547621072673537 0.1293932543602902 -0.04938247937594103 -0.038846968647759245 -0.04943403845877677 -0.0391644290272413 -0.265921734165105 0.17268692669282482
4053125000.0 -0.2526691598011925 0.13197867543318367 -0.05094737877346488 -0.03691306684615504 -0.051126542351609475 -0.03724149574370646 -0.2682651014543014 0.17155647505674068
4054688000.0 -0.2508225599029474 0.13456527698157925 -0.052582845543052655 -0.034907839540309016 -0.05265828503246001 -0.0351729402901918 -0.27094510054836074 0.1674305747743566
4056250000.0 -0.2490527769489534 0.13741321899530617 -0.05383562121085361 -0.03285323680822484 -0.054063096822912826 -0.03310974677045852 -0.27075027015494546 0.16231815588527643
4057812000.0 -0.24725926836403087 0.14014110591266385 -0.054996395449783915 -0.030555705826268282 -0.055219160286060644 -0.03084486994073622 -0.26575104805181715 0.15817697499954161
4059375000.0 -0.24520051413666666 0.14276343616241552 -0.05599273972893119 -0.028190695933822556 -0.05630949019913237 -0.02845720778253904 -0.26037832367159197 0.15629681616927762
4060938000.0 -0.2430026347785934 0.1455560463462038 -0.05695794944500494 -0.025848300158532088 -0.05734642147156606 -0.02614992489232872 -0.2530325663735452 0.15519339146886704
4062500000.0 -0.24101570764446553 0.14822132352753212 -0.0579412137574764 -0.023477472610069987 -0.058227370003730704 -0.0238073469907173 -0.2463507680454886 0.1576617269046104
4064062000.0 -0.239208191034007 0.150895668704609 -0.05882052174664273 -0.021240140385527885 -0.05907745178671229 -0.0215239549924495 -0.23976807057694546 0.16045699724543072
4065625000.0 -0.23689440824931862 0.15323739393666092 -0.059656553553572474 -0.018969519002494214 -0.05981376801524293 -0.019065301435603813 -0.23525726562121105 0.16542132983642746
4067188000.0 -0.23479404980158933 0.15634795202953905 -0.06040095646095522 -0.01662032303601039 -0.060564597532305205 -0.016744935759099824 -0.2307554605945851 0.16914239873732834
4068750000.0 -0.23305488950923411 0.15859581800912456 -0.06094575872393511 -0.01420451271196746 -0.061181280055453036 -0.014235043721954239 -0.2262665990555662 0.1732039775195968
4070312000.0 -0.23120740203717632 0.16098808749317922 -0.061586842042517555 -0.011587324291668314 -0.061811670106304936 -0.011635346187280156 -0.22361035780904412 0.17739761686566663
4071875000.0 -0.22937735726767902 0.16320980234652702 -0.06209472880176564 -0.008917781161266047 -0.06228145984072089 -0.009033682074372629 -0.22053583989911665 0.18238173921499864
4073438000.0 -0.22764380379352744 0.16512469380689035 -0.062495291131715876 -0.006249832812024247 -0.0627973518265584 -0.00646543517719642 -0.21825411990818616 0.18625534963884455
4075000000.0 -0.2257706309105881 0.1668668172492094 -0.06284645047818851 -0.003673961441614061 -0.06300935841183661 -0.003977272475258404 -0.2159901042904545 0.18945886205596713
4076562000.0 -0.22350302628669608 0.16850014939200303 -0.06291015500871519 -0.001074559531955699 -0.06313092439123805 -0.0013966978737882819 -0.21417699019096523 0.192135775815041
4078125000.0 -0.22129883294087865 0.16979379396663305 -0.06278349961076228 0.0013641209067341085 -0.06301328880718605 0.0009953783575782312 -0.21097692158422585 0.1933508654511548
4079688000.0 -0.21873542841881155 0.17134880400991206 -0.06255266103211843 0.0038782590262422733 -0.06286848779861642 0.003549448349090105 -0.20763922251031397 0.19543295068432628
4081250000.0 -0.2157471621177533 0.17324910138068714 -0.06228573580282626 0.006367220854882173 -0.06269737402733702 0.0061427455840014486 -0.20325655445493723 0.19888765564190394
4082812000.0 -0.21301302228733657 0.17513361322034593 -0.062002510559072764 0.008785104678612094 -0.06246504515102373 0.008722126618064246 -0.19860274390661836 0.20078534060888958
4084375000.0 -0.2104109626070451 0.17710622325900405 -0.06163635283198604 0.011174313183925247 -0.06224116459050144 0.011255747054723337 -0.19408501327617916 0.20495109104989964
4085938000.0 -0.20785578077540515 0.17912673280923794 -0.061297196160082563 0.01368339886415203 -0.061829163460608676 0.01373769173184478 -0.18944842381691188 0.20906828835528674
4087500000.0 -0.20491138792822317 0.18098617058598032 -0.0607832422078238 0.01606861824725552 -0.06124436308652364 0.01623080805802434 -0.18646930000205347 0.21340699866711152
4089062000.0 -0.20229487283784986 0.18310167821865572 -0.060215838352172806 0.01864047047583336 -0.06045902950403383 0.018693910664425162 -0.1830416429678 0.2184233854600179
4090625000.0 -0.19957301506473088 0.18512684542916893 -0.05949722654499802 0.021095454165273222 -0.059615370510030026 0.021168890723023893 -0.18051384335904744 0.22310951000142742
4092188000.0 -0.1972093485757278 0.18707398664607336 -0.058608009288844236 0.023628715921414883 -0.058626885034305964 0.02365187980668841 -0.17916109617234563 0.2289131492770568
4093750000.0 -0.19410093345739154 0.18882365171190527 -0.05763967820435122 0.02599708767385448 -0.05770038586846771 0.025921871796658853 -0.17896538631969494 0.23317054705733098
4095312000.0 -0.191266075204848 0.19058073121594626 -0.05647165554695418 0.028305781159995852 -0.056645056096969196 0.028219133195322894 -0.17943149076523848 0.23741821976225155
4096875000.0 -0.18884594416516468 0.1923294708773559 -0.055201815750236916 0.030519436452948807 -0.05560888064711342 0.030456956316747125 -0.18053784463278055 0.24021921135234142
4098438000.0 -0.18601302137053366 0.1941758894334391 -0.053900655779346066 0.032718685666621214 -0.05442767734921091 0.032685905266060286 -0.18163881936324575 0.2416186804146687
4100000000.0 -0.18370040501122917 0.19617964355977457 -0.052587615374787865 0.03503611775692401 -0.05324887247674541 0.03473186443681459 -0.18211975172611822 0.2420240340968698
4101562000.0 -0.18103265395092816 0.19784062191027732 -0.05113549964882503 0.03708780159858327 -0.0518472707063078 0.03709787541447038 -0.1821729723594767 0.2419254693056691
4103125000.0 -0.178224755202688 0.19933499946106215 -0.049775448317324666 0.03923755168682179 -0.050267959498821145 0.03934848425714139 -0.18207848140344182 0.24137209924791123
4104688000.0 -0.17573336883475282 0.20089694986470474 -0.048327758566923236 0.04127840220554275 -0.04865061023151688 0.04156886449228909 -0.18136935487933745 0.24001737606446658
4106250000.0 -0.17294257695077542 0.20187693138174068 -0.04671034462699936 0.043169712585048155 -0.046974815591580274 0.043673152217987905 -0.17969513231686515 0.2372844244370199
4107812000.0 -0.17027507165115155 0.2032054267945431 -0.044976842066121014 0.04506841444663779 -0.04521519801566324 0.04555300310661432 -0.1763207322469182 0.23516410366189486
4109375000.0 -0.166962180925131 0.20446199410738444 -0.0430934695637784 0.04689236341773618 -0.043288822962948885 0.04728000220967896 -0.1713971607624369 0.2334321092419118
4110938000.0 -0.16383184092564618 0.20583474827507625 -0.041085817258602664 0.04863395710000817 -0.041268380471549314 0.04887656928035526 -0.16518199671372208 0.23344483328520277
4112500000.0 -0.16049488000912357 0.20745844543731795 -0.03901451976977708 0.05034870335252754 -0.03924335821592584 0.050459332857157126 -0.15988608547803948 0.2340762480300503
4114062000.0 -0.1579677097793125 0.20906936851472038 -0.03700965218487961 0.05200522114959593 -0.03715044027040119 0.051998839948272986 -0.15576409571832506 0.2372273414039946
4115625000.0 -0.1551304066925821 0.21067239388614176 -0.03498218675657239 0.05354179200143033 -0.03508903243091172 0.053554087268622125 -0.1523664893273151 0.24037366940085744
4117188000.0 -0.15220486411928175 0.21224098248710993 -0.03277696898334415 0.05499191280647447 -0.03297445406332109 0.05499814409735819 -0.15074388433470456 0.24243772057119764
4118750000.0 -0.14953435144430635 0.2141049868523472 -0.03042396794096923 0.05627912353224102 -0.030667117904359602 0.05651436268137628 -0.1495374907237398 0.24440095412307455
4120312000.0 -0.14698062826326608 0.21552751874506562 -0.028114936614798098 0.05755898329096305 -0.02833023794713085 0.057743711921400896 -0.1486802908344161 0.24411237519495452
4121875000.0 -0.14466137114842262 0.21652657363655597 -0.02573212862706424 0.05876430126149427 -0.026048511891055958 0.05901227956182038 -0.14824887786795146 0.2434926952837486
4123438000.0 -0.14244559618587002 0.21783285080871653 -0.02326354490431838 0.05995350550924022 -0.023719354416664902 0.06017992428856119 -0.14667008690779346 0.2420392400306201
4125000000.0 -0.140073948894545 0.21873979805046498 -0.020835388236918252 0.06095479263725667 -0.021260673351938465 0.06114508625458551 -0.14487890807994533 0.23960483339227656
4126562000.0 -0.13767739420595018 0.2194512139701563 -0.018457117145963722 0.06179840176460568 -0.018805633157653504 0.06193281182760784 -0.14100403381780527 0.2363450181875425
4128125000.0 -0.13538973639557403 0.2199921153042019 -0.01602399361737147 0.062402594123375586 -0.016286559638940497 0.06269567158275532 -0.13515431309032186 0.23290369483719506
4129688000.0 -0.13305517086817953 0.22103972971147243 -0.013490972624471746 0.06299338461336422 -0.013725301982740128 0.06332340579996613 -0.12861739842844508 0.22907489341478562
4131250000.0 -0.1306569700916157 0.22148232712806912 -0.01101416397251494 0.06351645622300413 -0.011045074147851315 0.06393117401002534 -0.12089686613373887 0.2281853146938439
4132812000.0 -0.12832403917861315 0.22186807464803235 -0.008373300053366273 0.06385186649005024 -0.008447546328065625 0.06436466047149685 -0.1118412537756553 0.22950728908510523
4134375000.0 -0.12585882598358247 0.22255721056027641 -0.005805129402933402 0.06419106345088511 -0.005876433021331254 0.0646760344011501 -0.102118689259274 0.23256574039180664
4135938000.0 -0.12363989340245324 0.22294982824977477 -0.003196778780755621 0.06448055021012301 -0.0033002769983432284 0.06488332864483047 -0.09549728867725853 0.237843296381287
4137500000.0 -0.12110876684574942 0.22314934421033558 -0.0005881716654463896 0.06465582046899755 -0.0006590143836932212 0.06488677268349534 -0.09067782674754693 0.24437519539310912
4139062000.0 -0.1186159387778469 0.223392481168058 0.002038779606631038 0.06464890220362976 0.0020185842368325236 0.06476962614040664 -0.087994052320826 0.25084915691378185
4140625000.0 -0.11609367239879209 0.22383332434255224 0.004804203255381971 0.06451717286708158 0.004715872212191006 0.06465535028181357 -0.08773588157008455 0.2560995813180435
4142188000.0 -0.11392279882645988 0.22375093847148092 0.007517314921083018 0.0642536620516374 0.007355480219859272 0.06436968773307333 -0.08873656860983865 0.26073645533312806
4143750000.0 -0.1109887204815407 0.22472696847464996 0.010251640032746534 0.06396946682773148 0.010085845536611066 0.06413134264642065 -0.09047359026610377 0.2630492740981664
4145312000.0 -0.10864056619193622 0.22529999798951555 0.012844428172357147 0.06337816267146616 0.01268991056988693 0.06381459019711648 -0.0923545760568408 0.2632037840649001
4146875000.0 -0.10677179414891604 0.22619028988525783 0.015490963083873726 0.06284428157683496 0.015183726457910444 0.06333859700149692 -0.0935945880370687 0.26110602278435685
4148438000.0 -0.10451766211154878 0.22683252178574986 0.018029549965983636 0.0621552193635741 0.01772265318527843 0.0626840823963804 -0.0925143381984795 0.2581568758707928
4150000000.0 -0.1028145405011056 0.22737558100186472 0.02059629877808881 0.06142063956666263 0.02036840346348694 0.06204493051377495 -0.08977389079101986 0.25521651942182255
4151562000.0 -0.10118405001997934 0.2279868086237854 0.023119235031309315 0.06074717789932104 0.023046369508052913 0.061153426787320955 -0.08554213340693415 0.2532255003909038
4153125000.0 -0.0995361484926878 0.22826038527208536 0.025528402166104743 0.05983854593520575 0.025680685243424897 0.06041217205261261 -0.08011121424850705 0.2521759773878025
4154688000.0 -0.09784744851209988 0.22883046687845882 0.028032980850827165 0.058967958417337804 0.028297906000098485 0.05942915504409308 -0.07417609764550286 0.25343345955674995
4156250000.0 -0.09671943599592696 0.22884094925182416 0.03042227842340677 0.05807272938760737 0.030798535793177276 0.05832278681016526 -0.06885212019223101 0.2559559701149903
4157812000.0 -0.09489707305737673 0.22867275525508757 0.03290597519130784 0.05680579655697047 0.033182370500356856 0.05705185432735556 -0.06491581549685776 0.26038360468261756
4159375000.0 -0.09317051281515741 0.22877741063612259 0.035323206794244284 0.05551950485559624 0.035543957833755496 0.055749702361940254 -0.06310231624778287 0.2646359097182727
4160938000.0 -0.09132368570271811 0.22876557278506587 0.03781114873417078 0.054128440594966194 0.03774986682347305 0.05422703459257618 -0.06209560881601071 0.26897472799233413
4162500000.0 -0.08937343775936656 0.22842704177560175 0.040088275863899896 0.052647861765900666 0.0400768408370631 0.052747745862816435 -0.0634894512787884 0.27279050548854816
4164062000.0 -0.0874358199646913 0.2283385179504228 0.04235440877979713 0.05086698505374618 0.04231268497078488 0.05114978727387918 -0.06554300157782113 0.27479851351447754
4165625000.0 -0.08515832033623168 0.2281122848759591 0.04456640740249013 0.049286995964239376 0.04458283653525387 0.04957575407935352 -0.06976364874121636 0.2754307321108249
4167188000.0 -0.08279946466627801 0.22813339832088594 0.04666854580771903 0.04749743057971391 0.04668025066601456 0.047863400361465164 -0.07332118119285276 0.27332876411235707
4168750000.0 -0.08010901846604801 0.22785008444392432 0.04852744649360463 0.04571487800402682 0.04864234470829346 0.04603372414664985 -0.07524899399512273 0.26794059840627477
4170312000.0 -0.07758060676413216 0.2278994167606688 0.05034998698880784 0.043551617414186096 0.05057558507928299 0.04408188200406658 -0.0738410175171848 0.26137979625419566
4171875000.0 -0.0749728633709645 0.22787192346866889 0.05217303352781288 0.0413407576715229 0.05248197399673306 0.04174428622557099 -0.06958788249918724 0.25579171125011957
4173438000.0 -0.07226188377634803 0.22789193929496146 0.053920905616310376 0.039012066071208266 0.054119407306641595 0.039331863415168394 -0.06309660228282588 0.25033455553809847
4175000000.0 -0.0699419117881906 0.22830709517902065 0.05558152997696862 0.03668818945967436 0.05587811117945678 0.03700621797007814 -0.055264231021042054 0.24753357559683253
4176562000.0 -0.06727581478422713 0.22835268681011764 0.057204195437156775 0.03426100779439548 0.0573684633969156 0.03435662217181331 -0.0476790465822136 0.24750322930585691
4178125000.0 -0.06483481763251052 0.22878947452420248 0.0585864874550944 0.03174940608497539 0.05869967795932487 0.03190478005770384 -0.04025539219658083 0.24787504172917674
4179688000.0 -0.06265413558359159 0.2290158861824792 0.05976974558004327 0.02919053080256938 0.06003270825466853 0.029416312883498788 -0.03394148555775288 0.2496209459864026
4181250000.0 -0.06011477986735883 0.22932745470686555 0.0609270595510884 0.026582835289894337 0.061171056296147636 0.026756537048172747 -0.028012980303632706 0.2521848070527743
4182812000.0 -0.05817483036447577 0.22935929804344218 0.06198720439602191 0.02386530772583261 0.06223865211785097 0.024122238922948385 -0.023908674119523323 0.255890094386737
4184375000.0 -0.05592034895362029 0.22929406075499714 0.06291611147404273 0.021236207671722327 0.06320439748192437 0.021386863343710247 -0.020741244037517207 0.25928028462212194
4185938000.0 -0.05411263761950814 0.22901335293976058 0.06388841294120107 0.018590503138469883 0.06413849867408528 0.018638449716538733 -0.01847738596359727 0.2627845530174862
4187500000.0 -0.05156210748834019 0.22864113414152057 0.06470344395648826 0.015815151591174442 0.06499167430635214 0.01590373076641883 -0.01865688919850696 0.26509095762146534
4189062000.0 -0.04947765428777475 0.22776753738646513 0.06536337969219577 0.013134720943446076 0.06572971286535911 0.01327120699130192 -0.01856914229800344 0.2658405371176912
4190625000.0 -0.04722116588960621 0.2270130493387984 0.0659103759879186 0.010473080745513315 0.06613349841172379 0.010464384717754042 -0.01965584008682532 0.2648635658598419
4192188000.0 -0.04498044633205002 0.22620461420242927 0.06629469333017132 0.007660946950788891 0.06641740031437009 0.007729714924350625 -0.018396895085359133 0.26142242981348346
4193750000.0 -0.04230889675564683 0.22561648234672432 0.06651727576771499 0.00476539706528447 0.06657437836299744 0.004958650802129575 -0.01561756597096486 0.25877942431088424
4195312000.0 -0.03977456629362958 0.2247935326660641 0.06655335090912838 0.0019484067772392066 0.06668013139255492 0.002106875559528297 -0.010832991243506505 0.2560270158403299
4196875000.0 -0.03739465410395425 0.224103695595057 0.06652838246221154 -0.0008031036158668208 0.06672766650546973 -0.0005743064931868331 -0.005444991895135351 0.2554899548121094
4198438000.0 -0.03506565565797591 0.22348306709824567 0.06626951461537013 -0.003554638220890974 0.06666641570369096 -0.0032627810126540243 -2.3201219742752013e-06 0.25571409036715637
4200000000.0 -0.03235973218082043 0.22292732362119935 0.06602139581045867 -0.006160068543150636 0.06652023282288892 -0.005877857872089814 0.004196843814015407 0.25635055009272817
4201562000.0 -0.029963350745482856 0.22223431756753945 0.06557888234238234 -0.008792594127422684 0.06617570337102449 -0.00854381243594274 0.009168280853904419 0.25720209846657943
4203125000.0 -0.027961837669288617 0.22168497759792846 0.06503336301655714 -0.01131890959111948 0.06562167586998915 -0.011277242168108643 0.012920585529425595 0.2590568240746326
4204688000.0 -0.025823456865084277 0.22132751120522368 0.0645542774896863 -0.01399359786402032 0.06507319524260731 -0.014048338163432683 0.015854033670845594 0.26139201476910146
4206250000.0 -0.023671419001764844 0.22079969018085446 0.06397663554271668 -0.016602218058400165 0.06432563802952707 -0.016933723734200514 0.017498432015357033 0.2645118636911302
4207812000.0 -0.021982049956817733 0.22066308055055908 0.06332619415131084 -0.01919198217421852 0.06356955797902085 -0.019526349614121863 0.01881943509422049 0.26649291872801584
4209375000.0 -0.019929910010750753 0.22044426583388324 0.06255300536402275 -0.021905552037605074 0.06264993464149869 -0.022114085036039396 0.018656843352065754 0.26751285593185214
4210938000.0 -0.01814803850627012 0.22030065700323084 0.061646961740709855 -0.02454720432924298 0.06171740516214962 -0.024615871287972452 0.017720372747761934 0.26837019009210983
4212500000.0 -0.01661167615612641 0.21980748549159726 0.06052011951577365 -0.027110562457794946 0.06070490908203879 -0.02707890860033931 0.016995797061703413 0.2670215507215847
4214062000.0 -0.015257963072199072 0.21952270685254868 0.05934349530370262 -0.02974583721309136 0.05958074428090918 -0.029506615853010003 0.01643273488431712 0.2654860811117101
4215625000.0 -0.01388141726051358 0.21915804331581498 0.05804637459500157 -0.03208633230679786 0.05851776097568277 -0.03199397737074426 0.01682479554007774 0.2625188351454106
4217188000.0 -0.01260326415900234 0.21882003620369045 0.056658098956819364 -0.03448078575656662 0.057249186197166194 -0.0344152015512682 0.017486568547276572 0.2589892103064945
4218750000.0 -0.011138369539739328 0.2180923616828235 0.05527033640779621 -0.0367395176560251 0.05589597336843034 -0.03683955728878014 0.019244060990633804 0.2552350300646341
4220312000.0 -0.009663621722548333 0.21764210330266656 0.05378315539306929 -0.03885597523192817 0.054330260287405854 -0.03914777203164183 0.02200941521468696 0.25132311704756066
4221875000.0 -0.007892157706513813 0.2169959984338011 0.052219892596151174 -0.04098395296082685 0.05263024639144437 -0.04139919292770881 0.02554216325996216 0.24725680329196112
4223438000.0 -0.006079739692689292 0.21672610470329662 0.05053695789743323 -0.043173551898818205 0.05084166600197414 -0.043572853858138465 0.030309006744211813 0.2437820103827464
4225000000.0 -0.004353996973327166 0.21654271879332873 0.048768514539635835 -0.04535643478126586 0.048961666154115305 -0.045651130459094594 0.036016561650192444 0.2416859808606799
4226562000.0 -0.0026492767504669042 0.21631103605047355 0.04695835950789085 -0.04729233150170561 0.04703445177863241 -0.04765181485241535 0.041062037107672505 0.24150669229777835
4228125000.0 -0.0010489486574929332 0.21625827961339825 0.04503898181583539 -0.04929828053887662 0.04510796937275291 -0.04953508713243999 0.04579580200939249 0.24258497870197113
4229688000.0 0.0005447890163681013 0.21587779770616858 0.04289836551629442 -0.051224173519587746 0.0431625475419163 -0.05133762348605005 0.04893710309943384 0.2435351662804676
4231250000.0 0.0022490757008850524 0.21597776471304095 0.040802586916735134 -0.05304432650193212 0.0410781350348298 -0.05308864079584193 0.050775889173914734 0.245000938220785
4232812000.0 0.0037681398060532686 0.21590245725222795 0.03846987653416461 -0.05474478513577638 0.038866467909684344 -0.054902031974152124 0.05195954802605742 0.24539721192057926
4234375000.0 0.00539276838522141 0.21602257968556213 0.03625189794768628 -0.05644122635791303 0.03655876183231033 -0.05665950747768613 0.052486183276740976 0.24547295582857342
4235938000.0 0.00687877897697012 0.21569354800951096 0.03388033813095093 -0.05796362941269641 0.03404027312584073 -0.05830983335189132 0.052034777410648124 0.2456351770836616
4237500000.0 0.008222725844560798 0.2155169365567723 0.03141013570941647 -0.0594867974719088 0.03163211263641088 -0.05978099241773384 0.05119456905393436 0.24445851433760843
4239062000.0 0.00976535239999632 0.21527342684913192 0.028965127050870357 -0.06085334386781802 0.029037317099211406 -0.06111032277845581 0.04861999149806431 0.24144346648618198
4240625000.0 0.010999588574996756 0.21479482168655714 0.026370392850212497 -0.06210829012183029 0.026501352897115305 -0.06225812418216955 0.04838110646302626 0.23635969203981058
4242188000.0 0.012356151763701724 0.21420107802425148 0.023694064410509075 -0.0631343833375676 0.023881995145795663 -0.06330291061157105 0.04886046923314713 0.23047381183342758
4243750000.0 0.013699443813180563 0.2134897392863299 0.02099153283044953 -0.06406323917767288 0.021311459751679945 -0.06425458330235824 0.05117414525466138 0.22333158242463388
4245312000.0 0.015069345689689722 0.21256849765242827 0.01829152348445266 -0.06480194874544253 0.018613865367739818 -0.06502783575161908 0.05605178700027918 0.21835204699603167
4246875000.0 0.016503424304363627 0.21130308385359525 0.015640742137480575 -0.06535743697060173 0.015940754828977024 -0.06572164550420752 0.0626667127845572 0.21414005612231138
4248438000.0 0.017761267174826834 0.21039111640041594 0.012876972688675851 -0.06587375507706646 0.013301205391507127 -0.06625046103109951 0.06923873919936893 0.2127493746119327
4250000000.0 0.01951886232815387 0.20899858575164845 0.010418018153742487 -0.06622403342244111 0.010441538081261631 -0.06665022862817918 0.07399639785852047 0.21317770018790022
4251562000.0 0.020905915197134774 0.20772577673009024 0.007678432984569977 -0.06650462506874273 0.007728780733691728 -0.06691017219573935 0.07788679425057865 0.21558484858460564
4253125000.0 0.022684467068757996 0.20632778952448522 0.00479028965925982 -0.06671294457817369 0.004723920518897276 -0.06707460571673252 0.07898470231617245 0.21781317898760436
4254688000.0 0.024131581659696377 0.20519289763609175 0.0018545382480291545 -0.06693678940534761 0.0018550606706618275 -0.06708941532962376 0.07968140422651267 0.21922589712810983
4256250000.0 0.025801376714301934 0.20429985284268445 -0.0011849579848514822 -0.06703143850349633 -0.0011702808587084927 -0.0670725535057789 0.07811920764137066 0.22067576298420447
4257812000.0 0.027109122043866455 0.20299300710343285 -0.004244902340622372 -0.06701096113122844 -0.003991855228129492 -0.0670028123985182 0.07580239571278435 0.2211529995708305
4259375000.0 0.028491551018471718 0.20226661339959595 -0.007234703161792325 -0.06690570975342175 -0.006964376228912844 -0.06690690558291376 0.07131470705014296 0.2197526190723622
4260938000.0 0.02974912468829921 0.20120290340981486 -0.01020080883629786 -0.06654379743566771 -0.009765601206548813 -0.06667028197825679 0.0668133498841015 0.21559789225542247
4262500000.0 0.03072575857344142 0.20028594559760785 -0.013023367865404038 -0.06602184387843804 -0.012639496874182 -0.06643955942262435 0.061944401837748804 0.21026345557051587
4264062000.0 0.031689154743649375 0.19950533512943483 -0.01584713362924484 -0.06538534799923877 -0.01543961919122077 -0.06610191929330014 0.06150385419144 0.2017518851659514
4265625000.0 0.032258944924103757 0.1986308008251898 -0.018353935832581773 -0.06479611055567326 -0.018273115768506744 -0.06558612243343262 0.060672593849277416 0.19125000328534006
4267188000.0 0.03288751870519801 0.19781106560856626 -0.02088039169423536 -0.06421530878036857 -0.02107409814594123 -0.06495319965802039 0.064407801774892 0.1833651449573165
4268750000.0 0.03333588519031885 0.19660913525386972 -0.02326565588884734 -0.06353533329129396 -0.02363098121361916 -0.06415296806737714 0.07099437805627405 0.17622162960819934
4270312000.0 0.033496689225285155 0.19580294809257084 -0.025598905785721368 -0.06282971329933684 -0.02608878756719162 -0.06320328638633671 0.07870247276148502 0.17325720460249794
4271875000.0 0.033764619896755714 0.19459922426162937 -0.0279775472025313 -0.06199172389771181 -0.028464648223859298 -0.062036737801556274 0.0855915944847492 0.17257607159797164
4273438000.0 0.03424992658838415 0.19348238923264788 -0.030433614617593356 -0.06079931415170171 -0.030738234525166875 -0.0607155256227452 0.0896180840030448 0.17464523527243148
4275000000.0 0.0348274405302018 0.19223414296444954 -0.03307839893296846 -0.05950852557616931 -0.03314985851458472 -0.059353143567865925 0.09303566171017728 0.17647739912168883
4276562000.0 0.03508753384026997 0.1910444088045426 -0.03571538589968517 -0.05789977069229364 -0.03549944959340506 -0.05788559492105087 0.09246371402275536 0.17961309261594358
4278125000.0 0.03573138501664672 0.19014369496927105 -0.03827163120023193 -0.0562950373634786 -0.03795786145562336 -0.05643000029645284 0.09056150331621893 0.1813675345837305
4279688000.0 0.03646024430715125 0.18911212235642472 -0.040834194532940335 -0.054380328581653155 -0.04031077080307617 -0.05489346988182652 0.08840682793626138 0.18265197350704787
4281250000.0 0.037294486332446565 0.1881680107783404 -0.043126043376250665 -0.052443450338246926 -0.042730995918851634 -0.05315263078037049 0.08284228232109334 0.18130437024723176
4282812000.0 0.038184203061131926 0.18745276454432686 -0.0452175889461084 -0.050368972810398205 -0.04512226524565649 -0.051264438345989934 0.07939042147014805 0.17739765024067813
4284375000.0 0.03967537515536022 0.186807712326313 -0.04719946295955722 -0.04830025041592682 -0.047445063967559174 -0.04917754874795521 0.07532741514605355 0.1736338080948297
4285938000.0 0.04101187289465821 0.18640825316688797 -0.04906916362751677 -0.04629690094744033 -0.04963571867272284 -0.04698432111130814 0.07370085340439873 0.16650854624142464
4287500000.0 0.04221453572880656 0.18633770502046296 -0.05089262832320314 -0.04418184176860435 -0.051734073763155496 -0.04468734950497787 0.0740253472686228 0.16006817255682507
4289062000.0 0.04379776347684925 0.18615320864284635 -0.052923740058871765 -0.04220869430412109 -0.05363080900569095 -0.042458108740700246 0.07649938472361455 0.153685814692888
4290625000.0 0.04498905786560598 0.18627225624484908 -0.05469417997549088 -0.04032778833111801 -0.0553955918463807 -0.04018655253140178 0.08166450744709798 0.1486627287313661
4292188000.0 0.0465112936496213 0.1864203106468875 -0.05654321877843062 -0.03817285776558757 -0.05685392001840219 -0.038000559911174785 0.08720573257855266 0.14639455757076483
4293750000.0 0.04753593954371443 0.18673328200830966 -0.05823067987646546 -0.03593812492588636 -0.058318037566284446 -0.03578212086190629 0.09308826074061917 0.14716412344945606
4295312000.0 0.048723317898981315 0.18700880991575944 -0.05966051377121101 -0.0335152600680676 -0.05963536223132307 -0.03342021886176465 0.09686264661239029 0.15012736809353022
4296875000.0 0.0499599011836094 0.18721197374065862 -0.06104893557130658 -0.030845368582152023 -0.060923258223853596 -0.030901086586361433 0.09872228883618739 0.15324352264674163
4298438000.0 0.051312147723337455 0.1872298340017827 -0.06222459196784704 -0.02804821436740704 -0.06217984166543894 -0.02834415596457051 0.09825374679167738 0.1572473618242257
4300000000.0 0.052394863222740146 0.18695056267742685 -0.06328532210975685 -0.02523911119722772 -0.06328472307747418 -0.025691853371584732 0.09574931218573769 0.16068450532846407
4301562000.0 0.05389335022029575 0.18678326794384026 -0.06407510185083991 -0.02246005807167697 -0.06428780503232666 -0.022953645670218174 0.09125205066558444 0.1631413292028524
4303125000.0 0.05488707432651068 0.18625823764836769 -0.06475285298464512 -0.01970779514613065 -0.06507718165575828 -0.020206260093920764 0.0862846053023606 0.16358856902985255
4304688000.0 0.05654672715832991 0.1855994358405728 -0.06528390762290191 -0.016845011543448016 -0.0657438319424705 -0.017313612751334116 0.08044867955806369 0.1611003819276106
4306250000.0 0.058002941466557455 0.18501410389937414 -0.06594765985355042 -0.014005552975855776 -0.06632438538466796 -0.014446146082457003 0.07558450546937996 0.15766083246383036
4307812000.0 0.059562601732433836 0.18392016313245094 -0.06648823979842271 -0.011199645489751612 -0.06693639745400728 -0.011445390756635735 0.07245498359110403 0.15179017189815053
4309375000.0 0.06091856822382325 0.18301073549169308 -0.06697741492754151 -0.008430647159337654 -0.06753270070085626 -0.008584594874196442 0.07190507781590315 0.14531576797126147
4310938000.0 0.06292950217357121 0.18209524719994427 -0.06741558036720215 -0.005718528182788692 -0.06795428808873437 -0.005754990948559304 0.0729348640297102 0.1392679214515548
4312500000.0 0.06463962568177349 0.18088519796013242 -0.06765120407743482 -0.0029296457692205183 -0.06827615985981719 -0.0029297514999383897 0.07545474978173441 0.1346767027927381
4314062000.0 0.06657363405031355 0.17997930122875155 -0.06784073108564044 -0.00017593023228366838 -0.06832412859441338 -6.241887693450853e-05 0.07944556045594892 0.13125671600489955
4315625000.0 0.06806795255771331 0.1788861060979655 -0.06767922230766106 0.0026017488656113947 -0.06810772064627131 0.0028120691927829475 0.08283673751711551 0.1288775455912935
4317188000.0 0.0701112030989663 0.17789302831214315 -0.06757383067600047 0.005466453024143948 -0.06776460143707856 0.005598584763419325 0.08541317412810068 0.12949585829153246
4318750000.0 0.07153633113208693 0.17675233751342398 -0.06723349544041275 0.008238492548378027 -0.06725110088753439 0.008410064895492855 0.08746577645067906 0.12869059873954955
4320312000.0 0.07280263638146849 0.17598187400012832 -0.06691136435690961 0.01109218611346944 -0.06676559122269446 0.011001344871407406 0.09031135740372592 0.1287579986593739
4321875000.0 0.0740594422525373 0.17467002781704216 -0.066278717062921 0.013858779128044528 -0.06613254353384672 0.013696265167358982 0.09111871570336966 0.13032231713928924
4323438000.0 0.07513700043720709 0.1737507273385966 -0.06547794632333147 0.01666750866374778 -0.06560873991606857 0.016203125045044415 0.09062185186362706 0.131097111710999
4325000000.0 0.07586195589670848 0.17274011145884519 -0.06460787254447918 0.01938460379295367 -0.06494081524943979 0.018779653358338373 0.0888445535768169 0.13152050990677117
4326562000.0 0.07643194173010381 0.17143801272344764 -0.06353046053118593 0.022041986895583236 -0.06420184317421343 0.02154205623174021 0.08640704700086489 0.12957966159352635
4328125000.0 0.07705933687030285 0.1704113504867788 -0.06235882790820201 0.02463313590607794 -0.06321160153772347 0.024295412973060176 0.08453208703049017 0.12544995803531386
4329688000.0 0.07727139596718051 0.16882641385140143 -0.061162365626283945 0.027140327501314784 -0.062050327828577785 0.02707204284319688 0.08236048322412359 0.12022296023761504
4331250000.0 0.07752817705097396 0.16736589882394926 -0.05986893683908457 0.029700206454019495 -0.06072333727673148 0.029863245590264917 0.0846093575411629 0.11484863706417184
4332812000.0 0.07781668672335136 0.16594336642741575 -0.05868300484975832 0.03216009636766985 -0.059263145388724486 0.03263324323432216 0.08843589817945913 0.1087846678966506
4334375000.0 0.07758645342468627 0.1646382416264953 -0.057361813897514775 0.03456754633490601 -0.057893121351595904 0.0351701581380629 0.09370172043405116 0.10405210652856972
4335938000.0 0.07776850319299433 0.16329874574302672 -0.05618830047459594 0.03705072139822808 -0.05634319621256394 0.037450508992973884 0.09934989415880656 0.1010371327649009
4337500000.0 0.07783173385994892 0.16205952387629968 -0.05487450835784237 0.03938253825630352 -0.054834803444521574 0.03968646766473497 0.10600622560358787 0.0993486744843516
4339062000.0 0.0777746220688807 0.1603356145374952 -0.05345170649009998 0.041725719828636806 -0.05317223171901095 0.04177085428980768 0.11353545812184986 0.09705638709035516
4340625000.0 0.07821311443469553 0.15893507473445143 -0.05175695253209884 0.04403107518105019 -0.05176299152022363 0.043798986574452 0.1223000595229191 0.09892729867237586
4342188000.0 0.07817418866229668 0.15782958588566523 -0.050085501245068324 0.04621514488290869 -0.050290446771861175 0.046019839637362156 0.12947516131016648 0.09899611093219692
4343750000.0 0.0783191893033473 0.15671570156506462 -0.048245042962130016 0.048453997288741835 -0.048571083538609325 0.048151705803319796 0.13915846681340135 0.10517504671193807
4345312000.0 0.07836439332063591 0.15569747312765528 -0.04614212353226997 0.05026336107042443 -0.04671625922407801 0.05018164770873335 0.14439785811906936 0.11204086489367956
4346875000.0 0.0786333752228757 0.15490106519406704 -0.0443339899536792 0.05201817617687748 -0.044980986426430156 0.05215320445511173 0.14747194923513227 0.11978539755560194
4348438000.0 0.07881149842942092 0.1539351834001606 -0.042205901932355024 0.053654836136372994 -0.042822887370236644 0.054011511402141194 0.14793904668158572 0.12792602835642444
4350000000.0 0.0790575685055844 0.15334818275466996 -0.04003652801380476 0.055089675377098135 -0.04051521517123966 0.055503288290123576 0.14387168793229446 0.13486961764049993
4351562000.0 0.07911414773040279 0.15270608868507532 -0.03779748127187788 0.05645402910344352 -0.03807011129505101 0.056924774642159594 0.1388139565054592 0.13809164009632402
4353125000.0 0.07936509792002867 0.15227113863728028 -0.03540092424886054 0.05773927002171875 -0.03566450417394056 0.05815958607264502 0.13323832642561353 0.14039129222885305
4354688000.0 0.07935786823727742 0.15188574170398983 -0.032997906988964626 0.05902688250368714 -0.03303504986710751 0.059331762329107675 0.12869935532631369 0.13790432377766934
4356250000.0 0.079549143570577 0.1510545097265918 -0.03039737260908993 0.060188642059132075 -0.03053884803503927 0.060376221522892376 0.12522329855196968 0.13513784098223
4357812000.0 0.07935388561355361 0.15068676095951225 -0.027917607390858423 0.06129769404245413 -0.028096043286776864 0.06131632809986557 0.1237186018023638 0.13182201779761574
4359375000.0 0.07996941961802881 0.14991120654582343 -0.02518967929584988 0.06239434613219743 -0.02547291129495495 0.06243654418553015 0.12402061538264973 0.12741724942472454
4360938000.0 0.07945226611292698 0.14945470370809155 -0.022672038265853407 0.0633483450008923 -0.022914032555679184 0.06350002836160046 0.12431411122576365 0.12554015466863325
4362500000.0 0.07980566290239678 0.14869069912143287 -0.019840452448880726 0.06415058468294461 -0.020157819062461092 0.06442895289026258 0.1276485949722035 0.12401518068835504
4364062000.0 0.08011319924354406 0.14785569916538027 -0.017164776845118076 0.06489592144591214 -0.017389734681352496 0.06533164626456563 0.13122189085985514 0.12371479183312274
4365625000.0 0.08084299551777033 0.14701797848937498 -0.01440448079803492 0.06561247043714312 -0.014582092109768779 0.06604623785747253 0.13632574311844736 0.12509983220253035
4367188000.0 0.081299651076158 0.14617282986310462 -0.011637571114602969 0.06625518889954647 -0.011712218035802788 0.0666420498400799 0.13998931182146812 0.12933815583884473
4368750000.0 0.08181168191128747 0.1452270067872239 -0.008884180571137842 0.0668182980970507 -0.008935147955794854 0.06714944376858835 0.14159531299064204 0.13680492752113754
4370312000.0 0.08274914439746717 0.14443233528644414 -0.006127037758323721 0.06721635329062092 -0.0062922012026221975 0.06750048925703916 0.14139408987746968 0.14469585440515847
4371875000.0 0.0835058350196316 0.14357630660609683 -0.0035621894089601274 0.06759701303832777 -0.0035864507121289115 0.06772551083099919 0.13433299307849678 0.15197574613283482
4373438000.0 0.08419171361361423 0.14299528370179973 -0.0010397388513606433 0.0678486722845046 -0.0011410797944375927 0.06805021222257884 0.12635833288037876 0.15827915302092724
4375000000.0 0.08513104572011602 0.14215429842105748 0.001569327986845495 0.06786152936792586 0.0014078742207945057 0.06811433012613972 0.11758084206299747 0.15894475892487028
4376562000.0 0.08561843462725229 0.14132240593636602 0.004187351861432689 0.0677251272697092 0.004007726414853798 0.06794711808685543 0.10667432897130692 0.1574034788090963
4378125000.0 0.08653238919240257 0.14104881362876537 0.006860795285550726 0.06742339064944755 0.006699010881611976 0.06790035505494887 0.09793572232236482 0.15097930793107148
4379688000.0 0.08704397962619836 0.1401924813339592 0.009624967428302381 0.0670151203426687 0.009470202835186872 0.0675714442459213 0.09250242901275658 0.14316356971227687
4381250000.0 0.08743303654666368 0.1394899530042162 0.012414559266290811 0.0665961273010936 0.012302429447439311 0.0670294671819659 0.08986969374290205 0.13398932381630996
4382812000.0 0.08804723766932086 0.13909273198165836 0.015192930545196727 0.06606325904603709 0.015106967539207813 0.06648030059957319 0.08973755424196268 0.12516057833915611
4384375000.0 0.08844028079198868 0.13823469179514938 0.017749159249131046 0.06538909986072831 0.017825636144538866 0.06571308119057943 0.09293641729358143 0.11760571024432992
4385938000.0 0.08860130544164593 0.13754727775935688 0.020414332957733643 0.06448545190861871 0.02050878097957308 0.06477276578910482 0.09826235594217098 0.11218412002598992
4387500000.0 0.08880882919102179 0.13690348354751813 0.023069808274236013 0.06343322216758572 0.023160773167988837 0.06378106011547433 0.10398026223591368 0.10882671043202147
4389062000.0 0.08909150816068179 0.13594982249116663 0.025733607493443132 0.062290223071230603 0.0257441809218496 0.06262904145869701 0.10998645476620242 0.10901746823697821
4390625000.0 0.088817614308038 0.1351345361221298 0.028362027446277388 0.06124490703613372 0.028358490359755847 0.06155945580640404 0.11456571469756524 0.1124822207238065
4392188000.0 0.08891863429746089 0.1344764112924793 0.031005654453137913 0.060010977037163925 0.030930008722741476 0.06050210929110006 0.11610222404574931 0.11686925086974474
4393750000.0 0.08892792147208303 0.1335025486297446 0.033463528800588664 0.05879946083493902 0.03353154899636665 0.059250672698807696 0.11472552273255145 0.12194795338043128
4395312000.0 0.08905419906658754 0.13262029082803428 0.03583364507754534 0.05747448001096517 0.03595900814848502 0.057890157843026424 0.11057841506271436 0.12490172618139504
4396875000.0 0.08935979577049748 0.13204543578249198 0.03820788162937824 0.0559669204010906 0.03831905276509822 0.05630270062856094 0.10483044945313363 0.12573440591021406
4398438000.0 0.0895083260275374 0.13145875346845592 0.04048340567745741 0.05433414694999305 0.04075139157453312 0.05466403283783234 0.09978509750219573 0.12333254762732496
4400000000.0 0.08967500592882473 0.13061261642438163 0.04285224734308636 0.05257034178430041 0.04305165283110641 0.052929885884369 0.09543724856158965 0.11810882816167473
4401562000.0 0.08993344062101258 0.1302151873558554 0.04507791104973176 0.050834289519145245 0.045247082557387776 0.05114499863635628 0.09361531443333128 0.11194023735178144
4403125000.0 0.09006308760469568 0.12975279266343367 0.04715213807695878 0.048967375162312796 0.04729808909281248 0.04931859105580793 0.09434544680396732 0.10579229659725835
4404688000.0 0.09018672540726298 0.12994113849561625 0.0490557717350315 0.047009998953309165 0.04913600375892132 0.04746483249513551 0.09789886295789396 0.10035341083978827
4406250000.0 0.09023917315715167 0.12973183353238232 0.05080724811688316 0.04496803385617154 0.050946209456428124 0.04537257630344657 0.10312884061977613 0.09631205939652426
4407812000.0 0.09040843478157433 0.12989178703628199 0.052482508630224245 0.042750523585122754 0.052775634202622636 0.04318973027157825 0.10971229754294222 0.09470511330311207
4409375000.0 0.09037950776741589 0.13004387621434496 0.0542157013189727 0.04050468836686692 0.05451783680943714 0.040800265445402946 0.1174178259458491 0.09706645252402173
4410938000.0 0.09033866964372302 0.130221183933183 0.05590797465060282 0.03814831001212617 0.05621013956324301 0.03853005424133174 0.12286914662827972 0.10296693307572587
4412500000.0 0.09019903997592711 0.1305208425013677 0.057582519574740344 0.035854392379458276 0.05782997316498063 0.03598752077848027 0.12608128366053759 0.1109142259041863
4414062000.0 0.09012175453492172 0.13086529729023483 0.05912653398840645 0.033413527103302074 0.0594672389445401 0.03365832648700656 0.12514770423764543 0.12006827463445124
4415625000.0 0.08962032962041576 0.13103957074225148 0.0605594750640804 0.030988586561231407 0.060797879680956485 0.03117938909303476 0.1203485741604946 0.1283586519065927
4417188000.0 0.08942255188962339 0.13129953962957 0.06194740842528306 0.028367621973906066 0.06207907917000928 0.028631918115547907 0.11355069552185793 0.13428374245451177
4418750000.0 0.0889796377776894 0.1314115534280551 0.06314474985916418 0.025703330336772627 0.06330310437796403 0.025985495292799556 0.10467813276953736 0.1371422825063824
4420312000.0 0.08909879402023832 0.13161884457357392 0.06423540652568213 0.023103915615090224 0.0644802121763126 0.023326884613733254 0.09648676096709 0.13758393387392626
4421875000.0 0.08860414233075811 0.13172070854895507 0.06530570839499451 0.020470607530302932 0.06567152425449262 0.02073419897387615 0.08968294413650393 0.13444929510378476
4423438000.0 0.08867182858977417 0.13184513384394853 0.06618116578658638 0.017805661980488278 0.06658166347233091 0.018061827741640644 0.08391941440178871 0.13174191468816138
4425000000.0 0.08872623752077656 0.13163592994471093 0.06694224853684495 0.015185376392986867 0.06740577767796611 0.015426759370257498 0.0782637787120415 0.12701958974904837
4426562000.0 0.08866526613973416 0.13165919351579225 0.0675526680733849 0.012544914044827741 0.06797985429951071 0.01263090303088928 0.07662801179343118 0.12095557589991716
4428125000.0 0.08876189452545244 0.13182534396291992 0.06812464256252379 0.00968547148163076 0.06839348504951344 0.009789518787504232 0.0762027399723816 0.11675745224452046
4429688000.0 0.08911637054637356 0.13174670679773845 0.0684735188332004 0.006895525883550384 0.0686350156193711 0.006907945653302632 0.07901688219242547 0.11358558673902643
4431250000.0 0.08937143566444862 0.1318394329821983 0.06875178896939622 0.003843269408047271 0.06882494945263759 0.004032962239598999 0.08131128302082365 0.11314419996661075
4432812000.0 0.08978826543387383 0.13180423983964312 0.06882531815326726 0.0008134015255988963 0.0689291392020344 0.00106117760405727 0.083016110432584 0.114642043105504
4434375000.0 0.08998469766858211 0.13210636562422018 0.06871005462123672 -0.0021235775715814052 0.0688768799677755 -0.00183047203375452 0.08310990884237544 0.11853284913396556
4435938000.0 0.09042477019461938 0.13229806657709098 0.06845565805987902 -0.005204171624051482 0.06880975191005682 -0.004810101854326514 0.07873328526841712 0.12144397952388447
4437500000.0 0.09072784800373349 0.13236159025232194 0.06814636027381905 -0.008222594852972222 0.06857046520212585 -0.007789900804095393 0.07439590709010026 0.1241109806664473
4439062000.0 0.09088360181530342 0.13236762686146977 0.06751037254396208 -0.01110342055320285 0.06812978142127292 -0.0108489357028593 0.06606082337249618 0.12525149292191048
4440625000.0 0.09109601630160932 0.13262246030432936 0.06717540466136027 -0.014134743688606056 0.06773579650263228 -0.013880240142437597 0.059748849337908784 0.12091786396072825
4442188000.0 0.09108720084173495 0.13290482850711297 0.06680287080806432 -0.017000511155485953 0.06729281453884024 -0.016979360977972972 0.054341239882905346 0.11520562338307584
4443750000.0 0.09152472407462932 0.13298217600492263 0.06637886146714783 -0.019930005299737753 0.06679026522047725 -0.020008835815085065 0.05063516170304268 0.10838563430181453
4445312000.0 0.09161715262567352 0.1329459429048141 0.06599068777667974 -0.022760573289750737 0.06627731246477553 -0.022868769201697878 0.04863777100559208 0.09994579430630973
4446875000.0 0.09152681246799159 0.13315315935440014 0.06531965529045533 -0.02565497380196231 0.06561738370205712 -0.025533547020025145 0.04711010814529846 0.09284241077046425
4448438000.0 0.09214491417756304 0.1329263893763538 0.06449674451065748 -0.028335348062900143 0.06469804326147259 -0.028288124595308845 0.049545028735046036 0.08277567931330383
4450000000.0 0.09182433555401326 0.13291436241968096 0.0634477303029469 -0.03132914637186686 0.06375624961789096 -0.031027612888101956 0.050346001818345164 0.07338232083297094
4451562000.0 0.09226524866847934 0.13270687093604658 0.062450316693840005 -0.033933526052449425 0.0628329969062272 -0.033662787559008735 0.05996686847012453 0.06373059842237667
4453125000.0 0.09210003435299967 0.13191518358271778 0.06107946230542906 -0.03652814796200045 0.06152077037247239 -0.036288169772251404 0.06755350641214247 0.05751497305431371
4454688000.0 0.09198757425730854 0.13193414616002064 0.05969117840082754 -0.0389502197931478 0.060265926195095305 -0.03888915934895617 0.0755411687730013 0.05288973421446236
4456250000.0 0.09205117669418467 0.13060825627713968 0.05830260651193698 -0.04116647392993573 0.05893616836806736 -0.04124004775428466 0.0872405448456551 0.05412570724102528
4457812000.0 0.09281505328590063 0.13069939539532466 0.05671577080669831 -0.04343215419747257 0.05730687048865378 -0.04350841512853557 0.0944465260236282 0.05448664472270314
4459375000.0 0.0934055556592614 0.13044370901888153 0.05493678286157748 -0.04553557320914625 0.05553140416974058 -0.04571204126278318 0.10082820727297165 0.059837396087860276
4460938000.0 0.09353955864134168 0.12997531339906424 0.0531467057690796 -0.04762695476065315 0.05352310302530753 -0.0478815407371147 0.10568213497150625 0.06347281150598484
4462500000.0 0.09397033640328334 0.12978346029009372 0.05103895467549181 -0.049831080735028475 0.05134461537034482 -0.05003782698085805 0.1079662948306581 0.0664348717384079
4464062000.0 0.0945307806669011 0.12944469394196628 0.048954600790370575 -0.051932971688376385 0.04918861763803587 -0.0520493517075314 0.108215936959524 0.06747459192626633
4465625000.0 0.09499147383602505 0.12900560029646843 0.046750363285347575 -0.054160186089637435 0.04691390971825099 -0.05412041002393182 0.11130870352322879 0.07132626098071267
4467188000.0 0.09574307181709271 0.12907782112462454 0.04435310736458921 -0.05618082870172555 0.04470254748721301 -0.0560574362321159 0.11185200746073075 0.07216132307834493
4468750000.0 0.09611739704792156 0.12875262644802385 0.04185145713834485 -0.05819785396248326 0.04238472191511925 -0.05807567656010114 0.11476948491846588 0.07547171097456992
4470312000.0 0.09692251531504233 0.12849752217082047 0.03922971636942424 -0.05991864527487198 0.039884253725946256 -0.059833606803719866 0.11458214907637249 0.07671980372374519
4471875000.0 0.09736157402514525 0.1286007423469248 0.03659557504692888 -0.06139436221282206 0.03730961305897645 -0.06152938372365201 0.11578945114090937 0.07792152167884649
4473438000.0 0.09777083660736774 0.12851278992468115 0.033931347099236994 -0.06279487394743348 0.03467804818277119 -0.06309966305688133 0.1164614688445017 0.07711133868669759
4475000000.0 0.09838239919520372 0.12852710674986748 0.031366179168702074 -0.06416895821876893 0.03175708433769055 -0.06456292415841047 0.1198487209162882 0.07519644306545716
4476562000.0 0.09888791950616978 0.12803595184826633 0.028676842242475516 -0.06553954454940769 0.02909342063214284 -0.06606065553894226 0.12691023394987352 0.07199766753640827
4478125000.0 0.0993396674322579 0.12804357897238958 0.026258767467260535 -0.0668335235930203 0.02639174904768694 -0.06734749341757922 0.13433140908737534 0.07637085193057876
4479688000.0 0.10006822112792688 0.12761179651315585 0.02362530606256402 -0.06820524820647227 0.023705265511759978 -0.06854737711821811 0.14130700173527158 0.07794559514665014
4481250000.0 0.10049529732998105 0.12710316466330773 0.021089004357166704 -0.06933338259918896 0.021119213558948333 -0.0695825891698975 0.14694798794734823 0.08493383135981487
4482812000.0 0.10117338782323476 0.1269349442772236 0.018389369155899334 -0.07041978047731964 0.018667141927005037 -0.0705496622173799 0.15226181464776062 0.09278114352534979
4484375000.0 0.1017342308081301 0.12664510523056868 0.015534974876088242 -0.07131516187250156 0.01575105610365811 -0.07125371705088028 0.15479496596530798 0.10109057156366529
4485938000.0 0.10242250112033134 0.12667084998317296 0.01255152072913457 -0.0718450708645668 0.012980707017262134 -0.07182887387922408 0.15325381865510584 0.10975133389875821
4487500000.0 0.10317948591910206 0.12634398248991244 0.009386238662724198 -0.07209108697487192 0.009930306394840134 -0.07224013973976214 0.14994573606350867 0.11773238548751215
4489062000.0 0.10381482629169593 0.1262014243422978 0.006208965266893663 -0.07206776814367376 0.006707424599973077 -0.07251306196414964 0.1438484389717894 0.12233875235314291
4490625000.0 0.1046994809253286 0.12620326952226602 0.0029882202803118534 -0.07204007306526196 0.0035068257134290375 -0.07252021317683317 0.13680311360789274 0.1261455786312538
4492188000.0 0.1055170826370807 0.12611056293224226 -0.00013811812752875156 -0.07178186363441556 0.00029625105369218723 -0.07238570081700742 0.1277265696450379 0.12824417171168837
4493750000.0 0.1063489973784674 0.12619214170049103 -0.0032918356040000057 -0.0713513802663103 -0.0030450741178144293 -0.07205009847670295 0.11731473044253665 0.1254452977018255
4495312000.0 0.10693997431979195 0.1264211256881391 -0.006368328412164578 -0.07093129068682673 -0.006362165881667019 -0.07156492304678923 0.10884482420518501 0.11979323698538083
4496875000.0 0.10763525711080785 0.12644229013692765 -0.009359232118820063 -0.07058504326310902 -0.009423927824565767 -0.07104405930765574 0.1036116761509336 0.11197186022146187
4498438000.0 0.10835338561524484 0.12679508758566227 -0.012485410024324553 -0.07009979243736185 -0.01269027104771519 -0.07047259748264019 0.10166193878794384 0.10236765556282738
4500000000.0 0.10928877942644089 0.12724605535862504 -0.015634836190250176 -0.06957358725515286 -0.01582843953755546 -0.06988441246379051 0.10388185171105753 0.09352137630828251
4501562000.0 0.10988955429658917 0.1273369289631636 -0.01893975650807212 -0.06892518493687409 -0.018992050435988228 -0.06919544649119208 0.1085681492800192 0.08698636140111142
4503125000.0 0.11033079402059552 0.12788955547395103 -0.022108237884850494 -0.0682027692487342 -0.02215795171608836 -0.06839253510674849 0.11447436656579352 0.08203834608589482
4504688000.0 0.11122608634355349 0.12819172926314606 -0.025361123883396165 -0.06730357001938903 -0.025177028214426033 -0.0676508020934673 0.12090931832944177 0.08119125293392941
4506250000.0 0.11169722010566768 0.12856466377402082 -0.028203899025462657 -0.06622962295174632 -0.028118018451258088 -0.06647283149257836 0.12578331867348158 0.08174629362424544
4507812000.0 0.11238620329725889 0.1290120544700988 -0.031077128434018584 -0.06497967441821188 -0.030920544378198942 -0.06526611334106375 0.12914992664771352 0.08414135343537214
4509375000.0 0.11325971507358122 0.12954065997098987 -0.03373463380751729 -0.06357035698767527 -0.033509581060778296 -0.06384384499445143 0.13010484589720733 0.08698270932504919
4510938000.0 0.11398216072776107 0.1301136563985752 -0.03636835539427552 -0.06176424161974641 -0.0361286791683722 -0.06237772603167478 0.12907999423524696 0.08989307568457472
4512500000.0 0.1148604628214303 0.13072339531493993 -0.03889439157381216 -0.05996046905629337 -0.03888090757980808 -0.06066555034584109 0.12614997800415695 0.09063978297897342
4514062000.0 0.11563023037002149 0.13156034284673473 -0.041450114513334156 -0.05821866270309995 -0.041389770818946785 -0.058908484677004644 0.12098342972062062 0.08931148637372512
4515625000.0 0.11686808642050696 0.13201191131585183 -0.04389371579112908 -0.05621675466166048 -0.04398024226427241 -0.05701034331407598 0.11682660885381323 0.08467917128244246
4517188000.0 0.11748805027050754 0.13277556033217736 -0.046216504727472726 -0.05427031492277449 -0.04641528443913065 -0.05493822083992883 0.11496876211220572 0.07663406095738748
4518750000.0 0.11873368844915444 0.13348040675849152 -0.048596513347140234 -0.052095072201186414 -0.048957443625702944 -0.052755871084941904 0.11690682894802863 0.06818913131989406
4520312000.0 0.11940813636764196 0.134388706484618 -0.05088238370157043 -0.050027447081891226 -0.05136646798607915 -0.0504022933268765 0.12243191158836624 0.059723770547072334
4521875000.0 0.1208772657533156 0.13497337934883852 -0.053259910358700556 -0.04774531203527077 -0.0538062869576038 -0.047962587509539974 0.13170162506614436 0.05360902223647231
4523438000.0 0.12173229775038595 0.13584820216211316 -0.055521508981869146 -0.045662591050443554 -0.055931242515097686 -0.04572346764245 0.14321105019847807 0.05241751951207021
4525000000.0 0.12312890400826636 0.13662427706405333 -0.05780289702836948 -0.04333949862901625 -0.058010739739880385 -0.043471036605759766 0.154275124252498 0.05363208452157091
4526562000.0 0.12419821810270984 0.13725545196436378 -0.05976185943151378 -0.04116079857524255 -0.05980318015483163 -0.04117905743675244 0.16527773451863967 0.05982443025420726
4528125000.0 0.12517555070990746 0.13834412994185713 -0.06161937899011866 -0.03880131675508187 -0.06150377181255403 -0.0390367141894988 0.17427709513396894 0.06832003235381653
4529688000.0 0.12670224986887188 0.13889238827212091 -0.06339705835639203 -0.036310354052578146 -0.06312954475645026 -0.03673935229485185 0.18054797100558628 0.07974531579287068
4531250000.0 0.12753795777979793 0.13930040903244337 -0.0645960651384519 -0.03373218932187629 -0.06463178487422602 -0.03427481467590497 0.18225924503418817 0.09322054156895149
4532812000.0 0.1291554534549843 0.13972520777640612 -0.06598031803160125 -0.03093194154498718 -0.06613229089595639 -0.03165994749045661 0.17893824383243626 0.10393631703010449
4534375000.0 0.13041740718948605 0.140386201204461 -0.06696937350784898 -0.028340103635869678 -0.0673869969171336 -0.029018974867564797 0.17122841962037608 0.11582087232956763
4535938000.0 0.13207859314159945 0.14018782116990014 -0.06759563483453182 -0.025512699638795804 -0.06817956598111012 -0.026059692798782137 0.15957279514093783 0.12205599962794292
4537500000.0 0.13310554963169127 0.1403104153748223 -0.06833136775074104 -0.0225824645364843 -0.06898739667098822 -0.023017895858038744 0.14878039750373453 0.12281168471254267
4539062000.0 0.13482471775445826 0.14040469756011276 -0.06904530695733113 -0.01955600526219757 -0.0694577639895584 -0.01978153626854163 0.13994228222677726 0.11801287172838712
4540625000.0 0.13586978547326986 0.14043712849935033 -0.06939927357950311 -0.016419864827097095 -0.06986146762826628 -0.016477215670128244 0.1344053129072235 0.11147045046528894
4542188000.0 0.13800055350825188 0.14046675732034106 -0.06987394401590762 -0.013290963844606703 -0.07011384202028528 -0.013346821461848348 0.13222110287478725 0.10463969438512914
4543750000.0 0.13954675856992657 0.14020771686523667 -0.07035075786223721 -0.010006235624146839 -0.07044991924242446 -0.010050509966031886 0.13340776245896058 0.09924195868385201
4545312000.0 0.14124228399238323 0.13993511414458054 -0.07060181847287293 -0.006841225712817458 -0.07062530930865578 -0.006756817872863238 0.13520592409673052 0.09672899984982818
4546875000.0 0.14264521943601002 0.13982756579372352 -0.07090899900467838 -0.0035205720845233567 -0.07100865107296254 -0.0038148794936080426 0.14017335280141016 0.09546744502221494
4548438000.0 0.14432054110698667 0.13980341514726158 -0.07097970081796627 -0.0003887847750225539 -0.07125580728110362 -0.0005874783106949302 0.14310170728928265 0.09723814825048968
4550000000.0 0.14598842420812838 0.13945180229930557 -0.0709417597154483 0.0026427707858668087 -0.07132310162639474 0.0023458400370461653 0.14571166855322334 0.10201515954909987
4551562000.0 0.14734840989335676 0.13924940804081337 -0.07071947390929753 0.005738492864255746 -0.07115593814229293 0.005436593700901974 0.1450972750152006 0.10684414469119634
4553125000.0 0.14915576655969884 0.13875066434099886 -0.07030317276972373 0.008712484830489364 -0.07079962273357124 0.008497093239713354 0.1421117056204734 0.11328563667695901
4554688000.0 0.15095134960917117 0.13841371387287096 -0.06974372424665697 0.011723061376721355 -0.0702858657396205 0.01149767062276323 0.1368618304776676 0.11810426704049655
4556250000.0 0.15245930355711737 0.13764337411084657 -0.06909550561158122 0.014504380849859416 -0.06963211337668539 0.014537427305569579 0.12957113039470913 0.12143338440296135
4557812000.0 0.15374610494742447 0.1373839033208669 -0.06837601945623924 0.01734604919607478 -0.06878257326581456 0.017409686166821165 0.1211057608257109 0.12146009732436912
4559375000.0 0.15523339423730143 0.13660989764581133 -0.06744458229786839 0.020089465711647214 -0.06783861420247579 0.02011480345444499 0.11293577044328483 0.11779370637320348
4560938000.0 0.15687631699716537 0.13625629482838328 -0.06645696504832019 0.022770879840877924 -0.06683624161401434 0.02268750602256069 0.10533818023113267 0.11026789714380932
4562500000.0 0.1581564099756193 0.13548070189891293 -0.06519794667918824 0.025346978222305857 -0.06554338551316895 0.025353291945366802 0.10162175705624564 0.10152740852368186
4564062000.0 0.15940943104446098 0.13408988034886757 -0.06383687414680254 0.028079553767100637 -0.06411732771031876 0.027911569488067296 0.1012761138666532 0.090470259723382
4565625000.0 0.16144906908086196 0.1336824263511211 -0.062350378169668284 0.030762996122506884 -0.06282792404365808 0.030710635309232973 0.10460117867771279 0.08132483365824711
4567188000.0 0.16242160831749192 0.1324786935017908 -0.060896768691617476 0.033382157850943436 -0.06135318391067927 0.03334007310953247 0.10996463189165293 0.07283843710050662
4568750000.0 0.16403457809582078 0.1313238212497698 -0.05926415204229527 0.03593558878219823 -0.0597385307070556 0.035963416213969514 0.11717842647067182 0.06728823389326095
4570312000.0 0.16581776374293736 0.1301601678648011 -0.05760145622230561 0.038358734161038834 -0.05796324522013569 0.03839418191263734 0.12580992055409204 0.06452235957203424
4571875000.0 0.1675828591505228 0.12922914239404337 -0.05588483636168723 0.04069983374765984 -0.056190847254742306 0.04081217682738194 0.13223838697727744 0.06430565207090606
4573438000.0 0.16966144095207975 0.128285534855374 -0.053936104543072516 0.04301822914466739 -0.054201605700322876 0.04304302415124189 0.13908153477847068 0.06429214928682615
4575000000.0 0.17181160539537482 0.12730750012127598 -0.05177712686612181 0.045180617477788204 -0.05221426956951562 0.045228196242450454 0.14414630041711718 0.06561116096012894
4576562000.0 0.17331859323857288 0.12653549277759138 -0.049711444651752354 0.04730095698860903 -0.05017418139137449 0.047279360484787786 0.14833156438365647 0.0678937663305158
4578125000.0 0.17551206479767636 0.12535844433458349 -0.047481463543498345 0.04932104478724906 -0.04802274513173972 0.04940729622919981 0.15041768832487562 0.06982182294161549
4579688000.0 0.17754760591365906 0.12463493144540846 -0.04517728608504957 0.05106682686475535 -0.04586497137293893 0.051266556830645085 0.1519509235906237 0.07135460432481747
4581250000.0 0.17952946732796926 0.1238143586959147 -0.043006282695482144 0.05279190771348739 -0.043656208877795054 0.05296188503043571 0.15359580247514348 0.07249680497746729
4582812000.0 0.18146072047800743 0.12233307864635665 -0.04073290959790728 0.05433316008015145 -0.041081319690023765 0.05466972349584563 0.154550353819898 0.07205798902271572
4584375000.0 0.18334516396948697 0.12172185168860178 -0.03839360992381821 0.05575450332470731 -0.03866250389577503 0.05626091184646153 0.15700636845230567 0.07070366506908862
4585938000.0 0.18527045296648212 0.12056912919696738 -0.03610755604729694 0.057197247619669336 -0.036275120437362265 0.05758646223300184 0.15837509335662608 0.06886234007121572
4587500000.0 0.18713576661918502 0.11945632667291281 -0.033681978247293395 0.058681808656225076 -0.03375951067046632 0.05896776872530767 0.16219275013195328 0.06538539356499377
4589062000.0 0.18916348558161253 0.11823995298878989 -0.03127529597638869 0.06000366773327518 -0.03143348431021275 0.060208042188104674 0.16767365238115192 0.06364526669535077
4590625000.0 0.19083653159494315 0.11688997632622693 -0.02877867482585499 0.06133557341825384 -0.029028328582415348 0.06131459531368449 0.17358014444511968 0.0625108512113077
4592188000.0 0.19287841031559505 0.1159342307730757 -0.026169486163905412 0.06267373211265008 -0.02667100096595075 0.06256281367623688 0.18118443147671476 0.06218137039431999
4593750000.0 0.19458804821178954 0.11438390685900074 -0.023624753458548503 0.0636304727815984 -0.024150017048501095 0.06363557757959891 0.18768600478356787 0.06558590780660217
4595312000.0 0.1963992845951899 0.11291346289640364 -0.02099607912796231 0.06453127756810577 -0.02164054748769735 0.0647693951782735 0.19362569011971614 0.06921673919925042
4596875000.0 0.19802702287674634 0.11135790387310808 -0.0184246168301781 0.06517117445409219 -0.01907224640634473 0.06556628836776168 0.19860294669854725 0.07383097474308016
4598438000.0 0.19961527115952366 0.10985814605724081 -0.01586701806119636 0.06574423643980766 -0.016345047314081252 0.0662437443697138 0.2013827760584877 0.07927036962477323
4600000000.0 0.20137357817108964 0.10828068215684365 -0.01320932191553803 0.06604012816886037 -0.01345074146752851 0.06683853676947214 0.20348097658477352 0.0842134795604968
4601562000.0 0.20329356322301792 0.10641374688299733 -0.010439513096015918 0.06643688104223662 -0.010614919308804855 0.06714956581372208 0.20291721280314057 0.08800418392519062
4603125000.0 0.20490794631419865 0.10497977734560972 -0.007845660729679486 0.06667326815172886 -0.00783364888190664 0.06733146737340173 0.20183056925250947 0.09220560560824526
4604688000.0 0.20682290910184475 0.10356914962882645 -0.005247697308282538 0.06697705447931686 -0.00512351444576943 0.06739044958993813 0.1986052592663569 0.09580941426359862
4606250000.0 0.20858451813045092 0.10210589321186286 -0.0025231256340588694 0.06700601584709115 -0.0024235566568626236 0.06731172536430605 0.19408390875635567 0.09766966781323758
4607812000.0 0.21008246756188778 0.10035485975822112 0.00017024838745937008 0.0669111457336479 0.00019209771838040972 0.06710081069447466 0.18740183334114463 0.09754251077849645
4609375000.0 0.21178374709559988 0.09892380982718389 0.0029513837593073584 0.0667758477334965 0.002790423123306332 0.06687469543472813 0.18130313121610975 0.0940920490633907
4610938000.0 0.21261818879715122 0.09761867303291323 0.0057128887651291 0.06642896483621341 0.0054687523264918105 0.06649898025115915 0.1779856857553457 0.08721488834539765
4612500000.0 0.2142464299514867 0.0958473647092102 0.008611767249399467 0.0658129489141912 0.008277243784977246 0.06620256839098382 0.17576093780455665 0.08078780047349325
4614062000.0 0.21533780706153194 0.09429176871452785 0.011508578291859074 0.0651447741363708 0.011083061292088105 0.06553222867344222 0.17593863125327214 0.07357175405098565
4615625000.0 0.21667738872657366 0.09289388896684733 0.014297893487822993 0.06446646522759736 0.01404037610037255 0.06504742110682946 0.17920813296147958 0.06667930532923233
4617188000.0 0.2178771360254341 0.09153377818045798 0.01711186427270048 0.06364937265739945 0.016743576762591392 0.06430985900335907 0.18375424570329804 0.06090400956005307
4618750000.0 0.21851153428668393 0.08989437539342815 0.019676184909529052 0.06288139637374336 0.019572429226074058 0.06343354230338928 0.18882912536450683 0.05796574575918558
4620312000.0 0.21927001372846083 0.08832182307885912 0.02223477555825632 0.06191629124232636 0.022265496534554775 0.062481227425203734 0.192743789874614 0.05625827116237073
4621875000.0 0.22007362143016196 0.08683315674421437 0.024531524890143777 0.061005866459438944 0.02488762941069967 0.06145924842679361 0.19730313129996202 0.056329283049477145
4623438000.0 0.2207970700546865 0.0850622630548873 0.027055921661452525 0.059959637422509274 0.027202203947105073 0.06028389494754628 0.20045512916885116 0.056612420694687214
4625000000.0 0.2216978949177614 0.08388917720750812 0.02945970325908237 0.05883827250659607 0.029669085413335072 0.05908056673506813 0.2018262134926407 0.057968951560495786
4626562000.0 0.2223514007889362 0.0819628970795033 0.03192753085892728 0.05740996840704844 0.03206099456192639 0.05778032839706399 0.20190400726948637 0.05874666338636318
4628125000.0 0.22308469420054403 0.08076227224914821 0.03431940268985684 0.056152521297158725 0.034345045493955825 0.05646227797848663 0.19955887992894158 0.05915174911727273
4629688000.0 0.22365618663961442 0.07882585699914114 0.03664164735283631 0.05457103581916803 0.03662909687996908 0.05490873690386069 0.1948116362124415 0.0568935253302646
4631250000.0 0.22446725806041667 0.07727082198768562 0.03879495012149745 0.05305142131357188 0.03869654413617558 0.05338637027158288 0.19144799637979243 0.051977368708404505
4632812000.0 0.22533150552091666 0.07536411026523226 0.040698340597767446 0.05125255830172125 0.04082611518453137 0.05158804624521371 0.18897998458106485 0.04477086254614914
4634375000.0 0.2261551477136213 0.0737354162600431 0.04274232121284353 0.049303898195130175 0.042738893922541335 0.04968563361518221 0.1886821532517766 0.035785907472993546
4635938000.0 0.22698522399913462 0.07173897923012 0.044637300012522356 0.04718118118659258 0.044706845528831814 0.047693062149426646 0.19147876150899476 0.02578134479565779
4637500000.0 0.22764595243513017 0.0703818397211937 0.0464921192407325 0.04512876893244674 0.0466222836264894 0.045723952305138656 0.19749597526967225 0.017217456890950108
4639062000.0 0.22814127049664568 0.06876072356907525 0.04830571225550386 0.04316907851849489 0.04841153412287838 0.043705871389251666 0.2062023243855935 0.011599830479825969
4640625000.0 0.22879794802634332 0.06742010582732583 0.049932347351359874 0.0411536422347205 0.05015257379760545 0.041655768518027346 0.2144188036922703 0.008604226287832677
4642188000.0 0.22957434219772233 0.06564489323489531 0.05155075958145373 0.03913293439053636 0.0517929451799788 0.03958316174364282 0.22466120939244372 0.009272584938226672
4643750000.0 0.23013719572144872 0.0639792875591473 0.053038859904335225 0.03699688188212697 0.053270663271274804 0.037383912958848665 0.23209174945339484 0.01239024456219369
4645312000.0 0.2302696316776785 0.06216889362280859 0.05433677606697727 0.03482801878180287 0.054651987733436325 0.035015178823880014 0.23672550530172334 0.017346392457803457
4646875000.0 0.23085664791432348 0.060286056921892046 0.055797600609069305 0.032514618393920565 0.056048834765156076 0.0327701547360419 0.23932028139693196 0.024037013883031602
4648438000.0 0.2316781965445221 0.05865910494937949 0.057095265744729444 0.03022663205594658 0.057374761331737766 0.03050651183263367 0.23820502498228033 0.030307228103393244
4650000000.0 0.23175702190057326 0.056522855261238805 0.058304457132399345 0.027863975055491402 0.05862572683083281 0.028172737641578058 0.2347096284458821 0.03490328438283767
4651562000.0 0.23238404282681163 0.0549417198909526 0.05937310122402784 0.025540108481082225 0.05957406496000526 0.025936179914019336 0.22931300126896817 0.037146760832306766
4653125000.0 0.23284142236206837 0.05262120749286344 0.06027605972346315 0.023082599226646863 0.060436321544939706 0.023528150759591228 0.22268279051848627 0.036237425231737286
4654688000.0 0.2333155874519535 0.05030987772331969 0.06106267858482482 0.020516580497574814 0.06126472822971044 0.020980093142766904 0.21766282426721406 0.032210037195554
4656250000.0 0.2335315600908071 0.048194494725135734 0.06170452039517322 0.017949201961891773 0.06206681758752658 0.018375218871134292 0.214965305202982 0.02725699252138112
4657812000.0 0.2342826360047948 0.045763585533645006 0.062323354390018404 0.015340151984566742 0.06280400147209637 0.01562973266611353 0.21383632790241142 0.02106698928659424
4659375000.0 0.23471002738577224 0.04342679522159397 0.06291199909670664 0.012722572439187063 0.06343099489672402 0.012968185403269168 0.2157991185818318 0.016339790277479862
4660938000.0 0.23517844440404886 0.04115430389103657 0.0633736658226531 0.010080828934587444 0.06391438976404652 0.010320982199107416 0.21999046874321665 0.013178828693022716
4662500000.0 0.23612083522605146 0.03854934048846454 0.06376997454462577 0.007577648650906407 0.06419207012116449 0.007643165023874171 0.22385192091648617 0.012173044396622323
4664062000.0 0.23638783025642499 0.03609278543019336 0.06409399788238063 0.0049891014165569444 0.06428591536974249 0.0050351115192064574 0.2279005430837687 0.014172369716492016
4665625000.0 0.23717151913512194 0.03358562626894425 0.0642138596284594 0.002353349478205831 0.06445049969764455 0.0023933612004918906 0.23000655449603044 0.017979554068507795
4667188000.0 0.23771472607413013 0.03122547920342041 0.06432331534938851 -0.000265941541458757 0.06452580247620866 -0.00015183046408857864 0.22988756785647527 0.023473448137549195
4668750000.0 0.23865207706540384 0.028480686543788113 0.06436403230761692 -0.002934351597993784 0.0645410580660696 -0.002789656121857084 0.2261347760474778 0.028701667225393374
4670312000.0 0.2392433371086565 0.026207685932810164 0.06426225769498867 -0.005638751349699952 0.06463717998210497 -0.005322208664058071 0.21961451724371292 0.033234597164177565
4671875000.0 0.23991637120806758 0.024056399958229974 0.06410346188337654 -0.008079512577929137 0.06448177694875283 -0.0077638277585206725 0.21074538788015096 0.03479636218988661
4673438000.0 0.24016526731629712 0.021447679328596966 0.06364969093069514 -0.01068154069127602 0.06402585879519421 -0.010310803850906573 0.2003240441787528 0.03279098245321918
4675000000.0 0.24043179957289307 0.019041964345452866 0.06302329453465146 -0.01318089130790152 0.06356097415612734 -0.013133605478120097 0.19027034226494333 0.027230328549226083
4676562000.0 0.24091197279151527 0.016681137738206793 0.06221409546827083 -0.01585230742977564 0.06285221744456589 -0.01572194787609641 0.1827793976258473 0.01838539014689517
4678125000.0 0.24100519478044524 0.014055522372536312 0.0614448836808423 -0.018358278201079554 0.061945204088285695 -0.01839181386265253 0.17763123181746357 0.007997103584463688
4679688000.0 0.24119017228504835 0.01185997858850374 0.06054290211822456 -0.0209214965844407 0.060984582424290446 -0.020964528684674643 0.17628264518454953 -0.003399758478473877
4681250000.0 0.24182452609372507 0.009276621572487756 0.05958048467632767 -0.02344980707820323 0.05989604767013166 -0.02347108733755222 0.17682304526864248 -0.013181748321714867
4682812000.0 0.24195154295888166 0.0065947519994210575 0.05849596985653624 -0.02578441301382196 0.058920383293815014 -0.02586503922358098 0.17987915630140183 -0.021318478372089698
4684375000.0 0.24253079191943117 0.004239982358478719 0.05722635589200604 -0.028213929482764015 0.05760981516743909 -0.028117705244128828 0.18480678462531838 -0.026489384682824788
4685938000.0 0.2428595501564625 0.0015621750336423002 0.05589494308629501 -0.03047401011001762 0.05626796852692677 -0.0304490781170549 0.18897987874741976 -0.029840423075993633
4687500000.0 0.24307650431029193 -0.0006781159070539299 0.054381272449975385 -0.03281274262923644 0.05483653205811883 -0.032762252182725916 0.19221761077934163 -0.031851111808643195
4689062000.0 0.24314561365777382 -0.003279893534250746 0.05285216987889802 -0.03502544888042749 0.05332573799934561 -0.035056830630668966 0.1934995119630042 -0.03212494189792598
4690625000.0 0.24361360839785184 -0.005717964967606685 0.051310401764819595 -0.03713440617445833 0.051797723999033964 -0.03729739857525254 0.19479281607430318 -0.03236803918780141
4692188000.0 0.24384294220968736 -0.008312908952393444 0.049795307914646675 -0.039269699229981934 0.050111388587798386 -0.03941673979356072 0.19350694975076244 -0.03250184759662711
4693750000.0 0.2441746285671635 -0.010478163683594789 0.048208906704301446 -0.041137841798781015 0.04845031968621962 -0.04137213066603728 0.19070936917715045 -0.03443415863402898
4695312000.0 0.24438927413363942 -0.012993444958629741 0.04640731680782737 -0.04306754112618927 0.046647229531672676 -0.04323617882959757 0.18671065762431063 -0.037061665197492745
4696875000.0 0.24492577441720187 -0.015159777960342503 0.04457186470310697 -0.04502508353408951 0.044779510240527724 -0.04503951739391562 0.18316065250550198 -0.04344532341852929
4698438000.0 0.24580909941934098 -0.017536734016094985 0.042650511775808114 -0.04693938314153442 0.04293867421209931 -0.046887595071541194 0.1812041622987159 -0.052164124371413954
4700000000.0 0.24573281264552627 -0.02004677997221316 0.040650379892150756 -0.04883581790128302 0.04110809912816659 -0.04875752081419009 0.18266521578491637 -0.06028608056063192
4701562000.0 0.24603110414284537 -0.02168624271313782 0.03879799008235245 -0.05048610447957243 0.03938888711100316 -0.05046737525671458 0.1870124658656915 -0.06838739970146039
4703125000.0 0.24620059109595316 -0.023973291739679832 0.03677090602725182 -0.05209669011907462 0.03748703407630105 -0.05217895402029583 0.1945333082706976 -0.07532211371078906
4704688000.0 0.24616153679610914 -0.025802853777505717 0.03463944730705409 -0.05339124041461255 0.03542056609838986 -0.05364904117519055 0.20024418031040872 -0.08082816562330948
4706250000.0 0.24608946512862573 -0.028053591428839193 0.0325815440916915 -0.054645608978499606 0.03329044546974548 -0.05509167528535117 0.2080470900207418 -0.0823976184050845
4707812000.0 0.24596479415352693 -0.030139920269794788 0.0303848956551285 -0.05576065400727215 0.030913896426290385 -0.056286121008784454 0.21512020297359752 -0.08423095087207667
4709375000.0 0.24583869801107708 -0.03226779576660998 0.028308779530758603 -0.05691104881690909 0.02847531241949691 -0.05768813716241357 0.22082578520515 -0.08399974513391414
4710938000.0 0.24548164260166258 -0.034555234944543725 0.02622435645818162 -0.05806557902128845 0.02624026807561819 -0.058615651917989106 0.2259191123586533 -0.08320651800760856
4712500000.0 0.24520052705117418 -0.0368363090820009 0.023949710591447525 -0.05926096572013986 0.023756912509626974 -0.05955735234628963 0.22968221397172 -0.08069916456571473
4714062000.0 0.24473465502545594 -0.03895675739124113 0.021511404156034128 -0.06016329995826639 0.021365009415628407 -0.06027816825031411 0.230160600619251 -0.07715785387604526
4715625000.0 0.24421706881927724 -0.04119115673023422 0.019066318334100767 -0.06107014502496634 0.01899869550357161 -0.06098454371743139 0.2296096836871733 -0.07307756305165389
4717188000.0 0.24389129483015262 -0.043714726811433374 0.016402261941066087 -0.06187400104135016 0.016517016146384296 -0.06161347311302029 0.22757110645047618 -0.06844627626794891
4718750000.0 0.2431166072595047 -0.04567402472809023 0.013654720211985018 -0.06244405580375086 0.014162345813522804 -0.06214294621110079 0.22278680764242598 -0.06588534432236386
4720312000.0 0.24242878831461992 -0.04819504073815286 0.010841450657538821 -0.062763430687442 0.011419739609583156 -0.06269411262283028 0.21528629799338606 -0.06611344279038624
4721875000.0 0.24166873361220567 -0.050131093395741434 0.007958325508153837 -0.06277178764671652 0.008713322580696141 -0.06295728476567884 0.2095761281497073 -0.06921748360800575
4723438000.0 0.2409752334574703 -0.05275217277483873 0.004999328673689708 -0.06259821188257535 0.0058093343483300785 -0.06316795631694931 0.20243986804325764 -0.07439082698039855
4725000000.0 0.2399677134570047 -0.0547610717696061 0.0023401049928536755 -0.06245250460019127 0.0029650478028099897 -0.06330695748976096 0.19797219724245835 -0.0814668279995485
4726562000.0 0.2395812640766587 -0.05693180600166081 -0.00020189649922630945 -0.062413558376048055 8.312026517785846e-05 -0.06337398555652482 0.19873783380672871 -0.08463819747780875
4728125000.0 0.23874857835815333 -0.058763132775900305 -0.0027642747303825823 -0.06221509666638037 -0.0026252631709571296 -0.0631725067619925 0.19820995759774873 -0.0922446110303385
4729688000.0 0.2378553104523001 -0.06077033095871931 -0.005042243291390124 -0.06218128632851073 -0.005359963080760789 -0.06290555998423654 0.19811711922231728 -0.09594691411843319
4731250000.0 0.2364608837751039 -0.06208306751889885 -0.0074492050438214755 -0.06205413787804339 -0.00786307598575717 -0.06251213699819853 0.19755428024718802 -0.10152443964383509
4732812000.0 0.23534512783571773 -0.06399990337466949 -0.009941947628296458 -0.06194202507616285 -0.010376002194383092 -0.06202539577993635 0.20100832341275524 -0.10512759955119044
4734375000.0 0.23373965471015104 -0.06578050813369823 -0.012614334080891753 -0.06164575495478975 -0.012952705857096852 -0.0616144353352248 0.20126427293347707 -0.10953414243277697
4735938000.0 0.2321245564689678 -0.06749155449129787 -0.015417667542469808 -0.061299040192424444 -0.015539678443333925 -0.061058894500730924 0.20611864243463754 -0.11357406147427444
4737500000.0 0.23091388227320117 -0.06944053700972946 -0.018241694343226568 -0.060711438548495256 -0.018125246860288137 -0.06055357109420558 0.20996707536430492 -0.11335179339574455
4739062000.0 0.22931946083277965 -0.07162053304140796 -0.02106831468401372 -0.059974557535981264 -0.0206759191775293 -0.05995285032479229 0.2131062374177513 -0.11243598317842744
4740625000.0 0.22774872425888687 -0.07324864896050373 -0.02353864952466948 -0.05891351943460467 -0.022966273467910196 -0.059133985177749634 0.21317526624344715 -0.10717409197426715
4742188000.0 0.2263871132170181 -0.07483185423517973 -0.025873378185538497 -0.057674754940936046 -0.025122281611365573 -0.058075010481026326 0.20855233122260508 -0.10435358087363907
4743750000.0 0.22475772599102387 -0.07665790190758753 -0.028011135423653948 -0.056109709552140584 -0.027487516597431292 -0.056860359095347 0.20235588206014454 -0.10412061983139917
4745312000.0 0.22319429883576178 -0.0786534521416117 -0.029815898603800736 -0.05465895796440142 -0.0296094878885422 -0.055415172035514076 0.19444780129099873 -0.10585872606863136
4746875000.0 0.2216746913695723 -0.08015944382217936 -0.031633969572464934 -0.053017184055397196 -0.03159468517600055 -0.053871642493809005 0.18558631913035228 -0.10977996645908182
4748438000.0 0.220170701796496 -0.08218639009224414 -0.03338948557695976 -0.05141916400380052 -0.03363739048457581 -0.05215104485678162 0.17966711563080695 -0.11621693970721658
4750000000.0 0.2184968635598003 -0.08421934122086859 -0.03526063720717654 -0.049860637699698805 -0.035602097452280074 -0.05054062326139895 0.17531419447008814 -0.12182263788440449
4751562000.0 0.21707492552278063 -0.08561867596471043 -0.03717681345842156 -0.04834136692660567 -0.037640149642822314 -0.04881739566163456 0.17315089779587683 -0.12913032240455602
4753125000.0 0.21564355612706215 -0.08771126774664027 -0.03918351532646255 -0.0468748432676358 -0.039553774406108244 -0.04708763188128114 0.17232087254487682 -0.13622652904566326
4754688000.0 0.21424397028441886 -0.08918411974319447 -0.04126546609462546 -0.04530744993821951 -0.04147792499836027 -0.04527859609633561 0.17342848797495825 -0.14304429967229587
4756250000.0 0.21313532655166798 -0.09086608057617301 -0.043245615363027824 -0.04360373527657822 -0.04331409814537064 -0.04356522873074646 0.17818689667241405 -0.1478709178404559
4757812000.0 0.2118126834893624 -0.09234997890229142 -0.04517505890152918 -0.04175822142937279 -0.04507836165123221 -0.04168442453509781 0.18421561503431955 -0.15011318498067888
4759375000.0 0.21059157462326678 -0.0940535669741608 -0.04687495227489847 -0.03985693421375771 -0.04683566229435941 -0.03992235375749552 0.18971404785432366 -0.1483662206331458
4760938000.0 0.2088681187894255 -0.09593736559102137 -0.0484806690302702 -0.03780420012042049 -0.048458026598958856 -0.03810288698592814 0.1939044737717125 -0.1435920656350834
4762500000.0 0.20746323692338145 -0.09757901579022969 -0.05003429143689586 -0.035865382799931636 -0.049988688591092026 -0.036389170764463616 0.19420578119121573 -0.1377840665816648
4764062000.0 0.2058346614465406 -0.0983786156920223 -0.051320099383055796 -0.03395324659962221 -0.05134773873307073 -0.03453584997055969 0.19197172580319385 -0.13146729164096246
4765625000.0 0.2048494125489024 -0.10045829469953636 -0.052445941992398805 -0.03209496454337831 -0.05257746624165605 -0.03268037927512205 0.18652375363915633 -0.12595495427502126
4767188000.0 0.20356794742743936 -0.10238621519690108 -0.05340548044539312 -0.030069222182817126 -0.05368994464027181 -0.03069580770574363 0.17828025345701976 -0.12284488559232773
4768750000.0 0.20183129777142453 -0.10415082600578457 -0.05440781235226263 -0.027966962415549843 -0.05481715445051358 -0.028453714045536406 0.17085813793540935 -0.12235418102200571
4770312000.0 0.19975570533672063 -0.10593719522104678 -0.05530267136797406 -0.025807471864596764 -0.055764833136448304 -0.026182710802983174 0.1619894282240834 -0.12432908952649045
4771875000.0 0.19855319392074788 -0.10703150870529643 -0.0562276136991934 -0.023591764327971627 -0.05673578928458687 -0.023824972233713562 0.15544272296446404 -0.12850966063572106
4773438000.0 0.1975382820984723 -0.10944105810763491 -0.057091748026558815 -0.021154590905324545 -0.057619085323691525 -0.021402324320962403 0.1507943857991852 -0.13555440749908623
4775000000.0 0.19537642599775926 -0.11099790959714151 -0.05804790965784346 -0.018868014326753217 -0.058289483604583275 -0.01900412911056815 0.14929071052527174 -0.14217409816511445
4776562000.0 0.19404823747956143 -0.11346713743178885 -0.058780116770305126 -0.016389895323040794 -0.05901759534161045 -0.016638538954473404 0.15073042669424913 -0.14771109465607818
4778125000.0 0.1923097886504424 -0.11500701281678977 -0.05951043732643335 -0.01393554372805438 -0.05962331077677352 -0.014131248211165319 0.154810098356601 -0.1513862231888203
4779688000.0 0.19110737895489585 -0.11699717364149248 -0.06025688152532452 -0.011521745171834904 -0.0604357654234672 -0.011782949043782449 0.15950498468140742 -0.15182302027952077
4781250000.0 0.18950190737972597 -0.11904021287326277 -0.06089741119740503 -0.009013067162982192 -0.061196777610048915 -0.009193046011281566 0.16422390793298497 -0.1489758520553367
4782812000.0 0.18791202328821316 -0.12057030580673399 -0.061473440862993015 -0.0067239989220755445 -0.06173883289316592 -0.006943637874427913 0.16549658869585115 -0.14321340946735936
4784375000.0 0.18676694398976598 -0.12240870512593775 -0.061897975558167985 -0.004332988748493579 -0.062405274262665594 -0.004542844778018637 0.1648336998891183 -0.13638241349086452
4785938000.0 0.18509064636238692 -0.12397417077381787 -0.06213906815235767 -0.002047357439241769 -0.06265454470643747 -0.002229542370171067 0.15951563793113158 -0.13024137981292888
4787500000.0 0.18376241798974902 -0.12546311321843373 -0.06228636016185387 0.00023930218328491312 -0.06264064281017989 0.00015296063968100286 0.1513829807762542 -0.12722245671957322
4789062000.0 0.18198370750889167 -0.12671433360160797 -0.06212798187296159 0.0026160643261925126 -0.06254816175102741 0.002525988287234611 0.1422008393106041 -0.12542401630648461
4790625000.0 0.18047379826123416 -0.1277222437807672 -0.06182969290722082 0.004986525297835577 -0.06211614650119618 0.004937730784508376 0.13318073648502443 -0.12457510041032831
4792188000.0 0.17851176632781873 -0.12885198611410453 -0.0613854358908059 0.00742740721048771 -0.06166285730253089 0.007339706905842328 0.12318175276843578 -0.12787215223705306
4793750000.0 0.17664132744998098 -0.1298885118833271 -0.06085569441808925 0.009859029326916085 -0.061098616782230435 0.009821969869134093 0.11525824608680774 -0.13458121496247977
4795312000.0 0.17469648361213216 -0.13103581165432657 -0.060183832384132795 0.012522793677071698 -0.06056852797594986 0.012206160387981727 0.11010969960763385 -0.14320938720029072
4796875000.0 0.1726807079498994 -0.13190999863090744 -0.05942173371702475 0.015109722868948652 -0.05968394342118958 0.014700445326747703 0.1074800940958808 -0.1523635572985686
4798438000.0 0.17080161782341188 -0.13238702971859334 -0.05851948701842281 0.017523317709141426 -0.05891138122755783 0.017225040913728337 0.10932294213865629 -0.1596215135744264
4800000000.0 0.16875962813651235 -0.13298913766025108 -0.05757304699994895 0.02019009805203511 -0.0580790845503753 0.019856455892764673 0.11388695711605598 -0.16545576830719874
4801562000.0 0.16686755435497547 -0.13413433454852694 -0.056635369460541006 0.02280865407818354 -0.057217909362115266 0.02258791744617365 0.11943413494109854 -0.16720995112226725
4803125000.0 0.1652572291480491 -0.134850092650171 -0.05575125837362568 0.02535136238974522 -0.05638103245640739 0.025325421347183213 0.12555238763701926 -0.1636707408038567
4804688000.0 0.16281970304931778 -0.13547204916612493 -0.05491816995591953 0.027877150345783423 -0.05548807409801148 0.027933767915627846 0.1285565318665401 -0.15912719261778416
4806250000.0 0.16108823360790542 -0.13587436294612953 -0.053960568652166495 0.030143449758942484 -0.054558132368431954 0.03040333710512976 0.12955954685085777 -0.1518096118356498
4807812000.0 0.1591399929945857 -0.13664290374845184 -0.05295063158591101 0.03232148737781011 -0.053444404629055656 0.032645029651040824 0.12765310421330206 -0.14443732364923623
4809375000.0 0.15764296733791663 -0.1376062995542697 -0.05184426308843542 0.034435181279479934 -0.052248574719787805 0.03472721514242458 0.12285236627713268 -0.1377813993683632
4810938000.0 0.15582465542972215 -0.1367693200610058 -0.05060602946138078 0.036548131325683006 -0.05078000856543145 0.03677632740792939 0.1160193383253977 -0.13291605139207435
4812500000.0 0.15470793609189218 -0.13672629969869776 -0.04922903281145819 0.03855627318463883 -0.04938254456493292 0.03867955792741454 0.10967118167872798 -0.13172425754118658
4814062000.0 0.15252114391229807 -0.13712497138521632 -0.047762352410119585 0.04054505076415118 -0.04783748073533924 0.04054194532419076 0.10142889596257285 -0.13084816782893355
4815625000.0 0.15119772554023325 -0.13706590307486047 -0.04611295834067598 0.042522325236422735 -0.04631708588316781 0.04246830925500144 0.09573869064637112 -0.1325481511340942
4817188000.0 0.1499633791792864 -0.1374780958234047 -0.044346471812101766 0.04435049051973531 -0.044705002506270575 0.04421040019620257 0.09082846147960467 -0.1348060931764231
4818750000.0 0.14829882557138738 -0.13730006465439204 -0.04235563395360694 0.04602499244110644 -0.04286190392976982 0.04595005268705098 0.08725612089418584 -0.13978350806899678
4820312000.0 0.14674861284585694 -0.13619758741001203 -0.04035780770309164 0.04765685110554559 -0.04087380716729611 0.04764918256483701 0.08602888290723035 -0.1425102407950938
4821875000.0 0.1455173524246047 -0.1361902813974909 -0.0381170522356495 0.04920484177611525 -0.038822183377327284 0.049312147429984195 0.08753802129975442 -0.14425331337494912
4823438000.0 0.14401126354423271 -0.1358305458047956 -0.035935203748239275 0.05075692880970633 -0.03651505531725219 0.05095408971728389 0.09059135465872636 -0.1448221192284774
4825000000.0 0.1425995428379017 -0.13545784858607016 -0.03365480781511411 0.05224696043668119 -0.0342205260973509 0.05250350654444116 0.0922536900182614 -0.14139113271019538
4826562000.0 0.14113316091467157 -0.13501980557494955 -0.031467512686061724 0.053686665909336406 -0.0318543070387209 0.05406352782037614 0.09246753807601231 -0.1381311066826463
4828125000.0 0.1397683814970671 -0.13501964623247348 -0.029299668283671608 0.05498605121618431 -0.029590955840601105 0.05544967219847792 0.09082689018521249 -0.1318705727828393
4829688000.0 0.13789242486784084 -0.13440424422039438 -0.027064440479114875 0.05617793021771042 -0.02725292447040101 0.05659434192745889 0.0880234865258053 -0.12711112020196785
4831250000.0 0.13661091201948702 -0.13443862737401596 -0.024684196073261232 0.05723231751259123 -0.024990182089284958 0.05771084557234116 0.0827931484596354 -0.12308479639329979
4832812000.0 0.1351262557625884 -0.13455636770716972 -0.022311300254692207 0.05832952668243717 -0.022367097126812376 0.05864779793461912 0.07637237191038047 -0.12068664609598924
4834375000.0 0.13405547987633745 -0.13458318907046532 -0.01988040661195154 0.05934513732484667 -0.019952853732599488 0.059612226123943575 0.07027533144413677 -0.11990964854849427
4835938000.0 0.13262090633528684 -0.13456221277038838 -0.017447453303975662 0.06024020058798256 -0.01748050326095994 0.060442807621869765 0.06412980280292452 -0.1207811537342542
4837500000.0 0.13154513522215852 -0.13505390266239112 -0.014931034544782427 0.06095926706306501 -0.015178396080416302 0.06126186690216379 0.05921189381436169 -0.12347231254761007
4839062000.0 0.13040657122113103 -0.13511050842489356 -0.012396279604855493 0.06156284258631783 -0.012640803719541623 0.06190800729185726 0.05544464713422164 -0.126924549628364
4840625000.0 0.1292098735525934 -0.13486154731322894 -0.009833417049772928 0.06194571656104111 -0.010103071365383262 0.0622771572343558 0.05281010883995642 -0.13055608127788565
4842188000.0 0.1280271003673628 -0.13567305910017124 -0.007123653272887075 0.062323196864929875 -0.00739864222947367 0.06258516031794847 0.05182011231577096 -0.13489621216951989
4843750000.0 0.1263802519230315 -0.136016227508295 -0.004339580385540762 0.06249024914566527 -0.004602127651704584 0.0628806692842857 0.052965579169499497 -0.13853115110219602
4845312000.0 0.1254377192685468 -0.13646249153029327 -0.0015725555932433184 0.06269248446912912 -0.0019377742748661786 0.06308116904935238 0.05454859520654509 -0.14093456554768072
4846875000.0 0.12484794094066129 -0.1381924036175712 0.0011143680146949782 0.0627277483620327 0.000927773893394961 0.06310426809610714 0.05832588306526409 -0.14172642381070572
4848438000.0 0.12330716497536294 -0.13762970774514902 0.003723537501801092 0.06257821686964625 0.0036202816108362235 0.06297744534686235 0.06028733072108196 -0.14209328153978595
4850000000.0 0.12275977036525411 -0.13820718287626074 0.00640295612392269 0.062332442334427945 0.0062739670125921895 0.0628149953299942 0.06277150210271468 -0.1405563908301909
4851562000.0 0.12227540881303442 -0.13848217558111992 0.009083624929712347 0.06197353415741445 0.008880467739415384 0.062442883584063115 0.06544494983535284 -0.13796201555445237
4853125000.0 0.12076708320007128 -0.13916797517887644 0.011655593110143464 0.06147651120311959 0.01160771353838897 0.06197527547859702 0.0656700262242244 -0.1348797567316741
4854688000.0 0.11977170175930989 -0.13967494349916879 0.014269132832262223 0.060925018378003536 0.014257136882996345 0.061360903271555065 0.06495760342932771 -0.13224151825628735
4856250000.0 0.11855253046368826 -0.1403021638322969 0.016878215316201026 0.060253856944130976 0.016839692447125573 0.06060336600505152 0.06314058887690581 -0.13008975193442726
4857812000.0 0.11704579274206053 -0.14052202710257589 0.01938277654219475 0.05944845844607071 0.01937443900941558 0.05980537803641992 0.06057362530830594 -0.12863985803430655
4859375000.0 0.11610815242653072 -0.1412057540309954 0.021792913508242227 0.05852517549938405 0.021891451363249204 0.05885590933308139 0.058594691517664485 -0.12876510417610038
4860938000.0 0.11492986860081511 -0.14194235361120902 0.024340313819981526 0.05734120021786207 0.024360682995524328 0.0578068388840701 0.05625824194822846 -0.12965129032473943
4862500000.0 0.11369625045218927 -0.14269017266816456 0.026814559236815545 0.0561819429621014 0.02674147080393835 0.056513905240950645 0.05421596894565335 -0.1311943272133176
4864062000.0 0.11246974275763345 -0.1437978419060359 0.0291535928557309 0.05480629029204922 0.029092095952618628 0.055249597078640966 0.05421333195811237 -0.13099537473228226
4865625000.0 0.11129129387209442 -0.14466722154097206 0.031503110044088144 0.053410715361339636 0.03140483719208036 0.05388250336270364 0.05360111144868922 -0.13324585908511016
4867188000.0 0.11018783850252271 -0.14550363116585674 0.033620184758192895 0.051922732567481374 0.03357656981955581 0.05234745898908285 0.05586676820605699 -0.13377200966738112
4868750000.0 0.1092279468665844 -0.14640012870122598 0.035697645665563674 0.05023945750688783 0.03570010875701705 0.05082547922776476 0.057657443364149755 -0.13440934343088903
4870312000.0 0.10806683965410664 -0.14734868569838047 0.0377064878710196 0.0485484845177158 0.03773219679702774 0.04908297855227181 0.06034098641830845 -0.13440148169783978
4871875000.0 0.10670092218326524 -0.14827421173604755 0.039544928648099754 0.04674530426981435 0.039806576919198255 0.0472938521102355 0.06268730770508259 -0.1325052456002729
4873438000.0 0.10554205681817291 -0.14941083576778416 0.041566364748256694 0.04503677220792699 0.04175713918320867 0.04548356590622333 0.06532451960752203 -0.1288584278021709
4875000000.0 0.10433572871058949 -0.15013130663695973 0.043459388153705376 0.04320014489656526 0.043597847469367595 0.04365218145023468 0.06559373094445951 -0.12340529537853255
4876562000.0 0.10329915746051889 -0.15139908506438315 0.04526601591364303 0.04143962584891788 0.045368032112535 0.04181049341966066 0.0636852570216274 -0.11742134991230839
4878125000.0 0.1025960504396466 -0.15219516644507494 0.047017425555816394 0.03961348429329754 0.04702926774042098 0.0400148843612482 0.0613954454426273 -0.1107257433998604
4879688000.0 0.10138392770315581 -0.1531303482119275 0.04851799484905916 0.03765518132961067 0.04857869632737184 0.03805778956561904 0.055187467438341284 -0.10566522335728197
4881250000.0 0.10041869699680508 -0.15383417952743933 0.049951586791433675 0.0356412589837417 0.05005173056346148 0.03607020392951544 0.04708155639119901 -0.10232582426239706
4882812000.0 0.09934187459886218 -0.15452448508188288 0.051270668230330406 0.03352543763123748 0.05135432915902559 0.03397226940105668 0.037935647318266104 -0.10212034458248696
4884375000.0 0.09799870811635451 -0.15522454788816456 0.05234972503488285 0.03139831584415366 0.052602339366018276 0.03179507519755352 0.03068689955105005 -0.10431622799861434
4885938000.0 0.09684471793822967 -0.15551443370924148 0.05332424192866478 0.029164396666019207 0.05377804647089201 0.02971297921801364 0.023198052442636626 -0.10752495263558424
4887500000.0 0.09558122525810646 -0.15609005098046685 0.05422784344420369 0.027022136633248754 0.05469712004231368 0.027396491843624825 0.016539208835994062 -0.11481239451368852
4889062000.0 0.09364215309010065 -0.15677603012562794 0.05500672110172838 0.02483795954888515 0.055475859914551645 0.025066352954668688 0.014302400418891834 -0.11956135513393361
4890625000.0 0.09257420446018771 -0.15745041151261852 0.05571023849586739 0.022581438646285777 0.05611726771159921 0.022723723859721698 0.012284314688159702 -0.1278046443865374
4892188000.0 0.0908064306354826 -0.15795574472710552 0.056393163725429164 0.02021701725518389 0.05664848010917274 0.020304888945563232 0.013740315317328578 -0.1321797172019011
4893750000.0 0.08928819149253316 -0.15894995277270765 0.056987509481889964 0.017824297864089057 0.057347090311307296 0.018044006501393907 0.016827954567619 -0.13678717819456285
4895312000.0 0.08792278472161505 -0.1590288727263417 0.057525936490063295 0.015482273587085555 0.05778829924278952 0.015579886880568068 0.020634163629980808 -0.1393037845432147
4896875000.0 0.0866384952926857 -0.15975368728094633 0.05806921303052349 0.013055169898029878 0.05835763980435641 0.013325911700658395 0.022923443954253147 -0.1383159923506203
4898438000.0 0.08506510433111482 -0.15981388237786154 0.058481227644426356 0.010686558372934432 0.058754661721278446 0.011049516718414297 0.025123362009294783 -0.13594635435281818
4900000000.0 0.08363924460476282 -0.16007157771607336 0.058807734785003264 0.008349910747604671 0.059080325053557405 0.008652129109451274 0.02470781888695905 -0.13266491276363535
4901562000.0 0.08206445595219801 -0.15996047961890972 0.0589409028327379 0.005969260030727995 0.059223926301001 0.0062757678340008395 0.022762940489408526 -0.1287865992445429
4903125000.0 0.08024684044777372 -0.15992873486788314 0.05893953341234367 0.003535360524124595 0.05930213567025225 0.0037657361653137145 0.017799569890180583 -0.12607232081210681
4904688000.0 0.0786655384583759 -0.1600545390461154 0.05906762507214394 0.0010712658376010081 0.05936203356230163 0.0012950562470972807 0.011873161321276554 -0.12467542221372843
4906250000.0 0.07689784347722398 -0.1599017200778824 0.058908606693003636 -0.0013222291552808605 0.05928306719445219 -0.0012269523040167314 0.0060565707557229094 -0.12642891404122328
4907812000.0 0.0755554485779261 -0.16006202875839534 0.0587537597039801 -0.0036328735225096115 0.059276254442575775 -0.0035753857382995087 0.0006636535077441766 -0.13059726777676556
4909375000.0 0.07408196820940341 -0.15966616994617291 0.05841181339959676 -0.006047768155646518 0.05905806107509631 -0.005845704127778635 -0.0026064853747444186 -0.13609449718497935
4910938000.0 0.07233953055978673 -0.15954657713278766 0.05812574932774792 -0.008306562183749196 0.05861586993361895 -0.008194624660145738 -0.0029447375038710783 -0.14178374795042972
4912500000.0 0.07076583748622603 -0.15873245900317454 0.0575701803195548 -0.010570272237854804 0.05806566894158307 -0.010549107258641858 -0.0008832504146772062 -0.14786424618030727
4914062000.0 0.06904226589123098 -0.1581901352974859 0.057052500533458436 -0.012856692295157254 0.0574817406875751 -0.012911769884317043 0.003363101164453606 -0.1519371671256394
4915625000.0 0.06719714203689257 -0.15743720548073376 0.0564835976316222 -0.015217437852535603 0.056816097402707 -0.0152765549042345 0.008795159514561448 -0.15291637753511833
4917188000.0 0.06521015907297392 -0.156716991441577 0.055893215068857326 -0.017376438138718652 0.05629655845869939 -0.017547063643869872 0.01429582671892943 -0.15151645237472638
4918750000.0 0.0633504813253176 -0.1560418483337325 0.05534235081781026 -0.01963420768212637 0.05562754773935587 -0.019746762422738692 0.020640131339808722 -0.1482362272119762
4920312000.0 0.061534606177424366 -0.15524532938996666 0.05457519391060854 -0.021740497569916077 0.054831073827233096 -0.02192588946099638 0.024638687365539175 -0.1414875818428784
4921875000.0 0.05961216033666886 -0.1544950013013012 0.053724841195379874 -0.024015774384062452 0.053938610468703935 -0.024072159207155126 0.02701802953296808 -0.13374184413733228
4923438000.0 0.057578538975469266 -0.15363872294545117 0.05289860297189495 -0.02622791752527167 0.05311137671485785 -0.02599453842801928 0.026847034600838825 -0.12486762498525868
4925000000.0 0.05572583280676799 -0.15306572853879025 0.05180625728219715 -0.02828955553643639 0.05209762216780318 -0.028104813180479183 0.022953118308126404 -0.11626317444472963
4926562000.0 0.05417986209966178 -0.15248145435057672 0.05075184661710114 -0.0303238433118514 0.05107701690885336 -0.030047940242416166 0.016188262811260186 -0.11042284583910214
4928125000.0 0.05246186760971013 -0.15123443084453914 0.049379226537101695 -0.03219675801864613 0.04992786634207855 -0.03199571866836281 0.008374786441145267 -0.10540532906741029
4929688000.0 0.050617410347573756 -0.1505086246484821 0.048043875904490246 -0.03396835093062 0.04872217339730209 -0.03393261799224951 0.0017366713473791996 -0.10428362587355239
4931250000.0 0.049072193212605565 -0.14934385101259093 0.04664025718843608 -0.03569059040317171 0.047271014755106436 -0.035758065333719335 -0.005965405524567566 -0.10525078577399
4932812000.0 0.04738968652300628 -0.14801341712266625 0.045108081398731896 -0.03720220052583882 0.04573283876562761 -0.037490705313494015 -0.009146329892672398 -0.10712021527909817
4934375000.0 0.04562748914039378 -0.14681468863818778 0.0435121235439137 -0.03891147171220573 0.043989298466512144 -0.03916353720875649 -0.011389854332105433 -0.10903518494000858
4935938000.0 0.0440754909982173 -0.14573647957891694 0.041815739250225206 -0.040619911118708156 0.04217574274410988 -0.04096516662622982 -0.010262309538049344 -0.11133437721730219
4937500000.0 0.04216037906177404 -0.14458656749106624 0.0402050191826251 -0.04235283936199007 0.0403344559688087 -0.04261372584518581 -0.008772582653090956 -0.11074832960514473
4939062000.0 0.040562312740831594 -0.14347623384590386 0.03852938170986403 -0.04411814475889922 0.03860179124320021 -0.044363330233630656 -0.006784497694956673 -0.10773143986948924
4940625000.0 0.038862312029992775 -0.1420838744249728 0.03681841194110045 -0.04567075078086808 0.03692338997095026 -0.04589202027501926 -0.005716599443439347 -0.10346560161699149
4942188000.0 0.03722873769666356 -0.14103526245488457 0.035041549552844393 -0.047124980485598496 0.035146015151355375 -0.047322537306700094 -0.005722666306480154 -0.09856894515242554
4943750000.0 0.03567508491342702 -0.13991995278896147 0.03311004731968554 -0.04863055493561962 0.0333190068014987 -0.04873339554896645 -0.007340328566589306 -0.09307918957559891
4945312000.0 0.0342237702281867 -0.13877324405321756 0.031161538583862013 -0.04996521944002916 0.031510962928871254 -0.05007913053641679 -0.010814616011064154 -0.08757785869279384
4946875000.0 0.032750746078898545 -0.13757401971183153 0.029080014340905902 -0.051257729779901645 0.029518840887085524 -0.05127507554322452 -0.015080109199345902 -0.0821780544883518
4948438000.0 0.031165318388868386 -0.13644113538151095 0.02710544198421321 -0.05243955921612381 0.02746424910495194 -0.05256711834989667 -0.020881887925371757 -0.07914920873743399
4950000000.0 0.029726257545717446 -0.13494346348486774 0.025096006846186656 -0.05318797890314976 0.02574458959384142 -0.053541684048668374 -0.02803806022546429 -0.07777208414317369
4951562000.0 0.028380033722001444 -0.1339977716955028 0.02294227861080288 -0.05418680479303489 0.023482218035208183 -0.05449282911865927 -0.03406286509739562 -0.07937645083720972
4953125000.0 0.027511803265039315 -0.13317615271769923 0.020895818181594 -0.054994320632298886 0.021239780562364922 -0.05531059773423622 -0.03876891040659544 -0.08191836602462824
4954688000.0 0.0260328986500693 -0.13247912351858462 0.01873704728486566 -0.05583288391852843 0.018913910599658953 -0.05613858924993995 -0.040709971861103283 -0.08562957100881721
4956250000.0 0.025402029903611078 -0.13164835127207927 0.01662816110673123 -0.05646897980653685 0.016554985383415013 -0.056949484707031164 -0.04123312406670593 -0.08964662377624352
4957812000.0 0.024560899800188163 -0.13081537054703404 0.014329392218079181 -0.05699836435342835 0.014303481920642706 -0.0576205204137375 -0.039278035249357295 -0.09371273758219559
4959375000.0 0.024052746076557177 -0.12994534580305128 0.011973703732566303 -0.05762437019239595 0.011993960206909987 -0.05818741949200987 -0.03665011457535916 -0.09598117607010037
4960938000.0 0.02347169117720429 -0.1291097997052243 0.009447596677219155 -0.058160472181592475 0.009699586134745423 -0.05871743029474996 -0.03283122580407526 -0.09734583584858408
4962500000.0 0.023023896046858037 -0.12828067376816882 0.007047307723074026 -0.058684293754223 0.007273904993142951 -0.05898515337214772 -0.027964126297151736 -0.09685030697071816
4964062000.0 0.02267300623603173 -0.1273944569917596 0.004670988812919013 -0.05901643881040424 0.004745848600534882 -0.059307665706948016 -0.02365448853419605 -0.09513237625725456
4965625000.0 0.022268937937135323 -0.12668558388250944 0.0022053682572542427 -0.05922146220027649 0.0023332545025969635 -0.05948228491668838 -0.02023919307131266 -0.09259993818099248
4967188000.0 0.022087266876665602 -0.12566859486471554 -0.0001989532116016943 -0.05932920308698247 -0.0002831677406882445 -0.0597377083894222 -0.017299629613270775 -0.08985742418801539
4968750000.0 0.02203861628192023 -0.12476001240719627 -0.0027161727536819933 -0.059288382062698285 -0.0028441343551204507 -0.05976579434435041 -0.01581905800748568 -0.08636693725126378
4970312000.0 0.021880468344808474 -0.12382878578865841 -0.00520609266665956 -0.05921311897234546 -0.005229081843644283 -0.05974451512693106 -0.014843278919396574 -0.08457184103333076
4971875000.0 0.021740817898046216 -0.1229144138870016 -0.007799628787645773 -0.05895722214422493 -0.007747952159984996 -0.05964240486899581 -0.013736770728774324 -0.08316466912817273
4973438000.0 0.021666831349552405 -0.12216418900623698 -0.010274361405760114 -0.05873706476711791 -0.010213964737249297 -0.05932493083675611 -0.012259319039617512 -0.08298583063610161
4975000000.0 0.021465009732551825 -0.12143923553680103 -0.012779778603934875 -0.05834312441831578 -0.01256586865986425 -0.05882006500046273 -0.009925417314724775 -0.08137544889842992
4976562000.0 0.02136847008746631 -0.12079397443942332 -0.015234003280353802 -0.05788128379084225 -0.015139921710854614 -0.05826330479667047 -0.007989661633007381 -0.08062070074537515
4978125000.0 0.021439210506155774 -0.12040620869380901 -0.0176043691349125 -0.05716594826052209 -0.01759117978195875 -0.05751849134668983 -0.0048242962188541245 -0.07941697626302484
4979688000.0 0.02123578716890307 -0.11998774600073804 -0.0200307100133123 -0.05645245044019839 -0.020156554876749423 -0.056654557832358614 -0.0019099269280109538 -0.07935359435938491
4981250000.0 0.021522865443353065 -0.11972624978966304 -0.0224348221922226 -0.05546745840150944 -0.022547187005115953 -0.05589989902061285 0.003262879633585987 -0.0799574835903143
4982812000.0 0.021344990554611892 -0.11970626397857678 -0.0248911891594389 -0.05462174192014623 -0.024938180254114047 -0.055056503733620046 0.0085114993411122 -0.07726549017202732
4984375000.0 0.02181890426013639 -0.1191984440734065 -0.02734346009299619 -0.05354306770011409 -0.02721564634008751 -0.05410931624403391 0.015536330617025175 -0.0748417440332002
4985938000.0 0.021942789206857306 -0.11929322844515788 -0.02975208651592032 -0.05260994835153471 -0.029615529619142843 -0.05309042740678089 0.020620184957203903 -0.06969831358243579
4987500000.0 0.02245117348276208 -0.11949553286448579 -0.03211833610297569 -0.05140300922872297 -0.032042426341716446 -0.05196626212337555 0.026457071128246766 -0.06259644767912312
4989062000.0 0.023039901945773343 -0.11949829985302766 -0.0343647618102474 -0.050233275400731865 -0.03426270798846827 -0.05056175752885364 0.029395702371458103 -0.055128110726114635
4990625000.0 0.023558716100512193 -0.11944809096166162 -0.03656370785397847 -0.04875134406207179 -0.0366023721927429 -0.04921385479655593 0.030234846101775414 -0.047924178277884213
4992188000.0 0.024137188092549795 -0.11949808875039333 -0.03875984038829541 -0.04718936826152808 -0.03900128195612883 -0.04766395243185294 0.029336268797752342 -0.041217047369091965
4993750000.0 0.02460225316996314 -0.1197437244974713 -0.04076885343135097 -0.04551603011111884 -0.04123613540100298 -0.04607755143531625 0.02827409125762066 -0.034510627171643035
4995312000.0 0.025170022949373285 -0.11957778545004585 -0.04274364074021857 -0.04398800664565067 -0.04330541196704949 -0.04444168774661092 0.025423596445648053 -0.028405407507295338
4996875000.0 0.02495648001599488 -0.11904291045867997 -0.0446262923866202 -0.04230873286466244 -0.04499411921351255 -0.04272823469197612 0.02352896056660215 -0.02239670843061555
4998438000.0 0.026124530422808823 -0.11949401421765865 -0.04641440079495697 -0.04065587888286515 -0.046655665963533155 -0.04099713463059633 0.017482265595520873 -0.018039826481147547
5000000000.0 0.02642118773827287 -0.11924060287878563 -0.047833849009146494 -0.03884639156896354 -0.04799019454730076 -0.03909420798269761 0.010221554889306619 -0.017500658953136506
5001562000.0 0.026119473943897527 -0.11914234702773112 -0.049333539711458645 -0.036823266416875125 -0.04921399964212984 -0.03703518677052975 0.00267015895560861 -0.017333929159235564
5003125000.0 0.02682598200362794 -0.11863714364577432 -0.05065011105999136 -0.03475106496599566 -0.05064157272623899 -0.03494379807448792 -0.0030292787913320505 -0.021067766502748626
5004688000.0 0.026414620959503254 -0.11921901418376381 -0.05208444827555208 -0.032518736232963134 -0.05205004425020768 -0.03275743066026231 -0.005590317511751504 -0.026337365950605363
5006250000.0 0.02647317609719454 -0.11808746420321806 -0.053183750456342875 -0.030189577508641152 -0.05341728065148825 -0.030583537269402893 -0.006020707006848773 -0.031073296695587553
5007812000.0 0.025988786636963957 -0.11782624617967724 -0.0543433087634909 -0.02777830634515268 -0.05465193393782341 -0.028423970629105816 -0.00749346367462814 -0.034018128896925334
5009375000.0 0.02581623384281631 -0.11779875490505225 -0.0552601248552531 -0.025410287836608817 -0.055668781153874934 -0.026071314038617347 -0.004762241473507537 -0.03807412824084833
5010938000.0 0.025885076092123448 -0.11801665225424933 -0.056146342666166485 -0.02289336250784278 -0.05664865055391065 -0.02358489149843439 -0.004274717678591505 -0.03955725160599407
5012500000.0 0.02479566702468189 -0.11740638698421887 -0.05684207459388878 -0.020526338171337373 -0.05749931163101256 -0.020915755077472908 -0.004933202662939786 -0.03845712352881608
5014062000.0 0.024530150649724844 -0.11756290253556081 -0.05754684645430408 -0.018081913536662532 -0.05802130033906693 -0.018352173168309453 -0.006473292257941893 -0.041115011658339945
5015625000.0 0.023762522414722643 -0.11827033479871933 -0.05828648873996289 -0.015607070553580085 -0.05879850415612239 -0.015639792445865913 -0.006588989790329308 -0.040076992347746004
5017188000.0 0.023139884382619963 -0.11781970917194366 -0.0589098026643381 -0.013089528456315554 -0.05930296889379756 -0.01308762250181148 -0.009592125903247897 -0.04103898837345146
5018750000.0 0.022411270744742792 -0.1174925375621002 -0.059379889529834334 -0.010752016443444682 -0.059782254423869814 -0.010751319683514613 -0.011614647503848136 -0.04284313133058933
5020312000.0 0.02243381243846862 -0.11767625588794917 -0.059761571383787855 -0.00842254765239872 -0.06011997090847708 -0.008379863923620699 -0.01562272944340553 -0.04491623394834096
5021875000.0 0.022430331731568155 -0.11756534081284302 -0.059960062749641656 -0.005979759920202831 -0.06024125677706097 -0.006036692021299868 -0.020938940494013437 -0.048560019568484006
5023438000.0 0.022002866702649056 -0.11758815978697178 -0.05994773167022525 -0.0034891108695222204 -0.06021980591917453 -0.0037707418415081012 -0.023655010508986798 -0.05499496236161951
5025000000.0 0.021414197714882868 -0.11709905053584957 -0.05983168685219076 -0.0009918466656430678 -0.060078941720596836 -0.0012777702589864127 -0.02623139714049925 -0.06343699122643542
5026562000.0 0.021037906044306536 -0.11685559718143702 -0.05962881238819136 0.0014992782166094083 -0.05992369773860914 0.0011249132766113993 -0.025225989724152447 -0.07307541814986532
5028125000.0 0.020666314488249266 -0.11651999694828007 -0.05925187593121263 0.00387063191308609 -0.059609155642967836 0.003684633054953172 -0.021706895498539925 -0.08118977928057901
5029688000.0 0.02003336326982266 -0.11605615433482298 -0.05874198593499061 0.00616917853024275 -0.05924481509696823 0.006115574446424523 -0.01580280728202439 -0.08864573232085106
5031250000.0 0.019722201297763833 -0.11553894717758091 -0.05805929471550957 0.00854733244220704 -0.0587520625095091 0.008502462138817455 -0.007724170665825046 -0.09316657307800726
5032812000.0 0.01905372192481164 -0.11526744046087417 -0.057288904387906445 0.010808269871308004 -0.058009064338196976 0.010967028262291624 -1.0109625804576141e-05 -0.09509832925351595
5034375000.0 0.01839995097402518 -0.11422189928850725 -0.05657300763536297 0.013247828458208395 -0.05728884002291281 0.013334036601143053 0.007057956285771035 -0.09443862898662886
5035938000.0 0.01767421848033607 -0.11362988817247327 -0.05587479696292062 0.01568431253829311 -0.056525575497126265 0.015755045059527583 0.014565741218899067 -0.09258646223990817
5037500000.0 0.016694710432063987 -0.11314034217338163 -0.05514047500237805 0.018013149500564363 -0.055706653869972894 0.01803539069795912 0.01925455965381161 -0.08766082886987171
5039062000.0 0.016093671335233255 -0.1127647892996829 -0.054396746310398064 0.020149532533159122 -0.05481250939750962 0.020303490101919664 0.02257859776284553 -0.08213623772754342
5040625000.0 0.015088223901764694 -0.11218645333627986 -0.05357679784850931 0.022182379944901756 -0.05392729865147318 0.02239646612379722 0.02243836028218571 -0.07675508466496263
5042188000.0 0.014319256621967534 -0.11160323474673735 -0.052659677811768967 0.02422079644975419 -0.05288475103008003 0.024542924077129494 0.021050566302205885 -0.07159336267862756
5043750000.0 0.013118353014573092 -0.11123374535070252 -0.051670305347039154 0.026202991202922413 -0.05184754466767262 0.02657294822462832 0.017280174935084706 -0.06929010370156348
5045312000.0 0.012336517958785034 -0.11037206401132535 -0.05048507303221232 0.0282222498959409 -0.05078803958752297 0.028491760578080866 0.014750630018539752 -0.06777441533675488
5046875000.0 0.011249107803877896 -0.11047254265353079 -0.04920458033583524 0.030142299642459066 -0.04948519156017478 0.030370849452270858 0.013622164076180986 -0.0682042533322051
5048438000.0 0.010330688175056016 -0.11015132394003407 -0.0480273898223941 0.0322336614164654 -0.04830519466726003 0.032099241679272805 0.012839764734310937 -0.06876812777392353
5050000000.0 0.009715525598999502 -0.10978083099547235 -0.046578580916292786 0.034073414910414906 -0.046988224961182566 0.033881224273192914 0.013256850392753679 -0.06917202276347671
5051562000.0 0.008810438910843649 -0.10952832254879541 -0.04517499091891096 0.03592617918078061 -0.04560794206027879 0.03564593735275612 0.014250278313794166 -0.06809187947976028
5053125000.0 0.007975515451080446 -0.10935328830174526 -0.04356828494802247 0.03752721534160481 -0.043974550799615986 0.03738522098003544 0.015665471495556537 -0.0661280291790145
5054688000.0 0.007356543137968074 -0.10907756718846451 -0.04192618380144312 0.03927426671288716 -0.04241801775101486 0.039300722891890794 0.01758278133076283 -0.06367142692451683
5056250000.0 0.006696090227077901 -0.10884911104620978 -0.04024720017600557 0.04088191532945634 -0.04083842335827583 0.04118728120711993 0.019712545185840362 -0.05840800277257284
5057812000.0 0.006171076732156768 -0.10849164498280388 -0.03849151615655526 0.0425036969693308 -0.03924426275927545 0.04291666958523169 0.01981301875460951 -0.05191595855017651
5059375000.0 0.005491814540522813 -0.10814355085497228 -0.03690532992233971 0.044027796097932864 -0.03760916117064136 0.04460925436077885 0.018178952227631866 -0.04313385199129035
5060938000.0 0.005147474094621075 -0.10787157069283924 -0.03540986253959526 0.04556945166400921 -0.036155266082589274 0.04600971058111179 0.012222756578982185 -0.034244116067693994
5062500000.0 0.004504901028479759 -0.10765180809280878 -0.03401881375065812 0.04690038745547433 -0.03440462543317646 0.047207705308045814 0.003213834892016468 -0.026636927494043852
5064062000.0 0.003917588054938051 -0.10744446441935468 -0.032513422437134384 0.04831078136500597 -0.03261946101511222 0.04844911352801529 -0.007377823639551392 -0.024195792147586312
5065625000.0 0.003511598259191733 -0.10708128413240252 -0.03095731356349823 0.0495368820817611 -0.030897467140263472 0.04967990510154686 -0.01762195193563508 -0.02408002052546161
5067188000.0 0.0030416807067316725 -0.10667136177768897 -0.02930530133519723 0.0508014559272887 -0.02919064406473997 0.05074308204169512 -0.026252366247319053 -0.027398802091378086
5068750000.0 0.002717481727900326 -0.1063302407020807 -0.027451286539675053 0.051874694068451986 -0.027652692387005514 0.05196783144825708 -0.03432317472938046 -0.03273118719713776
5070312000.0 0.0023247398662632223 -0.10595335050152672 -0.025623026031438276 0.05266749084655393 -0.025916421987441558 0.052894911461808886 -0.039052743503598185 -0.03712778589734181
5071875000.0 0.0019285359329965983 -0.1058217708935532 -0.023515713381949636 0.05365171514437131 -0.024056145125944756 0.053833730854889704 -0.04154588102294992 -0.04413346324623279
5073438000.0 0.0015183691928562222 -0.10540340677353541 -0.021605688495597693 0.054443509511148555 -0.02210805238891866 0.05465175439314877 -0.04294411901769021 -0.049864573521703655
5075000000.0 0.0012832293536493443 -0.1051815489700766 -0.019307645548046967 0.05511893516157177 -0.02004089227083722 0.055376388252682165 -0.043360570687346875 -0.0541161244952601
5076562000.0 0.0009972867214714215 -0.10491625077343444 -0.017185815486696416 0.055729373676841394 -0.017722683673539092 0.056120010451181465 -0.03953452765976173 -0.0592419253023419
5078125000.0 0.0006975243437584074 -0.10467832539164645 -0.015066953766220494 0.05627808820012713 -0.01535582513878761 0.05669766724598212 -0.03592639446143319 -0.06119454781534283
5079688000.0 0.0005721556544958208 -0.10410926947150519 -0.012951990166885384 0.0567944011133724 -0.01294998268918191 0.05723101068839939 -0.03218082026156578 -0.06138251920658027
5081250000.0 0.00045040608330859856 -0.10389826078249408 -0.01077825891349325 0.05720625473349786 -0.01075688310855443 0.057768517504064656 -0.02951407174964169 -0.060794657449460915
5082812000.0 0.00033188992332391654 -0.10351767525119723 -0.008562749019535444 0.05774296218431413 -0.00860710946994266 0.05819630693497588 -0.02772356964138479 -0.05763064522496094
5084375000.0 0.00037038681289716977 -0.10301178242043815 -0.006369206409727888 0.05815677186939967 -0.006568353273420005 0.05852384961666594 -0.028167818197306876 -0.056237766418359716
5085938000.0 0.0002563436906914344 -0.10263882920020083 -0.004123019082579318 0.058552164026058014 -0.004353136451607534 0.05898054647070922 -0.030615543772824442 -0.055433164264990314
5087500000.0 0.00045422400193704013 -0.10226884837369805 -0.0018383152521104925 0.058913407402044725 -0.002113878395665562 0.05924497414439355 -0.032386675444639176 -0.057097948289299774
5089062000.0 0.0005829898864759224 -0.10190882156274654 0.0003947333020480826 0.059311038500779865 9.291532871116463e-05 0.059436929457288755 -0.032380583948006185 -0.05972682794432169
5090625000.0 0.0008528366741188825 -0.10143030933739929 0.002694275575353793 0.059356316172395535 0.002522157011869813 0.05962356182520363 -0.030669623454869652 -0.06177899214633448
5092188000.0 0.001018046572313164 -0.10118438140808804 0.0050893664208712455 0.059379942004529195 0.005001453540351645 0.05979979280836093 -0.028183165397491054 -0.06359901743731003
5093750000.0 0.0011274548262111242 -0.10059277408355029 0.0073897139401249475 0.059165580704797806 0.007482075334409816 0.0596948681055881 -0.02325332319141399 -0.0645487775289219
5095312000.0 0.0017520535019262713 -0.10040349659344501 0.009803271654670155 0.05882497352991017 0.009854811826991897 0.05960781075858271 -0.0196742939732276 -0.06564734915453833
5096875000.0 0.002226338638069079 -0.09997425335876664 0.012291963218889517 0.05863829009323489 0.012206419624330668 0.05930956251060761 -0.014951829682169961 -0.06514486476341162
5098438000.0 0.0026203507125262186 -0.09955177841473666 0.014724859688496865 0.058227390780523934 0.01467301060818791 0.058931299672985535 -0.009737304438398344 -0.06351053013349742
5100000000.0 0.003156945908484557 -0.09921220007726055 0.01722101102964097 0.05776797444948486 0.017106843503831775 0.05830036315424305 -0.003738610499376319 -0.06078742860665303
5101562000.0 0.0038933098561452105 -0.0987549915702617 0.019615026858711353 0.05744410238378045 0.019598848676244993 0.05770812746081001 0.0020392561027999705 -0.056094470438023444
5103125000.0 0.004751128276660018 -0.09846294611864963 0.022024727547256064 0.05675022010042699 0.022097897655664712 0.05705158118838576 0.005969028933293693 -0.04988668962448719
5104688000.0 0.005421368522664853 -0.09813060265649975 0.024439415671260484 0.055917831412232596 0.02459301125640057 0.05627888232711656 0.008539677155115388 -0.04296452330888768
5106250000.0 0.006487802661263612 -0.0979020854539589 0.026907110363941583 0.05504180668263301 0.02716395899262098 0.05556929821319957 0.0091613876667256 -0.03622379624046366
5107812000.0 0.0074176658049074275 -0.09746873985751413 0.02943864479756612 0.05413015236582342 0.029498975238476607 0.054611991500693846 0.008717601494630583 -0.03010992378961673
5109375000.0 0.008228077375786806 -0.09704982365620692 0.03195150332067749 0.05309677259922509 0.0321079764689239 0.05365669354549421 0.007412544030770689 -0.02429286839488344
5110938000.0 0.009510203323360014 -0.096782747909429 0.03438943446777838 0.05218694835674188 0.03427985777010495 0.05269763337731755 0.005264203200755016 -0.018764927502303446
5112500000.0 0.010271537128928419 -0.09596109987642741 0.03676506022927864 0.05095397519661168 0.03669379257711628 0.051334128004198246 0.0020515775010572787 -0.014035466912385473
5114062000.0 0.01110076086476083 -0.09585310451737976 0.03895116809509666 0.04963857635184656 0.038887599115184024 0.050137311382099314 -0.002322820716452237 -0.011141507634427292
5115625000.0 0.01187469976238866 -0.09568290330954982 0.04109788580003411 0.04822505176356593 0.04133580522837465 0.0486057051093061 -0.007082308013152713 -0.009804623480801515
5117188000.0 0.012878725483533438 -0.09549098011501164 0.04327575534333747 0.046652176026325806 0.04369132679975259 0.04712682035527752 -0.011576431445155858 -0.010100209728535493
5118750000.0 0.01389041717137875 -0.09538849113030953 0.04549735407864269 0.04488192159161148 0.045952005716135114 0.04552964972588803 -0.013769584822116161 -0.011231352678227915
5120312000.0 0.0144083949066423 -0.09525975039866195 0.04756410687142667 0.043319061316420986 0.04803128116080133 0.04382575867141633 -0.015550108532491266 -0.012150806619435382
5121875000.0 0.015548822604269019 -0.09532624233442992 0.0495906065063159 0.04139057931882214 0.0498837181224489 0.04184374055647415 -0.017618755893743305 -0.013244031819421586
5123438000.0 0.015251940133170385 -0.09502351571175215 0.05148104628123626 0.039523237437849454 0.051776897192657906 0.03984567046636641 -0.01797613822872958 -0.014707400649464387
5125000000.0 0.01634316907217774 -0.09579004764565563 0.0532546721057883 0.037475209228827834 0.05339951007333867 0.037645559862199064 -0.019593405467492116 -0.015746073266195693
5126562000.0 0.016559342306408063 -0.09587122025805536 0.055154517301535706 0.03518327332299063 0.05523029036045156 0.03529363193256652 -0.02112902566259047 -0.017355373874843788
5128125000.0 0.016980685680093702 -0.09651060614720447 0.05690151733306509 0.032904098724058604 0.05695419708965692 0.03307896709607951 -0.021266603705033933 -0.017689234302862247
5129688000.0 0.017683061930918263 -0.09785599619945222 0.05867826079650667 0.030381603424355665 0.05871505984131573 0.030704633367776176 -0.024805060150282252 -0.020765887676648193
5131250000.0 0.01786137515912646 -0.0979862250419483 0.06031839264804793 0.02785069326882262 0.0603094403330975 0.028303805211760465 -0.026237219622631636 -0.021645698127356013
5132812000.0 0.018562382842269038 -0.09866097865348888 0.061767893122273286 0.025262859691859815 0.06213352439783599 0.02591715607337729 -0.027931682287784854 -0.021892544274440474
5134375000.0 0.0190018366693119 -0.09992327315455782 0.06308109108726194 0.022614723201123677 0.06342900118053373 0.023362736131289516 -0.03218264066618983 -0.023179011765830395
5135938000.0 0.01834323622417338 -0.10060740887753189 0.06420426393055145 0.019881411118965162 0.06478938676308006 0.020647426818366735 -0.03600695301328326 -0.026607687947942372
5137500000.0 0.01851415630278874 -0.1021383637162786 0.06536595881774222 0.01705953027848052 0.06593753449857298 0.017567625467074816 -0.04131276383518683 -0.030815579580680617
5139062000.0 0.01934184693210804 -0.1027841877675303 0.0661440878712477 0.014256580847951906 0.06687909208521144 0.01446155577227608 -0.04459475197537188 -0.03889707750207292
5140625000.0 0.018933427346631313 -0.10399642648765905 0.06687373591604534 0.01145800842863542 0.06760278307236285 0.011444393565614858 -0.04640852042065621 -0.047689066397509014
5142188000.0 0.019416651442309144 -0.10514314684825303 0.06737011569274882 0.008726150064439879 0.06808222659445058 0.0085839743135734 -0.04543535607002405 -0.05631875294919311
5143750000.0 0.019018691449278115 -0.1058678083473332 0.06763258982777216 0.005884004150235974 0.06825244441781327 0.0057542825020396515 -0.04119804775351984 -0.06424136187397553
5145312000.0 0.01860483113791609 -0.10704814355589737 0.06785166547520098 0.003093391077396682 0.06823330830568392 0.0029604209951760324 -0.0357771262561103 -0.07138923728736006
5146875000.0 0.0185063616230506 -0.10836576469540135 0.06789212326119244 9.366293599950696e-05 0.06811221533634373 0.00020947230926789438 -0.029140140248746813 -0.07596737314631972
5148438000.0 0.017896427479453844 -0.1093775455919251 0.06770077446814139 -0.003107908982324844 0.0678162283401342 -0.002735118161625625 -0.023506896011547325 -0.07909608597583456
5150000000.0 0.0172706231880132 -0.11055026949962396 0.06741919672084969 -0.006358837594329714 0.06753090134530647 -0.005910284209136968 -0.017120225346163906 -0.08330239666658533
5151562000.0 0.016409768542103947 -0.11190489948247526 0.06688759482843268 -0.00942975594413138 0.0671906165797103 -0.008998188736895004 -0.01156643543266825 -0.08337709726268226
5153125000.0 0.015523723375798415 -0.11319139976308384 0.06638230806062562 -0.012576105132385754 0.06688362030961403 -0.012249188395991104 -0.007056691390354563 -0.08411674962442094
5154688000.0 0.014721034001795887 -0.11437589283011558 0.06558617198644945 -0.015661531426728555 0.06625681420802279 -0.015414885195141444 -4.829772798328389e-05 -0.07910169878560014
5156250000.0 0.013469913822381458 -0.11577397674805454 0.06469536742540258 -0.018714353897597152 0.0655692568770771 -0.018782274451139204 0.0012087955209211716 -0.07618070244015007
5157812000.0 0.012193063350721024 -0.11678591723454262 0.06356249903614314 -0.02170759104801226 0.06447819712364318 -0.021940506870290966 0.0003492650485392555 -0.07245895228123433
5159375000.0 0.010822771741211856 -0.11810465906001738 0.062354387456056024 -0.024689388254790275 0.06322896884901916 -0.02501966598703424 -0.003213252923155319 -0.07042014613272804
5160938000.0 0.009638630790113272 -0.11972972494221071 0.06104515300979441 -0.02771556242826833 0.06181553628647749 -0.027899362471832303 -0.006922879339606052 -0.07100385613195763
5162500000.0 0.008593857647609733 -0.12077933630448276 0.05975791890031835 -0.030425134892268915 0.06035628540591795 -0.030679704954559888 -0.008925798501999713 -0.07266684915010489
5164062000.0 0.007158238558011289 -0.1222309534009232 0.05846206378375745 -0.033155574301416246 0.058748398428257194 -0.03331275437641936 -0.009832997266587627 -0.07594479466632896
5165625000.0 0.006210997966705829 -0.12299506875174615 0.056864828135645376 -0.03552274157846638 0.05721876697930727 -0.035828883284415684 -0.009769283632966861 -0.07840382215453282
5167188000.0 0.003977846127636051 -0.12471563450914899 0.05506501678808234 -0.037841641353841604 0.055400260741484825 -0.0381862135897751 -0.008038353098937771 -0.08013856025968649
5168750000.0 0.003282184843334765 -0.12581719611006043 0.05316436161194346 -0.04023829408886284 0.053629885643804526 -0.040498194358543245 -0.0065389225207669105 -0.08107897040269302
5170312000.0 0.0019393915140273042 -0.12738072508464243 0.050891124912645004 -0.042472411244171705 0.05176536965126311 -0.04279119819159672 -0.003855704728716814 -0.08003521036782922
5171875000.0 0.0008711965806340087 -0.1283380838374898 0.04890999083842552 -0.04463566956640731 0.04955692512893257 -0.04504410939678586 -0.0012703398026750882 -0.07721846792222067
5173438000.0 -0.000343938829116611 -0.1293836110854258 0.04676668865423149 -0.04678500355952068 0.04738319309022593 -0.04703887352102086 -0.0005410016556170849 -0.07277213947361375
5175000000.0 -0.0017338544116326958 -0.13048206901711468 0.04455591738964715 -0.0489507642502332 0.045036374305921806 -0.04908281563387899 -0.001306359143637841 -0.06751772430823913
5176562000.0 -0.0029934827101610745 -0.13129763736495545 0.04226032468717008 -0.0508185342967589 0.0426211727808541 -0.05089508231156419 -0.004186778391886839 -0.06160166935628516
5178125000.0 -0.004089972704817747 -0.132189059564494 0.03994216834212483 -0.05235481381724499 0.040121853141031866 -0.0527023954166714 -0.009475154519047135 -0.056526339163681834
5179688000.0 -0.0053634021043418795 -0.13302082734641785 0.037377023623405226 -0.053988126579806756 0.037712584799818524 -0.054275498305425586 -0.017272728013683247 -0.053436849794416326
5181250000.0 -0.006451329051582389 -0.13364688617730852 0.03475440524434299 -0.05537805939174284 0.035374112253459 -0.05584326921263692 -0.026026246340039975 -0.052180088499616466
5182812000.0 -0.0075363915693437925 -0.1343514552508143 0.03227473439595843 -0.05671416366203093 0.03307449018940663 -0.0572706017369328 -0.033662138958826616 -0.05286184240382832
5184375000.0 -0.00854347552371729 -0.13490188263265693 0.029791895735522843 -0.05785169519228001 0.030585453227474493 -0.05849172560498657 -0.04206475111848898 -0.05626090534603413
5185938000.0 -0.009507234271151648 -0.13560635933142007 0.027305319113726818 -0.058824344744386275 0.028015333768306425 -0.05946553014537597 -0.04713341142756464 -0.061251288793626096
5187500000.0 -0.010722556289917922 -0.13601794611052273 0.024912833725181494 -0.05972693640485136 0.025273619274995992 -0.06028857153589288 -0.05138496075131424 -0.06662438537966335
5189062000.0 -0.011659923667694612 -0.13619342584270885 0.022451490066620422 -0.0604226820508444 0.022454456829167017 -0.06091309055577395 -0.052730016458202356 -0.07231303591383804
5190625000.0 -0.012737697115186415 -0.13683083955489517 0.020000048184540254 -0.06122515627870329 0.019818136065476652 -0.06157503111506819 -0.05271922733206598 -0.07611575882160736
5192188000.0 -0.013996594679275437 -0.13714478008985712 0.017356858931238745 -0.06181078070697457 0.01715735304637725 -0.06215057072964693 -0.05190439612579863 -0.08085581730636832
5193750000.0 -0.014814589118586892 -0.13754260276590138 0.014665859829570426 -0.062279642524383325 0.014683609278088644 -0.06262251082043852 -0.04921238368277554 -0.08186267665456684
5195312000.0 -0.01580537144125377 -0.1377030069222572 0.011955223491377705 -0.0627344690938905 0.012296991666154328 -0.06304596152718132 -0.04777922212612344 -0.08219743715340967
5196875000.0 -0.01673403316791705 -0.13794390232672193 0.009152584076734208 -0.06305068179966437 0.009673076942010413 -0.06337756762723573 -0.048243127029135434 -0.07871752887528319
5198438000.0 -0.01753447147923965 -0.138211099712953 0.006399555936539013 -0.06330634547606367 0.007045765715030913 -0.0636067909499492 -0.04979187407786861 -0.07733657792591148
5200000000.0 -0.01825571688525895 -0.13840521910749234 0.0037503541601355103 -0.0634283231404598 0.00429647469363532 -0.06378818553743514 -0.053081849798622426 -0.0758918747842009
5201562000.0 -0.01877848270535903 -0.13850804443722878 0.0011733942143633605 -0.063420147187516 0.0014365751040710157 -0.06389102725522415 -0.05774971721477665 -0.07785458316153106
5203125000.0 -0.020160877899513395 -0.13867696921855535 -0.0013358556054113464 -0.06315368407414611 -0.0014098560703343147 -0.06394187375918918 -0.06040098363453164 -0.0782722890078726
5204688000.0 -0.02084479866219344 -0.13890317059534146 -0.0038816637616201455 -0.06286690499335984 -0.004038131994554873 -0.06379015565609747 -0.06320048912410357 -0.08117575088635515
5206250000.0 -0.02164188102421357 -0.13874134972249885 -0.006332469640010884 -0.06249054412486522 -0.0065923952957853815 -0.06338946060546528 -0.06409662354189886 -0.08429741090683364
5207812000.0 -0.022475590190984523 -0.13884040157013847 -0.008850251670895305 -0.06202289346092553 -0.008999441328098542 -0.0628502444325972 -0.06453665593039146 -0.08752712522830146
5209375000.0 -0.023344140727899965 -0.1388136508702701 -0.011333523153243609 -0.06156267481051369 -0.011245798414137132 -0.062136779758238905 -0.06405705490008778 -0.09118599684256531
5210938000.0 -0.02400366521519168 -0.13875508605953354 -0.013705199182947832 -0.06096085209818203 -0.013651233743905923 -0.06134101230335501 -0.06210761354363364 -0.09421903200721898
5212500000.0 -0.024776878710927555 -0.1387415549274807 -0.016150445596580715 -0.06038533290434298 -0.016106472472883236 -0.06052942504444965 -0.05748148813568037 -0.09602610511356754
5214062000.0 -0.02559573484966404 -0.1386199653829948 -0.018529558771125054 -0.05954955813845015 -0.018559160183342045 -0.05964283509678263 -0.0538115001553206 -0.09645238836982717
5215625000.0 -0.026254036238348183 -0.1385170022032604 -0.020875911541126155 -0.058557790688462265 -0.020873004286994012 -0.05882378471926075 -0.04859288269432035 -0.0955600184272213
5217188000.0 -0.027084293816994676 -0.13833351822552728 -0.023135800028025698 -0.057325881760432934 -0.02323807542714795 -0.05798163311437061 -0.04325748003948508 -0.0914373673556117
5218750000.0 -0.027792593043624227 -0.13816267805406046 -0.025576638427261777 -0.05613452847831239 -0.025674260092072014 -0.056785710907896164 -0.03970045144319091 -0.08648284027527016
5220312000.0 -0.028630639092282875 -0.1382279615778971 -0.027960701319689987 -0.05478252621791969 -0.02799686390211833 -0.05556650718101193 -0.03919655225397909 -0.08098913869451373
5221875000.0 -0.029306866128226475 -0.1378414303658328 -0.03016726963943759 -0.053288636227777686 -0.03012297822768953 -0.05406062893731543 -0.038710097868201024 -0.07634657618444927
5223438000.0 -0.030153891328021147 -0.13743125225442035 -0.032299785385852625 -0.05197588561371215 -0.032311280148713206 -0.05253265654562702 -0.03877949162844789 -0.07230816467275047
5225000000.0 -0.03130308228023422 -0.13724046158855643 -0.03432572284828223 -0.05062237188770718 -0.034343896961473074 -0.05098446110907647 -0.03891860510078853 -0.06892171770019205
5226562000.0 -0.03224823396978554 -0.13707204370344092 -0.03612304880446885 -0.04914167747694388 -0.03639090344801434 -0.04938068615099802 -0.03943908590899325 -0.06507379959136111
5228125000.0 -0.03308602595515374 -0.13645915126856845 -0.03799382414944805 -0.04743123333543149 -0.038280915067348355 -0.0478130613232876 -0.040533278744137105 -0.06270146711253007
5229688000.0 -0.03392011707455961 -0.1363526428669318 -0.03979685865902368 -0.04572967407811113 -0.04024883079841519 -0.04611129517745311 -0.041128416042216225 -0.05941534604413818
5231250000.0 -0.03474441308118591 -0.13620950818974148 -0.04163299991397918 -0.04395513385617056 -0.04203577063796366 -0.0445141694245892 -0.04192032864290742 -0.056899046402699945
5232812000.0 -0.036162103265219285 -0.13602819112465875 -0.0434149398415097 -0.042151354731235734 -0.04376252514582542 -0.04276598463844213 -0.043344669143135284 -0.05464149858064056
5234375000.0 -0.036924432073809806 -0.13570601502472504 -0.04509218528552663 -0.04038429914745843 -0.045332256529710464 -0.04088432082731835 -0.04350095417885718 -0.05299756073421917
5235938000.0 -0.03846083990363368 -0.1346444843798476 -0.04683489097870407 -0.03853784950030138 -0.04688300253009322 -0.0389599319941811 -0.04484052427723904 -0.05071779323677591
5237500000.0 -0.038976388665593185 -0.13385325052028113 -0.048299592814213366 -0.03664304150842829 -0.04845067428562932 -0.03689687324587443 -0.046176160001736605 -0.04805214428941594
5239062000.0 -0.040561825836485974 -0.13377648654293817 -0.049642465464706645 -0.034607228841131245 -0.04998992516451596 -0.034881573827202556 -0.04743547650401795 -0.04553282993620285
5240625000.0 -0.04201076642374683 -0.13339280245603985 -0.0509717067107927 -0.03243404935862835 -0.051282914073384735 -0.032798374970476205 -0.05011356402441843 -0.043617226048764966
5242188000.0 -0.04368223178294771 -0.13376913556567502 -0.05231724890434729 -0.03025573611981196 -0.05274495385147897 -0.030731870686666284 -0.05195435341552703 -0.041962070738961604
5243750000.0 -0.044680896479462724 -0.1333778310513321 -0.053368499847451865 -0.028053348041322784 -0.053992422330951 -0.028639313283271947 -0.05422570011212742 -0.04100815633022894
5245312000.0 -0.04671817841368996 -0.13278849874333987 -0.05463532844768686 -0.025919175539569617 -0.055029328349017685 -0.026438292266645635 -0.056580811305566865 -0.03922391939446763
5246875000.0 -0.047629277479906036 -0.13292455131292405 -0.05554964739117046 -0.023785306082072626 -0.056032498166006736 -0.024245487811659822 -0.05903270708870001 -0.037998207452368225
5248438000.0 -0.04936531115410824 -0.1334858674568376 -0.05654563333871575 -0.02149245971358801 -0.056960468539834504 -0.021830077144323973 -0.06348465387567861 -0.037457515476979286
5250000000.0 -0.05091369993433176 -0.13340397205361465 -0.057309975478098026 -0.019331857016670454 -0.05774484825500331 -0.01937792749457223 -0.06708638151372574 -0.03780730576699747
5251562000.0 -0.05193095011230508 -0.1329608785198481 -0.0580800806513474 -0.01695357280188949 -0.05864341863140942 -0.016955255373964744 -0.07174803331184626 -0.03950570637451722
5253125000.0 -0.053050352793313174 -0.13411106883647003 -0.05879366679737592 -0.014605069860099615 -0.059291478496026215 -0.014677721574584034 -0.07453551317854158 -0.041855812665271414
5254688000.0 -0.054835802386755304 -0.13357669555065538 -0.059463174238180004 -0.012283487211273768 -0.05981999819579874 -0.012439657109713675 -0.07773528520179322 -0.0443598229160801
5256250000.0 -0.0554835116600183 -0.13348840569293344 -0.059814131417500804 -0.009921250894589692 -0.06018753513734907 -0.010283436246053183 -0.08033546386650162 -0.04766078878070546
5257812000.0 -0.05694531284057676 -0.13414702853289354 -0.06010179079297938 -0.007581904399501869 -0.06055866471279091 -0.0079238959612335 -0.08134118912500786 -0.05237583405365957
5259375000.0 -0.058419863221269616 -0.13400818203188614 -0.06030750833515716 -0.00516029861914357 -0.060731983148894816 -0.005706886709747772 -0.08289646459951645 -0.05662044848330522
5260938000.0 -0.05965002497789139 -0.13437415477237383 -0.06040036940113651 -0.002744010667955144 -0.060795370481123934 -0.003235758523199215 -0.08515065002001541 -0.05983998599901569
5262500000.0 -0.06082761406239683 -0.1341920363894674 -0.060369165140824875 -0.0004304042281401713 -0.060998471860474794 -0.0007202530208306362 -0.08218026849583392 -0.06731399941571824
5264062000.0 -0.06184582991641566 -0.13418717353720955 -0.06032763301949611 0.0018749684080218414 -0.06081362068155955 0.0016997443552315226 -0.08043191516360453 -0.06970396692162098
5265625000.0 -0.06342889043216446 -0.13444149532133853 -0.060162337901263754 0.004251840529659392 -0.06063604826580734 0.004231969659403658 -0.07689191772134787 -0.07410402421461759
5267188000.0 -0.06489724927063252 -0.13399911409172383 -0.059770386335668425 0.006586284716045211 -0.06036872182573381 0.006589762755532616 -0.07321033754598641 -0.07453974428936153
5268750000.0 -0.06640722684130478 -0.1339955760816608 -0.05937478460750391 0.008850055982805102 -0.059978638104964024 0.009057538785349407 -0.0699468435719561 -0.07343665299220267
5270312000.0 -0.06787616585857853 -0.13374242992781915 -0.05905451994870662 0.011308537651464773 -0.0594304252652866 0.011398473263070188 -0.06829085310359158 -0.07053180668722732
5271875000.0 -0.06960139190376123 -0.13383473026284246 -0.05848333727538912 0.01388102822828345 -0.058835203909264194 0.013844627310304267 -0.07092833249478306 -0.06808682279169449
5273438000.0 -0.07127950067113166 -0.13370482875490114 -0.05786930760230359 0.016623965079272093 -0.05818957616822234 0.016409787367287786 -0.07200390473299415 -0.06671120450712305
5275000000.0 -0.07324089473123717 -0.13387224995827687 -0.057277471636961744 0.01910879810449481 -0.0575724682268857 0.01889109060808287 -0.07569710778726482 -0.06834476621475051
5276562000.0 -0.07480365916534668 -0.1339231537498817 -0.056484884745714815 0.021472826355763922 -0.05677905444519692 0.02138017718420649 -0.07592529758082292 -0.06778076265186171
5278125000.0 -0.07647263440847911 -0.1338186113235123 -0.055582696924946336 0.023791873152432842 -0.05608801981153715 0.023773273273929585 -0.07663767028575881 -0.06897826628227272
5279688000.0 -0.07849640586750983 -0.13416768180377373 -0.054442841295369734 0.026009851736607567 -0.05512884963877085 0.026146477020458116 -0.07746145014286435 -0.0704877730737708
5281250000.0 -0.08017366400410812 -0.13421668549936738 -0.0531516021421376 0.028091297855046417 -0.05394025852397479 0.02831628700955278 -0.07804902302878895 -0.07094926028529212
5282812000.0 -0.08207257801824787 -0.13453820428307678 -0.051864881656848896 0.030117483378088776 -0.052616194099227964 0.030377422356672897 -0.07700618887823613 -0.0728118562528313
5284375000.0 -0.08333817322505963 -0.1346115627542892 -0.050575918945134864 0.03201726615151649 -0.051290063727060485 0.03235997070709695 -0.07638864356100078 -0.0755136564808417
5285938000.0 -0.08532831868248247 -0.13468734797101017 -0.049149801825131845 0.03401844140124955 -0.04964912203574977 0.034305880545475204 -0.07257265495768861 -0.07575583661224036
5287500000.0 -0.08668651819660413 -0.13482751133507564 -0.04769620046641792 0.03591381888034802 -0.04804482884431777 0.03602234383364666 -0.07109778603796223 -0.07549948276155602
5289062000.0 -0.088153527885801 -0.1350039787935407 -0.046235688250176314 0.03773747500245308 -0.04652988218174009 0.03778597925814263 -0.06669167027346054 -0.07167852845783908
5290625000.0 -0.08973359066253603 -0.13497620758183757 -0.04457188318477388 0.039382076479461056 -0.04482176099434834 0.03952580093965364 -0.06410046401209553 -0.0667075985468989
5292188000.0 -0.09116820748294863 -0.13469630530190033 -0.04295604454136208 0.04109635029370618 -0.0431398276081589 0.041324199321840935 -0.06602449623639098 -0.06087528367816139
5293750000.0 -0.09188021380431265 -0.13396651344940708 -0.040830892828719864 0.04284029648941792 -0.04147366700079577 0.04308958197080245 -0.06832896694823994 -0.05566265219405654
5295312000.0 -0.0935861373046912 -0.13337494393623628 -0.038984208153583694 0.04449063496248892 -0.03956332296528642 0.04486271893002577 -0.07327561910738487 -0.05076234934287162
5296875000.0 -0.0947658789096705 -0.13284625232260117 -0.037050745046682904 0.04630096886857285 -0.03763017309771939 0.0464376250993446 -0.07992546054793391 -0.04971999251807819
5298438000.0 -0.09647707973360936 -0.1317241488896501 -0.03509782309830433 0.04788759936395214 -0.03555053324370362 0.04814593871037496 -0.08487793225610901 -0.0482524825843452
5300000000.0 -0.09775708051353246 -0.1306445838136416 -0.033185757241591354 0.049278170077407445 -0.03353208368525838 0.04946229261864984 -0.0899013140945419 -0.04963490136403625
5301562000.0 -0.09941337652408305 -0.12934869656500528 -0.03120876810641296 0.05054030669876907 -0.03140662663059046 0.050779707659114263 -0.09418181230400409 -0.05185089953437363
5303125000.0 -0.10089153269391855 -0.12804260344415422 -0.029160935748000688 0.05156033504322126 -0.029286038251032674 0.0520587903853266 -0.09717649506668977 -0.055290376469700676
5304688000.0 -0.10230154610951449 -0.12642661037907918 -0.027020322408494217 0.05263145466831742 -0.02722338976620106 0.05316366216757089 -0.09936902474454197 -0.058390375302474165
5306250000.0 -0.10427331172041639 -0.1253417029218216 -0.024836672381137005 0.05351427163249687 -0.025205950045390838 0.05420344677734016 -0.09907395565919996 -0.06058216112892671
5307812000.0 -0.10593160120100382 -0.12389323905639148 -0.02270882942162771 0.05446808347386197 -0.023082527765314123 0.05521551094572678 -0.09836450846981895 -0.06223279306485284
5309375000.0 -0.10748921406415775 -0.12230858118166525 -0.020544507844025565 0.05536804930560292 -0.020955859358582747 0.055972467486566896 -0.09574127257205343 -0.06171560208599785
5310938000.0 -0.10893444890306533 -0.12101760257957407 -0.018393059833686942 0.0562023152548058 -0.018644098479654647 0.056581904432905686 -0.09499843939376132 -0.059509214275569364
5312500000.0 -0.11040829823730366 -0.1193751034326367 -0.016192777198596332 0.056853678835033304 -0.016323510365577703 0.05714327740973934 -0.09566529003053424 -0.05646970181123056
5314062000.0 -0.11183959574239298 -0.11770048710082906 -0.013907726990699688 0.057418998964874506 -0.013807173247938237 0.05775329619133413 -0.09771724071492821 -0.053023563371019954
5315625000.0 -0.11320723295711349 -0.11638863664598062 -0.011573975130166241 0.057966433378281106 -0.011571545743609916 0.05838509824425617 -0.10108784481586632 -0.05106845519718886
5317188000.0 -0.11436919192092766 -0.11481965707613674 -0.009266728052109235 0.05842624285949328 -0.009317174239080208 0.058933411746654674 -0.10479489558747891 -0.04949253109941754
5318750000.0 -0.11551697386923095 -0.11316417344642217 -0.006835485264836234 0.05874518806358214 -0.0070919912070032285 0.05932873064346336 -0.10896597476492972 -0.04991046472733892
5320312000.0 -0.11632341685793977 -0.11150701096100919 -0.004530856142952241 0.05911336207720595 -0.004987276399917659 0.05961054632930656 -0.11289496952891712 -0.05086166783043473
5321875000.0 -0.11735776755797571 -0.1098980524143095 -0.0021395108900252916 0.059282054641095684 -0.002693172012125234 0.05987808000602263 -0.1157353165306473 -0.051477703542506775
5323438000.0 -0.11787701930769684 -0.1081786516650737 0.00017243219571937544 0.05944728428397371 -0.0002456105839582244 0.05989526306028477 -0.11669954359807744 -0.055592815554240935
5325000000.0 -0.11824287054939114 -0.10666969318131155 0.002306813996684585 0.05949823743363903 0.002258510138295655 0.05991876872919989 -0.11779750784224084 -0.05770726936009388
5326562000.0 -0.1190269966604225 -0.10458110364994111 0.004613228307334816 0.05927675269834069 0.004772877754289612 0.05992923976348978 -0.1152946334272886 -0.05926419143037855
5328125000.0 -0.11972066124966488 -0.10262827027236655 0.006941255721686614 0.05904092564800302 0.007281903163075581 0.059660105211936335 -0.11208225893710928 -0.05873925421982562
5329688000.0 -0.12050524375210873 -0.10068773121856303 0.009170688392383752 0.05853981177721087 0.009625687524232769 0.059280227925254045 -0.108596170062165 -0.05667637731139481
5331250000.0 -0.12107422954683635 -0.09868465382389585 0.01151474395869131 0.05812106581024062 0.011950889866498459 0.058730687001752616 -0.10570930086049404 -0.05159664282633131
5332812000.0 -0.12172874807072624 -0.09657875541949251 0.014046293732143443 0.05756509445674818 0.014029308967818939 0.05798501194054636 -0.10401076382205984 -0.04618881652402704
5334375000.0 -0.1223694326142571 -0.09475909881925575 0.016486447080889966 0.0569453490299191 0.016277173743486948 0.057261728639447715 -0.1053251168350655 -0.03890869071766115
5335938000.0 -0.12315018433902943 -0.09273893706086499 0.018710812050733296 0.056449852788617215 0.018544829897731027 0.056567897320177266 -0.10604467628086693 -0.035143758775779695
5337500000.0 -0.12393418562350118 -0.09099036612980028 0.02114908764580984 0.05574781524184051 0.020900568742847788 0.055913890119934015 -0.1095585999995297 -0.02996015012107823
5339062000.0 -0.12445420643563311 -0.0893552191096656 0.02337858183979858 0.05490018950805333 0.02329439736557009 0.055195097705124326 -0.11221774119681865 -0.025848728631380817
5340625000.0 -0.12508150873017398 -0.08767243185202951 0.02545809339905973 0.05389504053468337 0.02562924990919169 0.05448549032128196 -0.11561983955664623 -0.023331517675757255
5342188000.0 -0.1256735200164167 -0.0864710188684106 0.027759605647159704 0.05271454542551275 0.02791093222756789 0.05354274068483097 -0.11823025828978208 -0.021096460521882302
5343750000.0 -0.12650062280040145 -0.08449273270619292 0.029879569779561247 0.051506100918936974 0.030179095452417426 0.05224559288780539 -0.12131250527377528 -0.017834100685856683
5345312000.0 -0.12691528398269367 -0.08311326095023949 0.032133625565103366 0.05028422785589155 0.03223668481287273 0.0511628828519044 -0.12256620100231923 -0.0182531296931811
5346875000.0 -0.12777492169669155 -0.08167969691921113 0.034239878879672926 0.04899357565197852 0.03445328029528634 0.04950432574939349 -0.12305984183132805 -0.017091572162014068
5348438000.0 -0.12797653546016657 -0.08030153272451387 0.03624065382751031 0.047784272018233966 0.03646215976422681 0.04806927844770206 -0.12311456818573291 -0.01634615097601776
5350000000.0 -0.1290243043661926 -0.07926249117838925 0.038047345060056824 0.04646180106789537 0.03836330706112774 0.04655239534242353 -0.1227803638952073 -0.014743424536907163
5351562000.0 -0.12909552630893575 -0.07810398900255114 0.03989151140875613 0.04485100701406051 0.04035567060757713 0.04494185239048948 -0.12091269838226759 -0.010456550725682927
5353125000.0 -0.12964081138303513 -0.07694775821466449 0.04164443320449407 0.04319541749626068 0.04212577313696762 0.04343986128262969 -0.12097307544652723 -0.0062718343379723545
5354688000.0 -0.1301602707799487 -0.0754651186108519 0.0434698859909564 0.04140700579439556 0.04388156691109706 0.041810900461538514 -0.12187792584348207 -0.002371762099182165
5356250000.0 -0.13032539140844446 -0.07463534955159426 0.045171821370262676 0.039595736467161025 0.045508132313450085 0.04012676551851577 -0.12389391299327152 0.000456048465021803
5357812000.0 -0.13083614464617113 -0.07331268262527323 0.04700522473231486 0.03784358207892502 0.04717162793104766 0.03827263834607504 -0.12590198662103744 0.0026468769262198645
5359375000.0 -0.1310426618240569 -0.07219803742103621 0.04855865908637899 0.03587859011565611 0.04868857300801087 0.03635150809065709 -0.12743807437221963 0.0038568355329568972
5360938000.0 -0.13164862047167566 -0.0709310693517825 0.05006354015327086 0.03404638384203922 0.050223469377283045 0.0344090129306089 -0.12843219039150172 0.004388924133544584
5362500000.0 -0.13199296358244297 -0.0698576241597976 0.05141471967037955 0.032066304737416035 0.051698614698209425 0.03236423136719922 -0.12836707920681936 0.0057754920741023485
5364062000.0 -0.1324993375898683 -0.06908208383994113 0.05269017313586255 0.02997988782666424 0.05309162809401373 0.030299257149247687 -0.12885070702902243 0.005720914649324897
5365625000.0 -0.13281116668069304 -0.06818148270899359 0.05384885367167104 0.027950168817594087 0.05437525481167125 0.02838832342685244 -0.12816390050956422 0.006252863436936793
5367188000.0 -0.13371524977533714 -0.06732507550641695 0.055043916811403276 0.025765619759111815 0.055775616352963964 0.02628180263257327 -0.12704702870644616 0.006825476778952576
5368750000.0 -0.13457988678228525 -0.06644961541868327 0.056288394776191276 0.023562524141123403 0.05695060936094506 0.024130784069307885 -0.1254192401396149 0.007650439504674008
5370312000.0 -0.133901784718927 -0.06634901807894984 0.05726648060348151 0.021474033629260578 0.057885756746241024 0.02189634951288456 -0.12349557551300436 0.009827364031796557
5371875000.0 -0.1348620577444826 -0.0653083439225062 0.05822413826268111 0.019256635412044927 0.058779236863701505 0.01941990068963004 -0.12328351482078101 0.011955100788337258
5373438000.0 -0.134189007917915 -0.06482245832560152 0.059014984274390725 0.01694589554819593 0.05955006288084184 0.01680840101873687 -0.12338741117925595 0.01532827131576822
5375000000.0 -0.13392145101607375 -0.06418857648912712 0.05980157937357337 0.014627080020908652 0.06031275551533887 0.014247623598008066 -0.12416020104022198 0.017387017419675566
5376562000.0 -0.13374682684823533 -0.06377932406924983 0.06073062447211304 0.012005996877593801 0.06102325704019117 0.011872923022692513 -0.12496035530161646 0.01859005889434039
5378125000.0 -0.13388165800157256 -0.06304111330413854 0.06150484634177413 0.009551189935246973 0.06171930210319959 0.009498587585889331 -0.1250111039350323 0.01983656873847152
5379688000.0 -0.13380888694978332 -0.06252814982456849 0.06208640043138248 0.007035024929651519 0.06227576100827549 0.007335034965408339 -0.1248416968188032 0.018577657897367962
5381250000.0 -0.13330840032685173 -0.06168438961839797 0.06252878552771933 0.004365439985475404 0.0626509919251623 0.005004708086365763 -0.12361049926784955 0.019871560287866224
5382812000.0 -0.13329064481621317 -0.06119415239768 0.06279962723868346 0.0017007365832855741 0.06317291791824116 0.00243849594057479 -0.12337161391429537 0.02282642439537302
5384375000.0 -0.13333786727903943 -0.06028257346040778 0.06308964813823754 -0.0010090384185584623 0.06363758463102648 -0.00034625364053544725 -0.12530428208697855 0.023877726235647396
5385938000.0 -0.1333024609794108 -0.059159191887153226 0.06316571409719694 -0.004003476148252413 0.06394200473534341 -0.0036285719541540263 -0.12520263349908795 0.028310090871780866
5387500000.0 -0.1330980693236071 -0.058382915691473726 0.06319715735186167 -0.006807426371086351 0.06404895465727517 -0.006721845384890644 -0.12862160027100666 0.029061194564663613
5389062000.0 -0.13347858880991692 -0.057426364854735006 0.06290847832318128 -0.009820669446992902 0.06376221515605435 -0.009813525438631652 -0.12871141333577787 0.032640304310214634
5390625000.0 -0.1335190334632198 -0.05645499307570993 0.0625769141406778 -0.012559410301949323 0.06346126373161985 -0.012977394864655066 -0.1306001664163642 0.03659648819524854
5392188000.0 -0.13401502275752966 -0.05586518132054873 0.062116066069097156 -0.015398734701589764 0.06265914327239316 -0.01583383337662936 -0.13492988486911153 0.040631630881255376
5393750000.0 -0.13411252349765912 -0.05524504323639406 0.061513147425433755 -0.01845866319220769 0.061844343279165825 -0.018735488208761253 -0.1403610260850426 0.043870536380233416
5395312000.0 -0.1343780484236305 -0.0547907895660467 0.06090909738351227 -0.021191919442615073 0.0610090709207238 -0.021234402605412595 -0.14926782304880548 0.042499050103867786
5396875000.0 -0.1350897634051744 -0.05442995335514125 0.06004472278085063 -0.02428643313686397 0.060141338214901356 -0.024079258139649593 -0.15834114457087625 0.04303755021391278
5398438000.0 -0.13497721773912671 -0.053681985395251194 0.05954880188848148 -0.02697507420184018 0.05952990272617414 -0.02669217491373845 -0.15960666284662287 0.03410707602748523
5400000000.0 -0.13565932404829223 -0.05371894832039045 0.05864063866222048 -0.029772034742820596 0.058857431926631947 -0.029301013628532366 -0.16206673987250772 0.029215721052199852
5401562000.0 -0.1356231376859372 -0.053264038780326387 0.057653763877547004 -0.03228026915996445 0.05800767507455911 -0.03177791773128261 -0.1608291950028684 0.020066216718449964
5403125000.0 -0.13594923230021277 -0.05324668930137711 0.05638647647747645 -0.034823898163594255 0.05714964801831073 -0.03457060554225676 -0.15930600344233853 0.01934573049402705
5404688000.0 -0.13587163296845928 -0.05302268863104324 0.054864496497248325 -0.037091108969129975 0.055802467933117654 -0.037124813311718685 -0.15517430795378592 0.014316755579982573
5406250000.0 -0.1358282088223835 -0.052423029142131636 0.05300012222188135 -0.039580546944754214 0.05397437386682777 -0.03986430890533272 -0.15499957152745095 0.010570671501561739
5407812000.0 -0.13537337280833847 -0.051814443092606334 0.0513232994946811 -0.0419184238808164 0.0521526661516156 -0.04220752329514338 -0.15257655757597202 0.01173567118095128
5409375000.0 -0.13538234888912343 -0.05141341268488693 0.048950569765702424 -0.044342970732997415 0.049559865123166395 -0.04475359525534437 -0.15122527985613193 0.011936563487635376
5410938000.0 -0.13532094795617156 -0.05057472162535381 0.047122490452467386 -0.046633198303517524 0.04726586433388104 -0.04703205514186809 -0.15526465270536946 0.01072747724334649
5412500000.0 -0.13510293541826598 -0.049465929169853956 0.044767050705108294 -0.04879646757230445 0.04475624163361052 -0.04898564438372486 -0.15542800774006407 0.009189389425822545
5414062000.0 -0.1351657395750911 -0.0482323489017749 0.04268398344657574 -0.05054757170524845 0.0426637756077338 -0.050586119141439144 -0.1582883961357872 0.007237086289625627
5415625000.0 -0.1353583678889431 -0.04637682632085581 0.04049670587944775 -0.05246643313994755 0.04043250978861582 -0.052461633039522164 -0.15841355531756474 0.0074501111585683595
5417188000.0 -0.1359587475937434 -0.04490519009544621 0.03785998972890979 -0.054291432403063764 0.038306583701149324 -0.0541918524778826 -0.16335924057994441 0.005036812573094762
5418750000.0 -0.13658335593847 -0.04341903375622555 0.03554771602194414 -0.05609852735571505 0.03618090392685879 -0.05609476648957051 -0.1697871753617241 -0.0008296201570140455
5420312000.0 -0.13695114686945128 -0.04147307143981975 0.03281679569193427 -0.057834559419756314 0.03366453302976362 -0.05774715000751957 -0.1683474745170538 -0.006872854038253766
5421875000.0 -0.13803330947710896 -0.03988421971924119 0.030191401689540622 -0.05966223932766842 0.031135867862620695 -0.05960746899814233 -0.16634881243211927 -0.016194650937273056
5423438000.0 -0.13900269013139271 -0.03803371682907999 0.02805877928640905 -0.061155724916051014 0.02894394074903105 -0.061369221859738095 -0.16072222604808978 -0.0269243533783795
5425000000.0 -0.13989627308225774 -0.03645048336357631 0.02563027642863342 -0.062098705624483115 0.026279756678468207 -0.06270361448984502 -0.1511623734268553 -0.03072113761714606
5426562000.0 -0.14143274621026986 -0.03473198903391884 0.02324571041083886 -0.06316110738071885 0.023537575150230597 -0.06385974799904467 -0.141387385997579 -0.03636459145615744
5428125000.0 -0.1429656035038116 -0.033416182767046804 0.020752697086162314 -0.06376689400619531 0.020942257784437205 -0.06447119003789635 -0.1314593962475389 -0.032555769621907774
5429688000.0 -0.1437950862742481 -0.03200107818083904 0.018194098065710543 -0.06426548507221964 0.01813501599408215 -0.064950497779878 -0.12544726811067003 -0.028432976542221083
5431250000.0 -0.14489813799668455 -0.031002136390865756 0.015227610782713908 -0.06443871263697354 0.015413873790103734 -0.06504943216100306 -0.11913253757516584 -0.023283772451309175
5432812000.0 -0.14571402253553375 -0.029686189857720705 0.012490960893307944 -0.0646813753785093 0.012738288556493092 -0.06516223868182355 -0.11500986359265258 -0.018588346449949385
5434375000.0 -0.14649410936883478 -0.028489291150216256 0.009737006125784398 -0.06488454222413632 0.010019377829736642 -0.06514103378920606 -0.11206984398995957 -0.014506262844455876
5435938000.0 -0.14697661468113207 -0.027295965290424964 0.007117207322774955 -0.06530640358881752 0.00742649870671545 -0.065306209745375 -0.11069299852108518 -0.01175702461816126
5437500000.0 -0.14722288485393442 -0.025982366470254314 0.004473172768430676 -0.06529661899387162 0.004790576232184302 -0.06540984245804561 -0.11081440787313171 -0.0077809243249259185
5439062000.0 -0.14779932734798873 -0.0244014834549072 0.0016885499474141277 -0.06529400497686819 0.002052251381691021 -0.0655159955689369 -0.10865639003587736 -0.006235952596296565
5440625000.0 -0.14762001056416393 -0.022914863233850447 -0.0010909947310783785 -0.06507902284757777 -0.0008584372101462979 -0.06557119642072796 -0.10840477017957767 -0.00444039047679624
5442188000.0 -0.1479305578775008 -0.021165462925595596 -0.003873537254527034 -0.06491029951357197 -0.0037167992078460457 -0.06553186179655637 -0.1074752364710122 -0.004427445820554252
5443750000.0 -0.1479867460914968 -0.019287366354470318 -0.006684179931381722 -0.0646153483840407 -0.006539676972135916 -0.06544975283615535 -0.10458614031496427 -0.004459485703558544
5445312000.0 -0.14786296735998933 -0.017112502238923917 -0.00950293160761194 -0.06423765939681607 -0.009264830419557384 -0.0649793055455682 -0.09959607547880404 -0.0036043333820509975
5446875000.0 -0.14816025759391524 -0.014967077969000079 -0.012103534581086865 -0.06379092370091677 -0.011785304844515126 -0.0644740736162642 -0.09433227404018941 -0.0010477274511803115
5448438000.0 -0.1484017690448253 -0.012547408272118154 -0.014570114749404539 -0.06317394760697387 -0.01443064394789609 -0.06370002721726803 -0.08964372364347953 0.0038821975701124624
5450000000.0 -0.14856555461040216 -0.010442757387764621 -0.016797116237735568 -0.06235005714274479 -0.016912210030969124 -0.0627136937234452 -0.0873926053821564 0.011175281589767373
5451562000.0 -0.14926095390010494 -0.008220956409404082 -0.019230460541097984 -0.06132816883977992 -0.019495688463855642 -0.061731927015525816 -0.08724343153143782 0.018197013130752157
5453125000.0 -0.1496404374163707 -0.006018830661032466 -0.021719502685242083 -0.06033160826355599 -0.02198458801507294 -0.06062306616402255 -0.08839079878286255 0.02521648507874237
5454688000.0 -0.1503785585311631 -0.003940931530939722 -0.024057183254905024 -0.0589622740009827 -0.024437352487889728 -0.05969496405574146 -0.09015840033387627 0.029657082096268186
5456250000.0 -0.15099981195574308 -0.002092888495876026 -0.02666317249113885 -0.05779787450723106 -0.0267693164598265 -0.05854176434216976 -0.09348464209950001 0.0334946681726878
5457812000.0 -0.15160712522060635 -0.0002815779561367461 -0.029108663265549735 -0.05660539756166325 -0.02902967838919057 -0.05719746454909744 -0.0968700005947217 0.03581615704656351
5459375000.0 -0.15226854845644963 0.0014288240612227508 -0.03146608601430673 -0.055305110219009405 -0.031307376442547774 -0.0556801129356561 -0.09985882558503571 0.037142284432290264
5460938000.0 -0.15292214809684623 0.0029594694666255283 -0.03370583450515052 -0.05385971994648866 -0.033592536296391765 -0.054254126303878374 -0.10202411317417148 0.03690112199843887
5462500000.0 -0.15312549938884282 0.004333446771505734 -0.0358777231198582 -0.052225148247088835 -0.03591387478456815 -0.052633554430078465 -0.10299845939833355 0.03566686916840799
5464062000.0 -0.1533345936397621 0.005357089672760364 -0.038026778002702974 -0.05053363770258932 -0.03821004583463784 -0.05106514024707023 -0.10235705157394344 0.03398250224518074
5465625000.0 -0.15328561824352305 0.006415845544041807 -0.04000655853908577 -0.04890061472413972 -0.04047836737531318 -0.04956196435453021 -0.10054556793850081 0.03342796446630314
5467188000.0 -0.1529262944339352 0.007436377445940786 -0.042022469449474915 -0.04718128377762013 -0.04243481791489993 -0.047843626628906684 -0.09828543520640314 0.0340226371962107
5468750000.0 -0.15293640447058315 0.008758793197649623 -0.0438751353706143 -0.04530547197821763 -0.044217805951247156 -0.046174311006239296 -0.09534191202071086 0.037803373807820194
5470312000.0 -0.15213076371196768 0.010019414685747484 -0.04573764949896035 -0.043468472191343484 -0.04597171798021076 -0.04411857396292995 -0.09453563685983044 0.03972779668731728
5471875000.0 -0.15156742079195418 0.011334912231925735 -0.04745822850361572 -0.04158205659624273 -0.04768816921303273 -0.041934371114683 -0.09401707536704748 0.042357588193467334
5473438000.0 -0.15056950616927228 0.012643499114016786 -0.049051147079112574 -0.039566960803811224 -0.04934792933310264 -0.039710225294949233 -0.09387076860999072 0.044227135581405695
5475000000.0 -0.1499341958183807 0.014280169802842673 -0.05063236808777791 -0.03745789040057541 -0.05088008260899093 -0.0374230230986166 -0.09370328527127288 0.04506892794350412
5476562000.0 -0.14928703957705497 0.015708885671499053 -0.05202976174167227 -0.03527450670623876 -0.052398631273885304 -0.035475078203258216 -0.09317724355909504 0.044992273711626556
5478125000.0 -0.14800467333994788 0.017372451380098 -0.05339816213812373 -0.032841564327230795 -0.05378942855874031 -0.033330052772552084 -0.09151270730234941 0.045688548283240746
5479688000.0 -0.14708660318070915 0.01897840052908549 -0.054610669117582715 -0.03063137965465409 -0.05505111439874477 -0.03126656680707643 -0.0895912837103873 0.04481234374418395
5481250000.0 -0.14619103328508756 0.020636435199848587 -0.055806556127842404 -0.02830198012817534 -0.05605189550913655 -0.028952708406153074 -0.0857970799925423 0.04540809475230827
5482812000.0 -0.14566662879549472 0.02178329157172856 -0.05696968166700465 -0.026001817116914797 -0.057301161727991094 -0.026679145031882186 -0.08297064738039729 0.045755916796678814
5484375000.0 -0.14476886939064637 0.023436564093344513 -0.05801309323820234 -0.023790465110772433 -0.05838692340967527 -0.024076173116539108 -0.07819982993240841 0.04668303131512058
5485938000.0 -0.14377341423601564 0.0245049243235503 -0.059062576094887805 -0.021378582370296256 -0.05938358320389697 -0.02172598408811266 -0.07257807230927904 0.047407099289089386
5487500000.0 -0.14294058154706946 0.025682103118051008 -0.05986607173304007 -0.0190167238783191 -0.060347840627172425 -0.019233963335893757 -0.06684208600413928 0.05120236888883575
5489062000.0 -0.14222538499365844 0.026757601697688694 -0.06073062819302746 -0.016594999780958648 -0.061155558645295455 -0.01678907269390086 -0.06448497902565728 0.05747337903179404
5490625000.0 -0.14111923970454343 0.027829191397966076 -0.06120761148927616 -0.014029642309478363 -0.06187064458503671 -0.014343374122953246 -0.0581214049267094 0.06251210993775115
5492188000.0 -0.13987638583855005 0.0287643903839402 -0.061561684110569836 -0.01149660287845724 -0.06209553431399071 -0.011743043840840071 -0.05733858044195487 0.06856591459268882
5493750000.0 -0.138838481826048 0.029647636443218942 -0.061889154685251746 -0.008799003237604961 -0.06242135763628971 -0.009125128811569499 -0.057386041328810415 0.07353616761318871
5495312000.0 -0.13764936994406957 0.030286839169705766 -0.06207987703495845 -0.006110428055435522 -0.06260955507031249 -0.0065362348808933645 -0.05696773159591151 0.07687257804173314
5496875000.0 -0.136262920658616 0.031046852914056147 -0.0620986793539425 -0.0036060339912711166 -0.06265506715408165 -0.0038169092622720668 -0.05699713339166636 0.07871783629117225
5498438000.0 -0.13494090483492066 0.031972835246151896 -0.06216743919922408 -0.001097913389630437 -0.06274599444077446 -0.0011024943462934443 -0.05635439783936748 0.08109615313835132
5500000000.0 -0.13350183246848815 0.03303351230986951 -0.062041054872990484 0.0014640298205565183 -0.06264058734596992 0.0015488475932965958 -0.05376436735576695 0.08295805320120263
5501562000.0 -0.13216288218386596 0.033816700898582214 -0.061887203259862876 0.003997562437919492 -0.06258684519811888 0.004127068496837878 -0.0513856047303489 0.08507424510943482
5503125000.0 -0.1306532623341668 0.0346059078099298 -0.06161494988538658 0.00651458958141985 -0.06225860973064835 0.006563068772879295 -0.04950273333464064 0.08862926221185646
5504688000.0 -0.1292884002660407 0.03544580232567469 -0.06125207504949944 0.009103278744651604 -0.061892385428139275 0.009031876241104355 -0.04727382012626721 0.09356501143012874
5506250000.0 -0.12755254382476977 0.03639641732351181 -0.06090687986438813 0.011669003151821396 -0.06131963620092689 0.01161403642442578 -0.04596004967624641 0.09917595612702278
5507812000.0 -0.12653008183985592 0.03755022035892859 -0.06033928488041326 0.014357209313552213 -0.0607064403331765 0.01415084416315595 -0.04728426670476083 0.10446147163281906
5509375000.0 -0.1251879302215985 0.038011722873671855 -0.05963788898933128 0.016948274812290418 -0.06008548169869318 0.01678311090180672 -0.04901239509534418 0.11053733010980359
5510938000.0 -0.1241354889602249 0.038713730304782604 -0.058860399922218976 0.019524250763786787 -0.0593736155664573 0.019392150504154472 -0.05246036416254927 0.11416635429294218
5512500000.0 -0.1230056261518172 0.0397182684286463 -0.05802710540777464 0.021991285190325147 -0.0586952581322862 0.022012476047460997 -0.05773591943304304 0.11755065449770136
5514062000.0 -0.12188411859454906 0.040168797811361345 -0.05695711430080359 0.024198817749388625 -0.0576319092251952 0.024496607392126845 -0.06305582956679008 0.11965668675610104
5515625000.0 -0.12079303663635178 0.041027046728907404 -0.05588076206921326 0.026495728790350285 -0.05656100266285507 0.02690790920983477 -0.06876916175143624 0.11754709129511177
5517188000.0 -0.11970104570727952 0.041456463207826096 -0.05462680072391346 0.028766780379502487 -0.05535573126145707 0.02912924997408236 -0.07318990481591749 0.11566102761047009
5518750000.0 -0.11844416169290004 0.04165761540139593 -0.05333540537091053 0.031071309434986358 -0.05394613552350145 0.031426986064408496 -0.07793585271241428 0.11185991915238358
5520312000.0 -0.11743900761032028 0.04200584055627846 -0.05205859827064909 0.033235317209896656 -0.05246343729601778 0.033458641240231346 -0.08140635609067026 0.10877531420233129
5521875000.0 -0.11630245453689932 0.042837393835158825 -0.05092619317913442 0.035422643374139015 -0.0511792554029321 0.03554279657159519 -0.08315586700861177 0.10254256329405452
5523438000.0 -0.11501909719129566 0.0432503222651051 -0.049499945419305226 0.03750805335364415 -0.04970731708601636 0.03754171756188386 -0.0812472822053845 0.09847720456844528
5525000000.0 -0.11398835488507064 0.04367030018477866 -0.048161345672485124 0.039429127575258315 -0.04820769211349482 0.039425088242855545 -0.08053910820036143 0.09541379692741608
5526562000.0 -0.1128570068509782 0.04424852650116817 -0.04626526016677112 0.04136470322173652 -0.04675061758006622 0.041396966976921176 -0.08063011115757951 0.09362573958818578
5528125000.0 -0.11159186481043319 0.04510180649244448 -0.04441083123997501 0.043232664416110574 -0.04498420180296598 0.04346452831883459 -0.08097002073332003 0.09408694552953897
5529688000.0 -0.110788758965922 0.04594036036524336 -0.042512697827577675 0.04526920511387059 -0.04307899554100172 0.04538217022571572 -0.08275125433471037 0.09277110061351047
5531250000.0 -0.10976000922726127 0.04687034882564979 -0.04028768838860028 0.04723432866118782 -0.041082643675212464 0.04745987659639972 -0.0869622002845077 0.0913366201269275
5532812000.0 -0.10926632896813089 0.04778682245667785 -0.03828929608172389 0.04901549679031339 -0.039023528782452355 0.04928233558564393 -0.0893104184749421 0.08638145612118049
5534375000.0 -0.10888654746056908 0.04868031438990671 -0.0361019659657587 0.05086988924772225 -0.036754374358965364 0.051141120441594676 -0.0940398155522229 0.08084915092032048
5535938000.0 -0.10857019315606954 0.049521132800200915 -0.03406000660953611 0.05254548474577427 -0.03437118500758254 0.05283285445053562 -0.09530628435324448 0.073839505160741
5537500000.0 -0.10844986711239477 0.05047968675605968 -0.03201064625757097 0.0540262993860369 -0.03219373854380496 0.05443581607553921 -0.09561607312540342 0.06596096925471241
5539062000.0 -0.10860976165750669 0.05098973115468579 -0.029800699364148812 0.055373959880345394 -0.029879262407302737 0.05568441348428747 -0.09196268539953564 0.058581989499098715
5540625000.0 -0.10864016822225354 0.05165402348780916 -0.027631174027353295 0.056463482024625124 -0.02768134530493076 0.05700174627396237 -0.08909243489088224 0.05182179899091717
5542188000.0 -0.10897593307901435 0.05220891496277291 -0.025244510456806448 0.05759340607988516 -0.025546462257818398 0.05800640419817087 -0.08329611233236454 0.04418635850194791
5543750000.0 -0.10931762529987693 0.05261374637611332 -0.022993363881742102 0.058615800575199786 -0.0234825263018578 0.05898604014575275 -0.07479629005592846 0.038831756485168664
5545312000.0 -0.10935735641734481 0.05259020418006383 -0.02056527501924015 0.05959687988036476 -0.021191163293925896 0.059809195349650304 -0.07085406942955216 0.034823777036885495
5546875000.0 -0.10957271691442852 0.05273166784448224 -0.018287642509852427 0.06043112549565737 -0.018934740301463727 0.06076475297186356 -0.06051043464199405 0.034238863123266614
5548438000.0 -0.1096030254277255 0.05253840306409298 -0.01599342106820927 0.06113090270300562 -0.016435213763288596 0.06136775935459575 -0.05486756141729181 0.036369913776877746
5550000000.0 -0.1094508157826076 0.05259836943806399 -0.01358837750391263 0.061518831018375374 -0.013804278884738895 0.061945932480983526 -0.05016107670772544 0.038321688835878484
5551562000.0 -0.1092939599077134 0.0527512325990022 -0.011070617825639457 0.06190492482864257 -0.0111964428012274 0.06234041009322355 -0.04785956211762421 0.04198700285228705
5553125000.0 -0.108849381839325 0.052574526604975864 -0.008445037507052937 0.062075107265454836 -0.008535951547630417 0.0626990832727415 -0.04721896624030313 0.04289135019870141
5554688000.0 -0.10850434384378904 0.05279031859644169 -0.005751272917176633 0.06222900040125602 -0.00581824232656135 0.06293907464991778 -0.0470018023282835 0.042224084581272546
5556250000.0 -0.10805892122196131 0.05290457487728655 -0.0029031972571223166 0.06262397539890938 -0.0031574450152889295 0.06325176136507896 -0.04616312363322685 0.04230531504933141
5557812000.0 -0.10779342945042884 0.053531535233181764 -0.00011142239475904863 0.06287814709102336 -0.00041385449141488764 0.06337573241142513 -0.04592573151870999 0.03934201945478778
5559375000.0 -0.10735665669421579 0.05404010724957445 0.0022881596171203996 0.06294984451005678 0.002019709626884168 0.06327687832568597 -0.04139520070889647 0.037610853585112694
5560938000.0 -0.10684579669524481 0.05468760680103034 0.004911933115634795 0.06298932361897608 0.004640169322179662 0.06322312919266963 -0.03575290125663295 0.03849065969052566
5562500000.0 -0.10679991424402106 0.05531470747401205 0.007277805630421462 0.06259242970804625 0.007279366519320196 0.06297546885183655 -0.03234641820811996 0.04167387925610643
5564062000.0 -0.10661803310305126 0.056357426147881674 0.0098033673176222 0.062155930493961044 0.009848685428845178 0.06260257724954703 -0.026945919913838098 0.0439880499260071
5565625000.0 -0.10668158628122637 0.05731831484316937 0.01227262737894361 0.06147476391147254 0.012281299333523892 0.06224599843091691 -0.02462333909829933 0.05066576266499969
5567188000.0 -0.10676159669088064 0.05819151477784966 0.01482877606171976 0.06070485116662068 0.014766184863032272 0.061530200957848113 -0.023712863962735274 0.05627699464502135
5568750000.0 -0.10691679234671705 0.059015139655876424 0.017327335443460073 0.05988718257712791 0.01728195282037625 0.06071970435534647 -0.023106940512092184 0.06320499539047443
5570312000.0 -0.1071672850087835 0.05989314572026386 0.01973187609248882 0.05903442361731845 0.019578853997853824 0.059729754036689724 -0.025382392541006108 0.0694945206893895
5571875000.0 -0.10725338015421468 0.060470817112611 0.021977836636286396 0.05805529332633178 0.022032632257966152 0.05856720063691567 -0.029950946075312092 0.07523686373828005
5573438000.0 -0.10774845292084138 0.060901549155839875 0.024239997047662127 0.0569797399548868 0.024334979322785683 0.057339232247123284 -0.03619879938785838 0.08106829652103507
5575000000.0 -0.10792758806326803 0.06130919057756022 0.026502909175887504 0.055802518823780525 0.026799367522653952 0.05607198792522934 -0.04325413051668556 0.08224205696433708
5576562000.0 -0.10802186184797478 0.06161667439880329 0.028857695871634222 0.05446961367516281 0.029309192781920394 0.05476089991775763 -0.04972855000392819 0.08112790369801405
5578125000.0 -0.1078590096052313 0.06175006154806 0.03135427370917468 0.052968477246427205 0.03161056360565066 0.05350005203568874 -0.05394242546984026 0.0787908306894732
5579688000.0 -0.10753943308701178 0.06186898693302619 0.033719312658554976 0.051555510191939574 0.033989659211912354 0.05216667643381673 -0.05691009077134148 0.07620215193949031
5581250000.0 -0.10695840308016037 0.0621815001839045 0.03605041589891529 0.05006110756151753 0.03595210437532042 0.050738784737526084 -0.058475032429219725 0.0732110237979318
5582812000.0 -0.10615525206048952 0.06218227587134943 0.03811312448819894 0.04850831529184955 0.03801197919942961 0.049069382582425894 -0.05927299330222021 0.07190227288440082
5584375000.0 -0.10518115510295019 0.06279480931548752 0.040169507146036204 0.04680448623667089 0.0401741114050888 0.047254689024163306 -0.060390762212857295 0.07174168727871133
5585938000.0 -0.1042168295343557 0.06340567724827251 0.04205069945609492 0.04500275007440103 0.04223223546261496 0.045437694176350366 -0.06069421709053699 0.07066888750894244
5587500000.0 -0.10284014105669298 0.06382514796040394 0.04379501044188861 0.04307206851060553 0.04427156009799241 0.043589007807842695 -0.06141927848240202 0.07000533108223816
5589062000.0 -0.10172967847496879 0.06481516275460415 0.04556117869354098 0.04110971323622081 0.046200911401353066 0.041799288649844654 -0.06304536812573136 0.06991384458800248
5590625000.0 -0.10037093531404623 0.06573218635113484 0.04714597380020388 0.039128251212044225 0.04787777882421211 0.03982191756092975 -0.06511645301963652 0.06898284735259375
5592188000.0 -0.09944073626318482 0.06664548338799485 0.04886766961477935 0.03704769816156273 0.04949350921595906 0.03766300655330379 -0.06775531491243988 0.06760561333804098
5593750000.0 -0.09786981137107889 0.06773918766995077 0.05053951756932217 0.03488417846875335 0.050913452323015695 0.03541810028210786 -0.06938264303665041 0.06419751476629484
5595312000.0 -0.0965171057575983 0.06905622683871829 0.052165037703308256 0.032699283173687047 0.05239457667435487 0.03295594436453237 -0.07022282291264613 0.05874208838998699
5596875000.0 -0.09528826465526191 0.07036506948771913 0.053660875148559876 0.030522825819926144 0.05381236835751523 0.030429637811881963 -0.0699423371046781 0.05167670226980503
5598438000.0 -0.09410144338055902 0.07124329100255622 0.055008283074292195 0.02807965942753595 0.05515657846737353 0.02820973796201889 -0.06560064353789076 0.04541795570647056
5600000000.0 -0.09280881401662121 0.07238192864822872 0.05643446717147683 0.02588756772924964 0.056434737056672665 0.026002404483504778 -0.060174643962343885 0.03928669895436232
5601562000.0 -0.09172680005021544 0.07329513160820314 0.057362423034519334 0.023514494841476153 0.05759073593068598 0.023926509351382554 -0.052057751327532466 0.03571304653289045
5603125000.0 -0.09055414112501345 0.07405358166191825 0.05829400492899227 0.0212320067892251 0.05858186347145463 0.021955030264071723 -0.04332228517778349 0.03491659122046377
5604688000.0 -0.08927418296787835 0.07512971457234743 0.05902095515686817 0.01894844009079136 0.05942946739602885 0.019765350588007605 -0.034078141812591015 0.03644006488560527
5606250000.0 -0.08806661253620232 0.07605116186519907 0.0598984141806185 0.01660699611992609 0.06020276165390415 0.017390192214691028 -0.025446709626595662 0.038183876184682615
5607812000.0 -0.08690287066243534 0.07594955809274503 0.06050337338640872 0.014403761729260556 0.06105148655363007 0.015097321493745174 -0.019529529241439067 0.040485141739565515
5609375000.0 -0.08532055042882125 0.07683405853941681 0.06129773006617736 0.012029286595683223 0.06181374392756968 0.012449934315170953 -0.014191284166398069 0.046226433537050055
5610938000.0 -0.08377364969634507 0.07719509854607605 0.06174930451289374 0.009666771483086619 0.06240232179648074 0.009760244633502224 -0.009065140216423077 0.05031226189648349
5612500000.0 -0.0820103319489411 0.07767713022079185 0.06196474405142629 0.007173314641873661 0.06291435502522855 0.007107993155036444 -0.004009030389034244 0.054584624254137785
5614062000.0 -0.0801098978900983 0.07812037128839888 0.06218514879204599 0.0046160226532386195 0.062983559403186 0.0045342614733525945 -0.0004057454642082888 0.05900686032980327
5615625000.0 -0.07826324748435368 0.07849899366300744 0.06217331823123253 0.0020456723230012014 0.06289894707143609 0.0018313730095120251 0.0020306712828279134 0.061113490897233703
5617188000.0 -0.07668562255300322 0.0792021077119223 0.06215904602418217 -0.0007394651556546287 0.06251841757436655 -0.0007147288461571705 0.005881659688452089 0.06391228605225739
5618750000.0 -0.07493915026334742 0.07973129148731409 0.06199189994175064 -0.0034791655551449844 0.06221456416037309 -0.003335808168873121 0.009046809860780783 0.06605110010317541
5620312000.0 -0.07344735856267304 0.08043081688584917 0.06187720850036221 -0.005902382485692528 0.06204838222158825 -0.0056524749430780985 0.014191492020604038 0.06893143170783324
5621875000.0 -0.07195657157978434 0.08128760350119682 0.061680202516897494 -0.008267605788648668 0.06185728442923955 -0.007910353554640228 0.020555380416484498 0.07200629240485541
5623438000.0 -0.07035086671539877 0.08151242814542899 0.06111887929466634 -0.010554503901190887 0.06147816858415361 -0.010176377784993427 0.02577302730272271 0.07875972149796412
5625000000.0 -0.0689967297269999 0.08220412649763141 0.06083820875098976 -0.01262606056217341 0.06141719397074689 -0.012362012928976287 0.03102728007815997 0.09064816597141682
5626562000.0 -0.06774948729512685 0.08232704957468982 0.06018259797813663 -0.014759268033925818 0.060924794798185945 -0.014561036891857405 0.03142278579954925 0.09909330117133829
5628125000.0 -0.06652517915086055 0.08275110032598297 0.05943570946791219 -0.017013581622677933 0.06037427716170374 -0.01702370880796081 0.029087112634776754 0.10793243177083192
5629688000.0 -0.0653816701942539 0.08255093517451563 0.058697354093420924 -0.019435597018511323 0.059463152527263335 -0.01941609052108079 0.02663255460671544 0.11418544684657284
5631250000.0 -0.06415337424736013 0.08296732515489831 0.05769594293992308 -0.021850658046665607 0.05856112199859672 -0.0220250130133682 0.020898211435808445 0.11887829521036093
5632812000.0 -0.06283346208252055 0.08268914621281045 0.056772190622482406 -0.02427212037534129 0.05747579558252734 -0.024365388570897054 0.01470104340582295 0.12132242625435588
5634375000.0 -0.0617974869221185 0.08266861052344764 0.055648509307087514 -0.026631571635631464 0.05621831177924963 -0.02677105762846823 0.010580439357025934 0.12224161565528578
5635938000.0 -0.0607980743008428 0.08244104286075395 0.05454073372555054 -0.028793340468772556 0.05488994970193449 -0.029149609244873094 0.005355009249826032 0.12150257521961098
5637500000.0 -0.05949867808196282 0.08239825846072696 0.053045752563622615 -0.031129819786035132 0.05339724743085169 -0.031310375813961046 0.002303791355800481 0.11896073813121084
5639062000.0 -0.058209032278213634 0.0820620704754142 0.051612220107340484 -0.033183845470913756 0.05196062386843423 -0.03337763239149014 -0.0007861144724607024 0.11580391884949212
5640625000.0 -0.05695816192990018 0.08192742384740545 0.049963269728216936 -0.03520371886906363 0.05041515599192095 -0.035597657838412386 -0.0024883958956109235 0.11201013075197633
5642188000.0 -0.05582698162609045 0.08168315188920146 0.04837132300280218 -0.037277183626079895 0.04893574190086403 -0.037485234130722675 -0.003719824879950026 0.10827985160041345
5643750000.0 -0.05453594315273416 0.08165756325497163 0.046737180536587125 -0.03928767345833927 0.04738587590961843 -0.03951842689326059 -0.0034190916227207595 0.10603497041822446
5645312000.0 -0.05363137038800437 0.08153423579934266 0.045193638879004114 -0.04134301842439111 0.04572443887761394 -0.04144893259585493 -0.004449513946724679 0.10351125416627119
5646875000.0 -0.052588751999089994 0.08152264078748844 0.04357744136025781 -0.043180674383587615 0.04400693244047251 -0.04332304869407281 -0.006384002212192959 0.10131796426564933
5648438000.0 -0.051851292680013664 0.08124628602567431 0.04181070943583529 -0.04500308799424559 0.04213658659478547 -0.04513318039870943 -0.00885969353284833 0.0983461372690981
5650000000.0 -0.051310258164188216 0.0812308130725226 0.03986277994357429 -0.046601959332820894 0.04024088662199099 -0.04698400645776697 -0.012083923352971142 0.09320694945712844
5651562000.0 -0.05072596857939834 0.08113763323884261 0.03777880514042095 -0.04839832630677868 0.038172009625830824 -0.048667003160909154 -0.013643951103034761 0.08742348049566195
5653125000.0 -0.05051940774405257 0.08098458793019545 0.03562731917394089 -0.050011894491642506 0.03625773906778144 -0.05032123849657253 -0.015477544201061713 0.07996728994507396
5654688000.0 -0.050103517844296286 0.08027440382660893 0.03341656623563144 -0.051539541037588545 0.0341191487689943 -0.05200293388881966 -0.015600233213338309 0.071527570463699
5656250000.0 -0.049979329249910255 0.07945437196134972 0.031248152333829167 -0.05304135078286842 0.03194044886671544 -0.05356379103769728 -0.013576396745243876 0.06245588789167283
5657812000.0 -0.04990327034434978 0.07859013215243991 0.029205939295982267 -0.05445065571192044 0.029711906229500967 -0.05500575538414722 -0.009973306072453064 0.05356330997639295
5659375000.0 -0.04959465809670891 0.07738579143741339 0.027097471726876626 -0.05591309626205822 0.027240269930608928 -0.056315913338006195 -0.0034771201367718024 0.04476014003452305
5660938000.0 -0.04932736016644646 0.07627457693550266 0.024949096743152294 -0.05710395581313046 0.02487739200023582 -0.05767568135551846 0.003927560387733346 0.03925664128526058
5662500000.0 -0.04900384579451746 0.07485210048700658 0.022681243951922607 -0.05838722093794253 0.02264235325812123 -0.05869438288809218 0.012721416441375281 0.035402825727076516
5664062000.0 -0.04867695153061073 0.07348347933941529 0.020472252769940483 -0.05928629876226021 0.020348269855063827 -0.05973544290230393 0.020472594590120123 0.03456975225223501
5665625000.0 -0.04794467360522151 0.07212478717204267 0.01796488781203824 -0.06020824893133887 0.018166750729438883 -0.06050713666832138 0.026716799480397013 0.03585196240141163
5667188000.0 -0.04736831147778659 0.07077280821517251 0.015452985037119555 -0.06103307167194962 0.015828459168714837 -0.06145243086459112 0.03015686488276535 0.037512335280893594
5668750000.0 -0.04674537117536253 0.06931591624913275 0.012800370266197071 -0.06198964968806076 0.01348542557088702 -0.062167267016419066 0.03279487867570348 0.036780684773681016
5670312000.0 -0.04592023362371955 0.06770526862205324 0.010309905877861058 -0.06251681303616613 0.011107237752190071 -0.06288843852593554 0.034913397749762105 0.03702779409241658
5671875000.0 -0.04511049015633554 0.06651579281832072 0.007693108370377107 -0.06303089940138129 0.008264391015669783 -0.06353594645555444 0.035428187903235674 0.03641367178909929
5673438000.0 -0.04427733520345145 0.06557090363747764 0.005147537831017812 -0.06353855599721075 0.005428489358666225 -0.06406178778936712 0.037705821304217395 0.03594355202192629
5675000000.0 -0.04361089851408774 0.06454165661978138 0.0025580246488462045 -0.06371735804002275 0.00253420967526349 -0.0644522188411661 0.038921376331429516 0.03389627214013451
5676562000.0 -0.0429349317880435 0.06398623506309557 -0.0002670722279581102 -0.06394011375811436 -0.0005397429689606723 -0.06474444941389813 0.04257129598999236 0.03271040655434019
5678125000.0 -0.042539272143829555 0.06337608662890362 -0.0030547345576065884 -0.06388435695276183 -0.0032293268169478703 -0.06468062348022424 0.04384166187159215 0.03267623308441471
5679688000.0 -0.04213759791506214 0.06277958027866201 -0.005952359196820424 -0.06395001375751432 -0.006107706793623333 -0.06438403378131954 0.04653477905653687 0.03345712193440275
5681250000.0 -0.04240977283100913 0.062266128263855504 -0.008822215429076807 -0.06373650657088992 -0.008690988532381365 -0.06413719434306188 0.049200270549136775 0.03488459032224083
5682812000.0 -0.042540726802716713 0.061760311153138236 -0.011444559092273862 -0.06369460542984122 -0.01120923380197451 -0.0637381704157561 0.05255169958048936 0.036585374327772424
5684375000.0 -0.04288434365392115 0.06088725843111218 -0.013973508085511885 -0.06333022862364622 -0.013527359120187809 -0.0633292156013113 0.05379532927988487 0.04247177998962111
5685938000.0 -0.043503769158516545 0.06039481038088065 -0.016382571618981465 -0.06280431708786206 -0.016022598057298255 -0.06287251932797562 0.054531463228686176 0.04989812634522886
5687500000.0 -0.044195207180261355 0.059202724133427524 -0.0187443120365654 -0.06205575587955589 -0.018466310943368806 -0.06243591302169798 0.05065138501539705 0.05565502206956018
5689062000.0 -0.044936939069437604 0.0581267840817665 -0.02121236260870994 -0.06111602584190603 -0.021141735521215475 -0.06171230443728912 0.04202295012578163 0.06110394970114362
5690625000.0 -0.045568205002356144 0.05693924021580413 -0.02386056116146796 -0.059853219746611425 -0.023843315938085672 -0.06090596115133243 0.03407818319680305 0.06331030722335823
5692188000.0 -0.04596362570799565 0.0557265717039975 -0.026617886137310514 -0.058841699464808425 -0.026605393538917436 -0.05992829331097134 0.026728069560557496 0.06261624585693883
5693750000.0 -0.04626745461114807 0.05446474426966645 -0.02927093285016858 -0.05753896140782454 -0.029267232266441456 -0.05857794520216525 0.019815796130477712 0.06087731029973038
5695312000.0 -0.04644820020998479 0.053209750341764665 -0.03189030274268344 -0.05640135271258978 -0.032004114158620554 -0.05708052679380267 0.013952306983889136 0.057596268726627195
5696875000.0 -0.0465368088271424 0.052158100477982194 -0.034417440851427894 -0.05479432000157447 -0.034638002029555075 -0.055134718158411394 0.011129077377949503 0.05398641254256062
5698438000.0 -0.04641958637365881 0.051006843009257945 -0.0367380878666023 -0.05328630257927021 -0.037075831628680125 -0.053279104332288954 0.007499333453774405 0.05194393597054671
5700000000.0 -0.04615698973723017 0.050390539936728915 -0.03914925855619488 -0.051246979114436764 -0.039442185955523 -0.05150860318351147 0.003707817391898329 0.049627913648499514
5701562000.0 -0.04604030260942234 0.04959915196934337 -0.04133715847901786 -0.049324447978034015 -0.041612850958618004 -0.04965095374459463 0.002163583324295403 0.04650853758212117
5703125000.0 -0.04567993060466221 0.04912932229248973 -0.04347571829942395 -0.047356553988699604 -0.04373515575890275 -0.047932206346221556 0.000985294007027963 0.04469497083727456
5704688000.0 -0.045290876580250175 0.04916165055917186 -0.045606934441993714 -0.045385371440259274 -0.045643349757418156 -0.04601572975535085 -0.0024881615519211685 0.04408403824379049
5706250000.0 -0.04519509447420741 0.04910123595923839 -0.047579870568169924 -0.043403463666405344 -0.047628600576790116 -0.04407603513692619 -0.004012021777793655 0.04286953363369869
5707812000.0 -0.04474701446223587 0.04950728632927713 -0.0495080994937678 -0.0413320132269362 -0.049577393765398346 -0.0418750552151152 -0.007498790361823063 0.04279038650140871
5709375000.0 -0.044593157846148423 0.050044932083152846 -0.05126673552584418 -0.03920279423074382 -0.051462904354935335 -0.03954185470292383 -0.011705974225569406 0.0411552981678886
5710938000.0 -0.04471001481021163 0.0506411652560723 -0.05288910933775918 -0.036793152521495724 -0.05334789099228585 -0.037246428166257166 -0.015941461747128523 0.03815236950644032
5712500000.0 -0.04471358676585477 0.05120210710165128 -0.05441841533876718 -0.034287020284424555 -0.055048018424804515 -0.03473927818281827 -0.019116503186715747 0.033562020355672295
5714062000.0 -0.04521932565467911 0.05186996303572654 -0.05582841797058951 -0.03168813279690678 -0.05667810619457387 -0.03216508918307806 -0.02067809515540885 0.02877300207966504
5715625000.0 -0.04578208557497517 0.052592511033194116 -0.05736108006735844 -0.028974690653459766 -0.05805239652640782 -0.029651984192013484 -0.019762660277593568 0.023704208926720625
5717188000.0 -0.04625576598658047 0.053256751701814736 -0.05874517438425504 -0.02637996575392286 -0.05925705669308375 -0.02701990157572802 -0.01718734988068953 0.019888268122978347
5718750000.0 -0.04685017052237854 0.0537978481434435 -0.05984735492619264 -0.02377268139893432 -0.060415019069192104 -0.02415722423607212 -0.013655270327500336 0.01645214842397078
5720312000.0 -0.04764097848384278 0.05427226198196172 -0.060972401231940976 -0.02109979420110757 -0.06142472689561184 -0.021331952854460698 -0.00921803928503536 0.01567078581460523
5721875000.0 -0.04808811255251862 0.05463525700425298 -0.061890141098672656 -0.01837197654696084 -0.06246983242824632 -0.018577012092587265 -0.004696968242700292 0.015597009449147596
5723438000.0 -0.04849348993854956 0.05471132944133193 -0.06269241433009191 -0.015633699644748755 -0.063369118114203 -0.015718630592291748 -4.046620317452554e-05 0.016699965669111902
5725000000.0 -0.04871020023963471 0.054975978780497564 -0.06342469182507603 -0.012974470182679089 -0.06393021573467764 -0.012926514465705575 0.004669540624384479 0.019691615449743776
5726562000.0 -0.04879960428701299 0.05514274769231834 -0.06372673527113366 -0.010030701620245065 -0.06434248422197861 -0.010242099820449822 0.007843579693918997 0.024082952307624837
5728125000.0 -0.04872060327894545 0.05529373854097202 -0.0639585809245708 -0.0072565577212155875 -0.06452899466460918 -0.00756161013060493 0.008980577028538363 0.027189419555163498
5729688000.0 -0.048820612242161755 0.055566707535443426 -0.0641614549975888 -0.004305116814297691 -0.06458043592212219 -0.004793590403519009 0.009275610987969054 0.029889985905387537
5731250000.0 -0.04875684061588692 0.05606358641160426 -0.06422800207273778 -0.0014955914930493003 -0.06468085178360353 -0.002009147418691858 0.01083674338716576 0.032082874501083235
5732812000.0 -0.0484100090268777 0.0564035552874779 -0.06427808219490955 0.0013477827824364581 -0.06470071519907107 0.0009121131188103083 0.013039492838075081 0.03308156609134664
5734375000.0 -0.04817468519355973 0.05696646536344236 -0.06419372476700284 0.003968547934525874 -0.06488275789047473 0.003767164161075661 0.016865968460663856 0.03521008038190321
5735938000.0 -0.048011647068329 0.05767025446798585 -0.06406866008957696 0.006639537433301146 -0.0647922536191085 0.006469139498465228 0.022426167897777242 0.03746343649799123
5737500000.0 -0.04772714595165169 0.05841828831625177 -0.06377249866768873 0.009293700106767189 -0.06457350968239864 0.009268910589195689 0.02471533484528058 0.0405322229657957
5739062000.0 -0.047462152790024845 0.05892837163008925 -0.06331417541940773 0.012002218792654791 -0.06420602372331415 0.012072337353646906 0.02940318515685771 0.047002410695387103
5740625000.0 -0.047521592733294024 0.05975557076932064 -0.0627085667152672 0.014806493202492891 -0.06363203969059643 0.014856247340746082 0.03302053292056097 0.05302696513921534
5742188000.0 -0.04758644513962368 0.06041632628236465 -0.06218482927645246 0.01768424482369183 -0.06277479937016375 0.017698709259857875 0.03441836903890382 0.060524942787502714
5743750000.0 -0.04763515693380805 0.060831589733555444 -0.06143111602464999 0.020257226478516403 -0.0618560973905903 0.020443563667666326 0.036358953001514274 0.06668519248350001
5745312000.0 -0.047791722952080715 0.06151111871466821 -0.06043667366032506 0.022895610665586822 -0.06069172809408027 0.022900986989488 0.03654778487134245 0.07352897960082494
5746875000.0 -0.04787136710761973 0.06199386552328971 -0.059252720664328906 0.02541508357585721 -0.05948934431673411 0.02538415113777772 0.032350976447237674 0.07944664659876487
5748438000.0 -0.04804241331954327 0.06225063714296233 -0.05785814568047921 0.02764729425471412 -0.05825532504417871 0.027531633476263223 0.029154734903481628 0.08429966522999348
5750000000.0 -0.048254142232380434 0.06276192403081432 -0.05623293422628056 0.0298677738167381 -0.05674764732886202 0.029794202834016157 0.025002943394007562 0.08751633792985757
5751562000.0 -0.04843415139142248 0.06279386836004704 -0.05459247816570718 0.03221424347014396 -0.055246290926647235 0.03228386403498721 0.02025438296402639 0.08890248566432114
5753125000.0 -0.04851873834296688 0.06278769256490445 -0.052730177547521156 0.03448196057296125 -0.05347207695313465 0.03447811963710143 0.017025707843517947 0.08541271497543919
5754688000.0 -0.04854851880983137 0.06287691601810357 -0.050967953637752035 0.036792676143346636 -0.051874004427203364 0.03681963281808517 0.015896579603904754 0.08398773730888669
5756250000.0 -0.04866120875584671 0.06290218375086784 -0.04929715787221955 0.03892384074686552 -0.05011727839870419 0.03919198611369364 0.017801790414096214 0.08139727083108991
5757812000.0 -0.04869385643845173 0.06290827880758937 -0.04751027585558222 0.04117716858187021 -0.04811756077024682 0.04149757492711884 0.020120700058839956 0.08100408569390788
5759375000.0 -0.04865327052798823 0.06283758699452104 -0.04584210710872325 0.04285153934704878 -0.04610333242972886 0.04327745141112855 0.022195424052655132 0.08250843380677501
5760938000.0 -0.048415341233547196 0.06287233255565837 -0.043658719026180466 0.04479373592176036 -0.0440847352556182 0.0452958665339492 0.020841404350234904 0.08434327268532898
5762500000.0 -0.0485821927160098 0.0629193834407957 -0.04167107378905019 0.04641823676281204 -0.041845091253781136 0.04682081200720852 0.019189927633494565 0.08772692275365869
5764062000.0 -0.04869296359314244 0.06295661691335908 -0.039405973881835955 0.04815753784514004 -0.03970782078011735 0.0484835103583297 0.015853029366228174 0.0883518238370442
5765625000.0 -0.04884365413442192 0.06289319007695063 -0.037040416337391316 0.049653929234376996 -0.0374388111259579 0.04982198890652266 0.010716827885523873 0.08678716218794061
5767188000.0 -0.04910991335631692 0.06276270049596179 -0.03467658488545932 0.05101728510367384 -0.035240858165480476 0.0512733003168676 0.006683944860003452 0.08630942644291544
5768750000.0 -0.04949531457671381 0.062418478885879154 -0.032242234654375604 0.05218220135139182 -0.032840173092066396 0.052520188784948664 0.001692036450966849 0.08285370701971202
5770312000.0 -0.0498389333515516 0.06228167639311642 -0.029866788207508224 0.05341384934194819 -0.03044045678140054 0.05361548365417629 -0.00030505530165730345 0.07713944971103869
5771875000.0 -0.05009885299227737 0.06187060920120141 -0.02745991808084335 0.0543244182719711 -0.02782111267058243 0.05477402125902622 -0.000840698134827009 0.07105581979442356
5773438000.0 -0.050500169781678435 0.06140314126896916 -0.02486609967064065 0.0553090174054425 -0.025204605079416426 0.05567938764096056 -0.0021655376548957773 0.06280734601820369
5775000000.0 -0.05083475009644847 0.06101542393939701 -0.02211916196006504 0.05598527979770043 -0.022504846850550122 0.05656800159213475 -0.0014583873929303274 0.055270676206670324
5776562000.0 -0.05106468784787239 0.0600018494865366 -0.019411907638495016 0.056712810779228996 -0.019647083063206124 0.057332791919800945 0.0034311691635665986 0.048329652632593784
5778125000.0 -0.05141976189141004 0.0594322923931427 -0.01671167242525791 0.05745532390554799 -0.016950347356610215 0.05793048250500117 0.009680294319431326 0.04393225400309979
5779688000.0 -0.05155574992811979 0.0588894217513177 -0.014114127048379967 0.058026434251270936 -0.014395450013153144 0.0585498046987272 0.01519223736188414 0.04089166292058472
5781250000.0 -0.05162382838041728 0.057986417524462035 -0.011711542630308217 0.058546104242383656 -0.011908629953953333 0.05898285964841364 0.02048302520690816 0.0401247774131447
5782812000.0 -0.05141244828285586 0.05668381862866857 -0.009246580549246508 0.058817219275113665 -0.00950077444456851 0.059278583398791634 0.022808247094877148 0.041372152613523006
5784375000.0 -0.051269341991453866 0.0562347844928287 -0.006761229605373937 0.058944229714672676 -0.0069324742830631165 0.05935302790770962 0.02465950881817933 0.04147705686780307
5785938000.0 -0.05121379728494547 0.055732382861309555 -0.004296209868146776 0.05897086987312891 -0.004389126493950971 0.05945330796847511 0.02490098119538477 0.04180594056929303
5787500000.0 -0.05086114339675434 0.05539548927665036 -0.001680077588329416 0.058819753171853416 -0.0018019780140815967 0.059444417386589336 0.024521279355606385 0.04154389151445262
5789062000.0 -0.05051362097308437 0.055430259021616836 0.0007357983495984523 0.0587629090144378 0.0007227311427024258 0.05929695271997033 0.023477096980651 0.04009385343861573
5790625000.0 -0.050376220882051265 0.055184397717036864 0.003220265539893692 0.05843680507447288 0.0030942141030745295 0.05913539264218861 0.022859522806990936 0.03832746284656079
5792188000.0 -0.05052944233144856 0.05548831553177513 0.00570571561925734 0.05814414683175858 0.005555424165063778 0.05873512238832039 0.023617235655731757 0.03469967290563296
5793750000.0 -0.05064852701502767 0.055548765717618284 0.008178474942097093 0.05768323751460503 0.007988070253829686 0.0582778746997766 0.025785934703182578 0.03210815090112505
5795312000.0 -0.05093351188290334 0.055815303461704074 0.010546377666565264 0.05723403085590562 0.010383821192256228 0.057804445277011486 0.029448595415033703 0.029902990332805513
5796875000.0 -0.0513432290541186 0.05618364340259136 0.012863453161236542 0.05674433740039594 0.013002112098135267 0.057126156094370495 0.03277207744213847 0.028195415891206006
5798438000.0 -0.05193345243059719 0.05665032699078988 0.015311022524084159 0.056026115791427175 0.015307866790242059 0.056714041636574945 0.038060062141287064 0.030061916246394718
5800000000.0 -0.052549003252945946 0.05677874584085609 0.017546971567039084 0.055387848322983414 0.01773634628662156 0.05595626130349577 0.04211993338996967 0.03459926097668253
5801562000.0 -0.053263481891916355 0.05672268202152526 0.01975127033351026 0.054495486211206735 0.019950755422607366 0.0552386113833786 0.04367880821195221 0.04015823188756339
5803125000.0 -0.053937103469409955 0.05677574328990904 0.02197246925594408 0.053589673401405434 0.022076364511182132 0.05415210698175141 0.04244046130385956 0.047576178053530614
5804688000.0 -0.05460337371512083 0.05678197707268938 0.02418510161081056 0.05260958993168241 0.024055845537158924 0.05314019511947594 0.038879254503556164 0.05323244223069412
5806250000.0 -0.05531887160493387 0.05664786283342069 0.02616570499097875 0.051586014801592264 0.026086683583055062 0.05190685196660551 0.03418600007465819 0.05602893509379479
5807812000.0 -0.055836538499110536 0.0563625924969467 0.02801605130596627 0.05029658159653466 0.027938496357970164 0.05068979974172138 0.028683790848866766 0.060330893575995186
5809375000.0 -0.05630730268934552 0.05615847032239926 0.029730395644297327 0.048959661668953124 0.0297787545034378 0.04934045887867187 0.022103253382924928 0.06084331274257593
5810938000.0 -0.0565095742033664 0.056019827612732005 0.031515784573680594 0.04755453316544596 0.03166488540670517 0.0480549443846797 0.017509616896673186 0.06224445668595572
5812500000.0 -0.05652739581270049 0.05594089522406152 0.033222225641832456 0.045945764303347195 0.033554871370234315 0.046759514105385445 0.01139399227763011 0.059879860683648006
5814062000.0 -0.056524444924661625 0.0557156121935481 0.035079953337957506 0.04446997498573207 0.03540985173879304 0.04516612221282578 0.007873044696991804 0.05663369912065102
5815625000.0 -0.05627275806314831 0.05587745390641455 0.03701179954375448 0.04294467145062933 0.03726484406949458 0.043622675653000625 0.004686121293674146 0.054437711647933734
5817188000.0 -0.055796571447255666 0.056216660747707314 0.03878930307275692 0.04118733182690858 0.03915712602460887 0.04185604661823516 0.004810912078388288 0.05254018981896883
5818750000.0 -0.05549963857954786 0.05683415018888762 0.04060582161438812 0.039558843316156535 0.04095553973055496 0.040019865902445766 0.004824130517785212 0.05276774022560597
5820312000.0 -0.05501295046834943 0.057707195579435634 0.042510415688464254 0.03779590409184281 0.04271597122906367 0.03802502263083496 0.004198581119787718 0.053037246687715034
5821875000.0 -0.054824044370185315 0.05880419222034882 0.04402310931616289 0.03596106865690519 0.04426421397261344 0.036060077176212284 0.0034457094356419855 0.05717262605751834
5823438000.0 -0.054572985868136345 0.060074009618729864 0.0454549876451097 0.033802331361669186 0.0456487630212169 0.03410005426813268 0.0006111838966152077 0.06091283335176919
5825000000.0 -0.05479591869355084 0.061439516206693724 0.04652748168375552 0.031718945553554916 0.046878400151670774 0.03215589031269835 -0.0061089868026446255 0.06387847444154698
5826562000.0 -0.05494928244929879 0.06287942110154916 0.04766747718915899 0.029607775268760676 0.047872652369978265 0.03011919783949021 -0.014477351670357977 0.06437870650770182
5828125000.0 -0.05540675270841237 0.06438737044383228 0.04849410249434279 0.027421477900101465 0.048854026857328155 0.02803556361339302 -0.021480264917626845 0.061800555697605355
5829688000.0 -0.056061428927899185 0.06591320722734943 0.04946710146448976 0.025311202074262684 0.04966691082624337 0.025935211937703314 -0.027110820283221506 0.05877897965214718
5831250000.0 -0.05703377446557412 0.06718943768944517 0.05026312621311606 0.02319202468122175 0.050540549446322816 0.023795658803086272 -0.03126974987800408 0.054050180007837914
5832812000.0 -0.058062582100799086 0.06854928817468862 0.05089561167534139 0.02118572704113408 0.051337274293898144 0.021541666579502884 -0.035205784676784646 0.04827988877987002
5834375000.0 -0.05904220826967923 0.06943361603552294 0.05146118719895359 0.019171280458289624 0.052075499610722144 0.0193059785689418 -0.036365254923906395 0.042144636267689224
5835938000.0 -0.060017661436184595 0.07044662876868471 0.05209003814678238 0.016922482588826594 0.052671739078464605 0.01696438479799616 -0.03514997584765808 0.037881693326337416
5837500000.0 -0.06090317118051116 0.07110339771886381 0.0526657373763744 0.014541749880895544 0.053323253537538653 0.014625908368324718 -0.033135563245839376 0.03522547319339225
5839062000.0 -0.06186662711403434 0.07163097499326636 0.05308689596394768 0.012078322394969405 0.05364608460305434 0.012307440125695252 -0.031227195173992493 0.033025314117134476
5840625000.0 -0.06263300347374715 0.07225069413331779 0.053522503318770356 0.009656021475126966 0.05396579696112069 0.009847671676781872 -0.029039219711944814 0.03070660155017371
5842188000.0 -0.06343218638432059 0.07269212704361333 0.05382971848686909 0.007119850341118606 0.05418910594560328 0.00749550289675522 -0.026463467303645693 0.031457933188983066
5843750000.0 -0.06378276485208065 0.07309105841693679 0.053929169790748285 0.004782004477145005 0.054266373745686144 0.005103274866859815 -0.02301338079555514 0.03296149288385458
5845312000.0 -0.06401016628141086 0.07343033259899283 0.053893555388509484 0.0024701101325615648 0.05429533364764268 0.0027295655476714154 -0.022134292524280102 0.03564217751106637
5846875000.0 -0.06430832023646053 0.07379888560225643 0.05374605518749908 0.00019986197394404796 0.05418109318459698 0.0003801480004655757 -0.02189870677518643 0.03717439984148252
5848438000.0 -0.06428181528193394 0.07422968768007221 0.053385732315773655 -0.002045291307701665 0.05400851689919292 -0.001977458071347581 -0.021342187071818928 0.03872389125942959
5850000000.0 -0.06427238730374311 0.07492172881533475 0.05312572559420113 -0.0042308029744113984 0.05375730309782339 -0.0042491406619701 -0.02178071033790213 0.03967285332039212
5851562000.0 -0.06403428920084554 0.075816375598749 0.0527178605488589 -0.0064917584021075185 0.05327667551753407 -0.006437553373033819 -0.021341083672732852 0.03965006464465998
5853125000.0 -0.06353009636571189 0.07682678743195263 0.05217039998597649 -0.008635697150742975 0.05279337611673795 -0.00859866957778396 -0.01993376942501067 0.04038591491102111
5854688000.0 -0.06333736919164429 0.07797525473064561 0.051733789228454514 -0.010805357743699447 0.05220170071182201 -0.010770877305686813 -0.018526901184775985 0.04141022669217688
5856250000.0 -0.06349930011090106 0.07909604288735168 0.05112281864050793 -0.012986454595784031 0.0515142758564631 -0.01291533567752086 -0.017096262203030295 0.04309445138466527
5857812000.0 -0.06334638990801338 0.08070326546950582 0.05037087080051756 -0.01496220559652883 0.05084317743391377 -0.01506969662198075 -0.015959731021602325 0.045084732908531114
5859375000.0 -0.06336374705460301 0.08172734680310563 0.04956289564560779 -0.01701251865564455 0.050058031220398556 -0.017032123624403588 -0.014014166687440528 0.04803597667360706
5860938000.0 -0.06332655035323598 0.08317863258483045 0.048647981672732224 -0.018973106529720674 0.04908078328888917 -0.019115017822668164 -0.013527727961518628 0.05069113901949181
5862500000.0 -0.06375570016535204 0.08429864093220621 0.047612234392672724 -0.020918051026139705 0.0482200422655505 -0.020955609713266685 -0.013258821355241136 0.05414195656149589
5864062000.0 -0.06388745508449471 0.08559160701317216 0.0464975262574166 -0.022675165288520604 0.04703930968131018 -0.02276184535953305 -0.01537526495988044 0.055864081691206276
5865625000.0 -0.06394183119837737 0.08681738717350192 0.04527233325496844 -0.024569428596877704 0.045846951579986604 -0.024632674804425603 -0.01621348589799474 0.056862598030628465
5867188000.0 -0.06387258752504703 0.08759425004370366 0.04407974295232162 -0.026298706009396385 0.04455376000075747 -0.02642977792940182 -0.015882496702490218 0.05749657350284333
5868750000.0 -0.06410867088644048 0.08870018949326419 0.04290621517971836 -0.028073733034605364 0.043314040313920804 -0.0281239107268905 -0.016692554763170792 0.05754716304077049
5870312000.0 -0.06439005919369344 0.08958427817769504 0.04172551266140789 -0.029627258685093416 0.04206966721212329 -0.029786084382045965 -0.015453623593342021 0.05611888554991603
5871875000.0 -0.06420272363693191 0.09047482934375632 0.0403200147313289 -0.031160433298890657 0.040641533258794965 -0.03128227635622639 -0.013929008926704466 0.05740575324291805
5873438000.0 -0.06424462685648805 0.09114204188499733 0.038894161601874255 -0.03264667922811852 0.03923190623787751 -0.03283529208924173 -0.01232011938531714 0.059639569755852856
5875000000.0 -0.06398769440494233 0.0917203017974982 0.03730663949632331 -0.03416049262905568 0.037828829384028616 -0.034345486264935964 -0.010200926913461653 0.059336044645949035
5876562000.0 -0.0642969089100574 0.09215313230417267 0.03573000546753929 -0.035495281197896106 0.036253557946996834 -0.03579548668074875 -0.008638605673931782 0.06197025745452804
5878125000.0 -0.06366843959520503 0.09269828954848451 0.03413100713987793 -0.03692145522221739 0.03462891829246092 -0.037090836243048576 -0.008126829557135963 0.06412336715050646
5879688000.0 -0.06327486535213228 0.09305044196931332 0.032487740994163496 -0.03813037019076946 0.03297919334185962 -0.03837857252818588 -0.007333881106718783 0.06653635812819365
5881250000.0 -0.06299889194853206 0.09424059026332118 0.03093719187336919 -0.03921188526295121 0.031202516567203162 -0.0394660180147349 -0.007680340484864489 0.06793752472217254
5882812000.0 -0.06202737058277797 0.09387676934360009 0.029218994839878845 -0.0401862547905427 0.029455395954373246 -0.040473529185863034 -0.008261703139915743 0.06957098659449736
5884375000.0 -0.06088158023100251 0.09474636890080983 0.0273788667434138 -0.041022922766542236 0.027538860098549965 -0.0413335073523538 -0.012220098478629936 0.06981512340593242
5885938000.0 -0.0598168524985852 0.09572601834252832 0.025419821833866617 -0.04182645984016625 0.025715215062775486 -0.04209889356219466 -0.01350412107181761 0.06783421151056439
5887500000.0 -0.05949773774400109 0.0954699151115109 0.023635794686675298 -0.04256773933499922 0.023898877341131927 -0.04286909493348612 -0.013840501759751187 0.06425412750468923
5889062000.0 -0.057820218146135964 0.09652530565922535 0.021707252251883916 -0.043333775021917306 0.02211066414651756 -0.04362455701848699 -0.012794227855668088 0.05925885813303722
5890625000.0 -0.05801453201892835 0.09742366767363213 0.019875086220454755 -0.044080092167568564 0.020394384448431415 -0.044420506026167414 -0.010024879013938181 0.055758337438470786
5892188000.0 -0.0570808008723689 0.09769862794996832 0.018158837779438577 -0.04484313039828015 0.018494206832481694 -0.04511845231003458 -0.004897999131688583 0.05262073623366861
5893750000.0 -0.056039759730259577 0.09766962559727808 0.01638493570339137 -0.045532938510386964 0.016715609214476672 -0.04582150000292076 0.0006308126737711432 0.05240329032644639
5895312000.0 -0.056230894741022636 0.09856202506397704 0.014574471887295194 -0.04609561709068729 0.014897028103601398 -0.0464528023625706 0.005406365312844881 0.05394385302153642
5896875000.0 -0.05530186594647126 0.09946548244874459 0.012657428294683266 -0.046463992575181405 0.012928178774179643 -0.04693677964074475 0.009173197889004482 0.05564233824621187
5898438000.0 -0.05399927254529191 0.09975663633035768 0.010831134649206207 -0.046708466091110484 0.01096748570485692 -0.047328714841250986 0.012071526893144384 0.058014717056584904
5900000000.0 -0.05267116942327688 0.10064989355067581 0.008886173237567222 -0.047004322851512355 0.009038777443539224 -0.04759506859375654 0.013515709411127817 0.061778505915086164
5901562000.0 -0.05188488576059381 0.10156372120551577 0.006934075849588308 -0.047195664646964286 0.007103469545074416 -0.047734503381437476 0.01346823559148639 0.06439312484424933
5903125000.0 -0.05147200312407206 0.10232160031935879 0.005118418909649502 -0.047308526553653356 0.005332054964441423 -0.04774286811791564 0.012322108536517246 0.06662013257531335
5904688000.0 -0.05062271722484065 0.10324668464551777 0.003334013543956465 -0.047303368632828774 0.003433455429670936 -0.04767738229770898 0.010382783780786196 0.06735268710627275
5906250000.0 -0.050113746243989774 0.10417016207976007 0.0015294199508319153 -0.04720101147402569 0.0015994002023469215 -0.04755389179848704 0.008473972227454534 0.06600459700429877
5907812000.0 -0.04984213454084131 0.1049073100721411 -0.00025370726057403234 -0.047047631687025714 -0.0002483384331175656 -0.04736318151407941 0.00832227868510494 0.06324092267886638
5909375000.0 -0.04938044695714567 0.10600684628332425 -0.002143143193929179 -0.04688295735041275 -0.0021281202450434025 -0.04732293679765592 0.009716675793425738 0.06061665383828531
5910938000.0 -0.04897315511168806 0.10677085132376357 -0.0038888247123539774 -0.04668177277949826 -0.003993813472573528 -0.04711036551201311 0.01362824806737932 0.058512876921252864
5912500000.0 -0.04848747286049807 0.10752969747813161 -0.0058744664373919 -0.04644536806397912 -0.0057413955780607 -0.04689529872768176 0.018082139114847094 0.05768110065038427
5914062000.0 -0.0483979722634599 0.10851166623332573 -0.007681460761914437 -0.0460553059034604 -0.007473614082428063 -0.04662510335054023 0.022597242010583246 0.05935583928743101
5915625000.0 -0.04817705234736992 0.10929503952714295 -0.009386684327437637 -0.0457178622273722 -0.009100482442307035 -0.04616675742602044 0.02600411040114679 0.06269563015677167
5917188000.0 -0.047779193756037903 0.11000709942556135 -0.011058381722501948 -0.04534247781101491 -0.0108835066691336 -0.045753809574445435 0.027425588640931226 0.06722957198797222
5918750000.0 -0.0473804847188807 0.11047980411488828 -0.012645944954209457 -0.04487152590035579 -0.01252868011963144 -0.04534823306926795 0.029154754991252932 0.07099756847585227
5920312000.0 -0.04718572913398234 0.11151673725551102 -0.014133265292415823 -0.04441224749222234 -0.01425148091447087 -0.044879532911366773 0.028451315586621118 0.07581696467855503
5921875000.0 -0.04687448287534308 0.11183122812257469 -0.015622918766595828 -0.043859594005839206 -0.015839921896961512 -0.04443559721757993 0.025690532692272745 0.08062346418255043
5923438000.0 -0.04691267037957063 0.11259741114197923 -0.01724007577124619 -0.04317373755857068 -0.017513080723222583 -0.043723159918531235 0.021096542281873357 0.08287689967675022
5925000000.0 -0.04627140981458976 0.11258580679070782 -0.018854153225526474 -0.042381505123418636 -0.01912872683117324 -0.042985074921732244 0.01592601979437611 0.08145720796015575
5926562000.0 -0.0452908577096158 0.11308787957265744 -0.02068065326149468 -0.0414612539271239 -0.02077636463276468 -0.04197964748636078 0.0123736696871816 0.07866317316903824
5928125000.0 -0.04470525203111368 0.11388961520722658 -0.022432487063372326 -0.040654539533939264 -0.022521197601247073 -0.04090072174177803 0.011516149414674626 0.07305107776966693
5929688000.0 -0.04371877199921511 0.11481098270715058 -0.024212703498688374 -0.03950692812550669 -0.0242882624611846 -0.03978099014510972 0.01351178076558153 0.06675381622171357
5931250000.0 -0.04310170854184523 0.11545370650699675 -0.025910969958614537 -0.038429064078260806 -0.025853601352445243 -0.03858246917560217 0.020603792667499187 0.059990129228753256
5932812000.0 -0.04239400731081197 0.1164591960230835 -0.027420181826164243 -0.03713250198476904 -0.027403905990260668 -0.0374067842367335 0.02622988425273047 0.05739593115963236
5934375000.0 -0.041210171985399155 0.11739909246514155 -0.028916820304290793 -0.035857169258191365 -0.0288108431816642 -0.036165728621492345 0.03253319780837846 0.057925267270566724
5935938000.0 -0.04084762824168878 0.11854076972832636 -0.030371057716552387 -0.03460362740496888 -0.030356919021290372 -0.035129427489702825 0.04045253109139203 0.06231711259207067
5937500000.0 -0.04011565286306989 0.11976662928233342 -0.03169810804800815 -0.03340604517559001 -0.03170676813035391 -0.03401080355021322 0.04424017070183391 0.06656851910397028
5939062000.0 -0.03968932175413557 0.12100526262683747 -0.033011771785613396 -0.03225487667493478 -0.033130056976639975 -0.03298940926341487 0.04682924337931129 0.07103047936656502
5940625000.0 -0.03930704728332079 0.12218222778567822 -0.03427822358252787 -0.03122531427838647 -0.03448181315251272 -0.03181877855475345 0.04672159133219186 0.07815229543136036
5942188000.0 -0.03908056185092614 0.12317668975852306 -0.035526329667601116 -0.030138497119068124 -0.03589753627846188 -0.0306305863272039 0.0481566667407723 0.08423974959236981
5943750000.0 -0.03894000789415751 0.12433180608707903 -0.03668003551225854 -0.02890849766364648 -0.03711749306610916 -0.029214901216613447 0.046634446597521015 0.08925884111786148
5945312000.0 -0.03891410280808457 0.12522015888789148 -0.03807110293789724 -0.027461891005323456 -0.03837484208579805 -0.027699734994925455 0.04446413770404323 0.0918930829274054
5946875000.0 -0.038941716027414065 0.12621456249068022 -0.03873338445394341 -0.026078130775670984 -0.03909679826790523 -0.02601024325805616 0.0396996447232005 0.09232099737516361
5948438000.0 -0.03905479912694684 0.1268252285870967 -0.03965343503411179 -0.024223202984312686 -0.039945014967654194 -0.02426041361490679 0.038067344504793384 0.091099649901768
5950000000.0 -0.03903821878150241 0.1274493542368951 -0.04056558395685037 -0.02224844659907554 -0.040654927307200495 -0.022473511523562716 0.03635533534294363 0.08993246881071573
5951562000.0 -0.03928673357664391 0.12785814881800436 -0.04139853663704711 -0.020285924922949613 -0.04140797084905885 -0.020591502436252917 0.040045262958449714 0.08454453263029763
5953125000.0 -0.03908196241931418 0.12826324415039891 -0.042215354154515786 -0.018352275513396066 -0.04221169665790605 -0.018819261478397922 0.04622595971537137 0.08299357767532721
5954688000.0 -0.039121523680948914 0.12835931079278345 -0.04287368135593911 -0.01641868895779835 -0.04290397814231228 -0.016889514986992732 0.052613501142369734 0.08182270112207203
5956250000.0 -0.038743914177741916 0.1284980372712702 -0.04359660977370192 -0.014665992007697876 -0.04373959028084298 -0.015089313319336377 0.06074423273199629 0.08725015704224076
5957812000.0 -0.03824441821876662 0.1285655384721819 -0.044129123015370295 -0.012874494471718205 -0.04435951466469317 -0.01331996117231985 0.06298943047041872 0.09260629813827677
5959375000.0 -0.03770865842206893 0.12867980185884956 -0.044591462987558644 -0.011212516831288528 -0.04493074811495304 -0.011489691204298429 0.06559222393339983 0.10130181966063985
5960938000.0 -0.036748435191980046 0.1287424208594188 -0.04495792897581307 -0.009650562480993453 -0.04549591116414232 -0.009665223303427332 0.061498340458261365 0.10775541652614418
5962500000.0 -0.03580452592888122 0.12901635308694967 -0.04534837660426569 -0.007717043090122967 -0.04588390213390036 -0.007815353870786811 0.05938835438586463 0.1157930315314616
5964062000.0 -0.034865225927696586 0.1293211331419633 -0.04557903191612131 -0.005827950310612001 -0.04607471773840075 -0.006023799021771117 0.0545358593138649 0.11912291412756222
5965625000.0 -0.033855788174011796 0.12975413309189485 -0.04587283804595141 -0.0041915504600712845 -0.046165956909930014 -0.00435858840273901 0.04985329660929643 0.12394322795087621
5967188000.0 -0.032093938892457985 0.13050031921076155 -0.04604613546263076 -0.0023550136600289035 -0.046246352481266205 -0.002536590344957388 0.04451188194761128 0.12739932686886996
5968750000.0 -0.03104553985882501 0.1312591698185673 -0.04590431871109856 -0.0007538602216180258 -0.046106717910946705 -0.0009372070009164256 0.03885466924553046 0.1303778542855708
5970312000.0 -0.029823577503342878 0.13219957928397322 -0.045801182898967036 0.0009127736380078808 -0.04605308003325651 0.0008131232675943526 0.0315308287619217 0.12993466229103695
5971875000.0 -0.028774136483593015 0.13329524111518984 -0.04559406659121319 0.0026674430582202644 -0.04592862473608539 0.002472890815700508 0.02617671505764198 0.1304078291032192
5973438000.0 -0.027607900584400685 0.13441200414257315 -0.045305907230077214 0.004438883209357326 -0.045695753197663315 0.004286200151077808 0.021426801734043377 0.13047548786889163
5975000000.0 -0.026519705816015152 0.13519940371812117 -0.04502152476328346 0.006173188359459247 -0.045517895690023125 0.005958960538696589 0.018596283834245993 0.12664526126254266
5976562000.0 -0.025621926363948933 0.13644104632519313 -0.044726669976056635 0.007889122662390391 -0.045224731819779714 0.007792939079165919 0.017063997735521107 0.12570898436947459
5978125000.0 -0.025407261053284176 0.137498399163266 -0.04441067816744905 0.009503137427063537 -0.04486529742699028 0.00953515413369314 0.014244339227795387 0.1257567387379535
5979688000.0 -0.024084369919357362 0.13833427367064627 -0.043983085261173886 0.011333178304600107 -0.044360625184851926 0.011264797487452181 0.01091484525159845 0.12597047097473368
5981250000.0 -0.02316237613828637 0.13941856144872672 -0.043423160959527723 0.012963218213911248 -0.04368086578464418 0.012952709264619451 0.007456685783621515 0.12608726269905743
5982812000.0 -0.02266514246000038 0.14013335848898656 -0.042822067611787404 0.014662504325095489 -0.042998995896319406 0.014620830222824534 0.0033033551576242557 0.12380609607387053
5984375000.0 -0.021894264770399706 0.140596922770702 -0.04206022800710614 0.016300755494960652 -0.042328294216266986 0.01621767349680454 -0.0017221753231296286 0.12135456977155173
5985938000.0 -0.02113859922481511 0.14108356947650572 -0.041246910177576854 0.017715622599834575 -0.04169577631229634 0.0177978695915079 -0.0031922491736703887 0.11837859026571988
5987500000.0 -0.02023891422990534 0.14163470964926875 -0.040485451530280735 0.019247377159920573 -0.04098570591585167 0.01919974226230696 -0.003926266548495816 0.11480551469589927
5989062000.0 -0.019350488506702672 0.1416074200300012 -0.03963875321158275 0.02068091598964192 -0.04019372740978078 0.020600624484176766 -0.004440254582191028 0.11179260170851045
5990625000.0 -0.01785640207434744 0.14170874569187153 -0.03872527643088701 0.022106741775082737 -0.03921184887462841 0.022057488235146094 -0.003548757339530609 0.10943479176645299
5992188000.0 -0.016652376190816887 0.14217010438385966 -0.03777588183933344 0.0234881254814141 -0.03827864162477385 0.023563615981103455 -0.0022988598630026428 0.10813708476040851
5993750000.0 -0.014709847389708737 0.1423038239071744 -0.036809854606359424 0.024945690827324472 -0.03723065605782508 0.02507009545297241 -0.0018369060529730091 0.10652516953835814
5995312000.0 -0.01367470995209343 0.14328551112602053 -0.03583707679546465 0.026421590983813987 -0.03624426141407213 0.026595888809655226 -0.0009444660634757183 0.10613979916911816
5996875000.0 -0.011291609188906194 0.14302116469483303 -0.03472747385619413 0.027735301829746685 -0.03510388276509727 0.02798410490425243 9.95344223798162e-05 0.106024645453302
5998438000.0 -0.009454692932903408 0.14335351378794328 -0.03365750224554895 0.028987331558509785 -0.03401751164973935 0.02937573482217722 0.0006490363696868805 0.10589038531436017
6000000000.0 -0.007791648904557491 0.14395581138010216 -0.03243049199333669 0.030276802987905974 -0.03281493934124186 0.030593537892391085 4.472246011528575e-05 0.10607974265503423
