! Created with skrf 1.9.0 (http://scikit-rf.org).
# Hz S RI R 50.0 
!freq ReS11 ImS11 ReS21 ImS21 ReS12 ImS12 ReS22 ImS22
1800000000.0 0.1509930683000111 0.2810919939999019 -0.062242259675883684 -0.13064141923469752 -0.0629013224845698 -0.1304257012103253 0.13625386773215525 0.28572285788772156
1801062000.0 0.15318746993709723 0.2799612594240229 -0.06622830672700773 -0.1288591673755883 -0.06684021751802217 -0.12827607801784147 0.13909097875987123 0.28448391500756326
1802125000.0 0.15512390183024627 0.2790603141706475 -0.07020515470995042 -0.12678123440221914 -0.07046632039586123 -0.12637439213078652 0.14164199748429473 0.28433398654921943
1803188000.0 0.1571078310215235 0.2779876516193048 -0.07419431782743402 -0.12473774681934939 -0.07436093289665498 -0.12414982105425817 0.14414707505505775 0.28420196380062474
1804250000.0 0.15894078269907924 0.27709068717842816 -0.07813575184328024 -0.12245340243866634 -0.07803335973458786 -0.12193132767560357 0.14674275785887228 0.28451366182471804
1805312000.0 0.1607753228898738 0.27602622879444605 -0.08192480024488229 -0.1201537723951698 -0.08182547739593955 -0.11970964525087556 0.14873719991595424 0.285136940147363
1806375000.0 0.1628387315435251 0.27482816125114057 -0.08572666686041512 -0.11762828142686343 -0.08557968537519647 -0.11721992876503762 0.15020601681270332 0.28560187269387133
1807438000.0 0.16478376195745306 0.27373873285391265 -0.08940932033511817 -0.11505129400042302 -0.08922306871244079 -0.11471064760066271 0.15160623921357305 0.28664094865440853
1808500000.0 0.16666715638983604 0.27270320090112016 -0.09301719964189037 -0.1122913667569175 -0.092898272395367 -0.11216706422288762 0.1528370230098255 0.28719834808794503
1809562000.0 0.16866033510049375 0.2713949781911118 -0.09650335290653071 -0.10951581547425275 -0.0963983786831778 -0.10944978588998054 0.15341605693479837 0.2878398541794854
1810625000.0 0.17039202556370286 0.26997871083681324 -0.09982721856400197 -0.10653986837463675 -0.09982351611514526 -0.10628746408271866 0.1536606888825908 0.287888991812824
1811688000.0 0.17262279479771506 0.26860740217674034 -0.10326558035265354 -0.10317594012209858 -0.10320614636745619 -0.10329378781529501 0.15436084422637475 0.28740499422636206
1812750000.0 0.17468678495831516 0.26744644605005813 -0.10619385060618561 -0.09991622115770406 -0.10634404745964758 -0.10002465359446702 0.15448595902652124 0.28662135335692884
1813812000.0 0.1766045351244012 0.266086948964388 -0.10937017968303435 -0.09657773974416585 -0.10954656334879857 -0.0965749091220154 0.1553586587122047 0.285339633293818
1814875000.0 0.17861570587490644 0.2646472249816712 -0.11242451557826506 -0.09293341853357126 -0.112583743843991 -0.09291623013213232 0.15648613701737363 0.28368202231355216
1815938000.0 0.18051118395725355 0.2634877927994386 -0.11539387633458306 -0.08929809673196144 -0.1153243726411971 -0.08926718271589332 0.157966821883542 0.28195320573384575
1817000000.0 0.182403253303461 0.26224275026870253 -0.11796696668800366 -0.0856593125492568 -0.1180178186553045 -0.08552086535548055 0.15962667660083446 0.2801306398760121
1818062000.0 0.1845056263802011 0.26100657225017077 -0.12062145526119604 -0.08176784434421662 -0.12060441050449795 -0.08178561990638258 0.1620189956945735 0.2781979696766802
1819125000.0 0.18650767084761888 0.2598729062899161 -0.1229856510436486 -0.07795958652404732 -0.12298222496655002 -0.07782997439769668 0.16424703539375 0.27685843706970215
1820188000.0 0.1884851702434056 0.25865686094199314 -0.12536286451761075 -0.0740867742481184 -0.12520532791024716 -0.07386272600737609 0.16657668445206938 0.2755659064992328
1821250000.0 0.19044838418844823 0.2576043452792314 -0.12747000441893622 -0.0699138977226616 -0.12723267055709267 -0.06998151080440614 0.16928360295620878 0.2744890504276639
1822312000.0 0.19239925014459108 0.2565862840867704 -0.12923080880981452 -0.06589287310187157 -0.1291414152724498 -0.06588186543019867 0.17102138805580858 0.27330026363045345
1823375000.0 0.19446628410688202 0.25571944115068124 -0.13093728266918148 -0.06171880584455061 -0.1308586195143761 -0.06175326973618908 0.17364085089789558 0.2721755286573172
1824438000.0 0.19645545607625622 0.2548222262635763 -0.13251166609667034 -0.0574044038852742 -0.13259270958428285 -0.057646679501507384 0.17669898281149798 0.2706782443692474
1825500000.0 0.19854808306818753 0.25383274973956393 -0.13385421309216322 -0.0531270253370582 -0.13416425599571927 -0.05346876013923482 0.17951685315597762 0.26913001706860146
1826562000.0 0.20054906655237384 0.253230747252185 -0.135272480176969 -0.04885811513264584 -0.13567269510128255 -0.04925753226042349 0.1827412850940203 0.26772563588211323
1827625000.0 0.20244183254300863 0.2524773864510634 -0.13651726328028957 -0.044646865241969674 -0.13704076974330093 -0.04498554324286887 0.1860759855078009 0.26652293932003357
1828688000.0 0.20449994724056583 0.25153812632586897 -0.13776305581586265 -0.04045516928209922 -0.13839276355816765 -0.04073320824993871 0.18955087338223567 0.2657345393053718
1829750000.0 0.2060786790280949 0.2508754206911435 -0.13884730650842866 -0.03627783491325002 -0.13954317339100564 -0.03639542652486311 0.19362266743293793 0.2645350968240065
1830812000.0 0.2078826263501805 0.2501137720378273 -0.13996093199039952 -0.03212186838712591 -0.14062633693399976 -0.0319988549048085 0.19761698907417335 0.2639897407240357
1831875000.0 0.20952587867866662 0.24914840557946885 -0.14079968631551382 -0.027905248577287167 -0.14143509995412484 -0.027483266807152136 0.20119217874636708 0.26358853128756543
1832938000.0 0.2111317562191843 0.24823478333474386 -0.14155794460171486 -0.023587383598574457 -0.14220590425176283 -0.022774102955732508 0.205197437429735 0.26305186112586226
1834000000.0 0.21247720186119531 0.2474746214011993 -0.14203571173149912 -0.01911777520152399 -0.14254859306669992 -0.018140786193861166 0.2086639724851447 0.26256320116064286
1835062000.0 0.2138790521853942 0.2463534360703272 -0.14246381596708518 -0.014622428799314054 -0.14267416104331007 -0.013308787905607635 0.21249094557402362 0.2621647021251113
1836125000.0 0.21524729521071018 0.24548869633324424 -0.1429026473927191 -0.010033455043430615 -0.14268278390310202 -0.008576971113360357 0.21630917937483365 0.2621953733529426
1837188000.0 0.21656500617307284 0.24429786997460948 -0.1430076964313543 -0.005093633705422906 -0.14257442373108242 -0.004090326864734561 0.21933938646547105 0.26189317990141814
1838250000.0 0.21781117038856807 0.24306338966011132 -0.1430159732977875 -0.0003571967744017412 -0.14231492845193344 0.0004894690546659322 0.22256665053645408 0.2625879476214377
1839312000.0 0.21920905173061828 0.24211656940741733 -0.1426946232270854 0.0045600748285586235 -0.14181476756758776 0.00490979325848995 0.22563772952137523 0.26233452555631637
1840375000.0 0.2207100643513039 0.2407809981393132 -0.14228943229323895 0.009222583726551901 -0.1411510610470448 0.009192544443877244 0.2280653464689833 0.26272693231303157
1841438000.0 0.22229579139027011 0.23960998617138657 -0.14166207116884436 0.013865487550324167 -0.1404295222784856 0.01333225754378565 0.230117232088764 0.26282328468439975
1842500000.0 0.2241083386534668 0.2384114914842968 -0.1406987074829707 0.018376365423081166 -0.13967056735887545 0.017336802103600446 0.23183473974223442 0.2624155236486204
1843562000.0 0.225875789101799 0.2372337080703824 -0.1396034862110254 0.02257896760593502 -0.1387831853662654 0.02118594835520102 0.2333028327524129 0.261645804042753
1844625000.0 0.22807066819345748 0.23591785665654832 -0.13817218797099876 0.026849838814442528 -0.13795994705992046 0.02530547962108057 0.23463009831440546 0.2601496087718293
1845688000.0 0.23000150329044117 0.23459558232870376 -0.1367010254801008 0.030868612865465078 -0.13709994443498918 0.02926731933055983 0.23604320345386703 0.25819069068266487
1846750000.0 0.23186059942474033 0.23321751002436775 -0.1350676615767537 0.034741524357300706 -0.13617908248498434 0.033473294555345964 0.2385647457335993 0.2557582380101218
1847812000.0 0.2337085150481975 0.2318312456507491 -0.13344228586855963 0.038716011807786416 -0.13509579224939797 0.03786695443447093 0.24133715996355937 0.2526359082960623
1848875000.0 0.23562085639717706 0.2304763636902281 -0.13183661710244188 0.04242394682751658 -0.13393662205130624 0.04205447648084198 0.24435786932784245 0.24998055388139295
1849938000.0 0.2372618119006573 0.22911157906663684 -0.1303997176645495 0.046128344825195254 -0.13243739562096 0.046479041608019335 0.24842637508395726 0.2472619088876533
1851000000.0 0.23901383210274585 0.22797706975225857 -0.12875902314118534 0.04976330745597831 -0.13079996340389302 0.050651406037271404 0.25235244552687447 0.24478746485408115
1852062000.0 0.2406818478394907 0.22687231372903804 -0.12720604050028814 0.05316859669921575 -0.12884498523482868 0.054984782467156226 0.25677539286031414 0.24288323550650373
1853125000.0 0.24240851678189118 0.22540756996044878 -0.12542993832333718 0.056869909275033693 -0.12635979491644564 0.05889868884663318 0.26131347776419406 0.24085997162058673
1854188000.0 0.24419612294164864 0.22443356981193033 -0.12386931210817148 0.0603617328554084 -0.1239134363766615 0.06257116606980485 0.2655052269976623 0.2395429540658852
1855250000.0 0.2460248966630297 0.2234558868309811 -0.12198984474573385 0.06408459672665821 -0.12135538691912096 0.06608900129697781 0.269647703272576 0.238613080254894
1856312000.0 0.24782917841306568 0.22190269544428104 -0.11983721465454462 0.06773417662211303 -0.11855637163588621 0.0694447927981402 0.2733797291039474 0.2382721950009026
1857375000.0 0.24995558238408613 0.2208161092184441 -0.11766928620578394 0.07157775712628711 -0.1158448935982696 0.07272225088187244 0.2767913470106804 0.23788668075697333
1858438000.0 0.25167845239902137 0.21935069879646965 -0.11538256141379921 0.07535256459630302 -0.1134199547142008 0.07587572715189049 0.2797707890352308 0.23830778794079902
1859500000.0 0.2536256511039124 0.2176820996922298 -0.11287064264264156 0.07891072484351447 -0.11106753070107142 0.0790233694167349 0.2817442604419377 0.23870015104964168
1860562000.0 0.25546661768879697 0.21604978168061628 -0.11030070851010473 0.08259496458066329 -0.1088110512916808 0.08198717438172633 0.28289956091338203 0.23919231660760712
1861625000.0 0.2570586472550495 0.21413666229046965 -0.1075722354173054 0.08602881775689175 -0.10650504909940017 0.0850879240764824 0.2833842362281645 0.23921523451701493
1862688000.0 0.25880091837780916 0.21207903194785974 -0.10475064264236511 0.08943324424211348 -0.1042959668319263 0.08815650651417727 0.2832062455824425 0.23856635294709458
1863750000.0 0.26018859939479694 0.21022493581093374 -0.10175082575626043 0.09262331945298738 -0.10178814296693278 0.09113488981997249 0.2823637402958285 0.23700118437613793
1864812000.0 0.26180251235284807 0.2081940893462788 -0.09866644920627705 0.09556552563082715 -0.0992457463748392 0.09419958793201129 0.2811474649876143 0.2343324239266116
1865875000.0 0.26338578293662274 0.2062226862094415 -0.09536260325013673 0.09853465923860551 -0.09635048877764943 0.0972263465324982 0.2805823249238229 0.23053962632481645
1866938000.0 0.2648031064405444 0.2039057040043489 -0.09207091318702286 0.10108341201420823 -0.0932036590681091 0.10023645399005647 0.279804541634389 0.22579521318959261
1868000000.0 0.26636774352136233 0.2016797180084317 -0.08847255492189841 0.10362286962102239 -0.08981046714962226 0.10325041810968841 0.2804857990897397 0.2202374046600362
1869062000.0 0.2679963696905112 0.19931355357096597 -0.08483974564930179 0.10576242933304333 -0.08614545691606112 0.10593083353133423 0.28166860572439373 0.21364835930631795
1870125000.0 0.2697548636050057 0.19715845233672427 -0.08124586429327554 0.10774072601980395 -0.08231949751061783 0.1084677956619357 0.283661200809256 0.2065844787958169
1871188000.0 0.2718305651661028 0.19476210954871 -0.07774904052332952 0.10976828512467561 -0.07863074409380832 0.11077617315550925 0.28689527580871166 0.20014667922479934
1872250000.0 0.2738883201051911 0.19205209999382541 -0.07406003743798492 0.1113847911138832 -0.07468040782991309 0.1126264206385027 0.29038633766013155 0.19334147900430435
1873312000.0 0.2758836926308404 0.18942071929666238 -0.07042773929760654 0.11300160791643521 -0.07091175822739539 0.11427877771227425 0.2948789899740072 0.1874590101566896
1874375000.0 0.27834745608008715 0.1865768501413407 -0.06696567612040027 0.11445284460215506 -0.06701283486123909 0.11581538303025739 0.2994720771625332 0.18240046764017348
1875438000.0 0.28071248956434847 0.18383542359906685 -0.06336483837925556 0.1160248001155349 -0.06330387779753029 0.11703294143297932 0.3044106774313451 0.17752783789550794
1876500000.0 0.28289283730657044 0.18087060035401387 -0.05985984422919233 0.1173234376570186 -0.05950713075745701 0.11827277377342199 0.30886709231298715 0.1739413022537195
1877562000.0 0.28492497298325653 0.1779824857763051 -0.0562301528906131 0.1187413843849886 -0.05585998549673607 0.11945946478494239 0.31307592989554117 0.17151409533839626
1878625000.0 0.2870841747331729 0.17521016140214132 -0.052550716768398675 0.1201127604920067 -0.052106173853405734 0.12065554759909067 0.3164873402309397 0.169134799826479
1879688000.0 0.28915783685053054 0.17230618675435178 -0.04891458640320979 0.12158148818454946 -0.04824901981863775 0.12193528785437106 0.31920212488466887 0.16733233419877547
1880750000.0 0.291001218746846 0.16960236820184443 -0.04527404307980047 0.12297858319498597 -0.04440524659435938 0.12320821055039635 0.32128619141959025 0.16594382057898202
1881812000.0 0.2928391121272174 0.1668334602480346 -0.04146099496743044 0.1244687743854216 -0.040492114159739113 0.12444286437836313 0.32257198825500444 0.16479820224402697
1882875000.0 0.294574296410421 0.16414668643419142 -0.03749530012840214 0.12577249003406454 -0.03663745583093323 0.1257112730295512 0.32248189527376864 0.16354099590115487
1883938000.0 0.2964230038487592 0.161407762354042 -0.03358749292955413 0.1270180558811695 -0.03279807902311616 0.12674434858387193 0.3214106913876592 0.16130291914644557
1885000000.0 0.2982103891829515 0.15870382322562238 -0.029633197551664107 0.12800959217902563 -0.028916282768921046 0.12747759083757954 0.3195179130545374 0.1582199124555081
1886062000.0 0.300006684835551 0.15596236314903272 -0.025356892715465294 0.1289139565386543 -0.02505678087444826 0.1282405919719493 0.31874106842750294 0.15419060683028116
1887125000.0 0.30182082489000517 0.15278348782464038 -0.021240115676945788 0.1293715127163834 -0.021250844405508774 0.12856323842222242 0.31642814488356236 0.1488757390412681
1888188000.0 0.3036135573517896 0.1498273563414961 -0.017073126960971095 0.12978511168386586 -0.017393198116561884 0.1290403213996371 0.3149675088109931 0.14239265046667912
1889250000.0 0.30549681450949046 0.146460170942784 -0.012855633987587288 0.12978234090564653 -0.013614636024094835 0.12902876698578744 0.3144812710692851 0.1351839465472227
1890312000.0 0.30677337845494534 0.14316928741079613 -0.008895119806341683 0.1296450858705319 -0.010037100883622304 0.1289153767769405 0.3147448346470372 0.1271005468183011
1891375000.0 0.30834074899326025 0.13953545369639983 -0.004986977236608825 0.12923938047640765 -0.006287577909398059 0.12883989809116522 0.3169501513120822 0.11947531546142375
1892438000.0 0.30966449430544385 0.13611027805567985 -0.0012971493415532807 0.12849955146797606 -0.0026789762838971914 0.1286265764958047 0.3190718432480895 0.11118432944467661
1893500000.0 0.3110364357442014 0.13250301970726674 0.0023892887152374416 0.12786844593406427 0.001030545357505054 0.12834056787593764 0.3226095573867473 0.10406955172148617
1894562000.0 0.31205763626095795 0.12903511607563678 0.005702553607276537 0.1269926288154619 0.004666642747719435 0.12793967408486734 0.32695403706531434 0.09783954630354277
1895625000.0 0.3131193515381269 0.12549538368696692 0.009009639385518232 0.12603442495465197 0.008353772556654912 0.1273963698470393 0.3314596815973612 0.09255849944698581
1896688000.0 0.314253371057819 0.12168913689119892 0.012307576757839027 0.12512122150208724 0.012143871073417387 0.12669880534344832 0.3359250190681126 0.08858577777033336
1897750000.0 0.3149834523992523 0.11818798059709294 0.015664530169121036 0.12414691538517969 0.01589336577044288 0.12577571221011583 0.3401005827157096 0.0852176789110887
1898812000.0 0.3161884436683543 0.11474058929900736 0.019039097558933425 0.12313057410234968 0.019637442022189863 0.12487349458703742 0.34388115211337544 0.08334049703812992
1899875000.0 0.31700833488278257 0.11095419658188165 0.022437979161352345 0.12216164345000373 0.023354047983278507 0.12342362035216625 0.34617644316751417 0.08222901373628355
1900938000.0 0.3180950548780733 0.10741008030653715 0.02589657298293999 0.12125986088218736 0.027129137248709176 0.12196994181117601 0.3476425777050325 0.08171404714905715
1902000000.0 0.31907039081819916 0.10367636070909675 0.029371224641172304 0.12015612452066371 0.03073210862921358 0.1204152676526425 0.3476451042055509 0.08104901987125485
1903062000.0 0.3201753998836719 0.09988286853093971 0.03305824092982268 0.11891049978081217 0.03424921451789723 0.1188241455115582 0.3468244261278634 0.08090206128026332
1904125000.0 0.32113438073175 0.09605371825103527 0.036803500763287776 0.11764196812344921 0.03780626246489288 0.11710242728897445 0.3448994014206974 0.07956274718834508
1905188000.0 0.32239916480351605 0.0925088640596265 0.040397452486795736 0.11626907127917784 0.04105538592748992 0.1155066920328636 0.34187896570996174 0.07827402790910559
1906250000.0 0.3232474704050565 0.08864414209369369 0.044040188189431916 0.11468769676419854 0.044363180136310576 0.11382135204520676 0.33904301793280317 0.07575015871160236
1907312000.0 0.3240649115290273 0.08522448816358258 0.047484712004806806 0.11313260788883565 0.04748104946456329 0.11218334957973901 0.33545211309926243 0.0722420039145627
1908375000.0 0.32487530518135854 0.08168054722447558 0.05093461327688723 0.11137034041533936 0.050675101741493915 0.1106283388443136 0.3318933235919108 0.06799210525997715
1909438000.0 0.325553416828767 0.07850570317199716 0.05421247203424883 0.10932496518974538 0.05383301954920358 0.10897435418664655 0.32843947277369684 0.06258164924135594
1910500000.0 0.3260965983944703 0.07516838563671253 0.05735717918997918 0.10734729547193594 0.056796428060273484 0.1072189210778968 0.325341641526656 0.05659072136681604
1911562000.0 0.3266376934539026 0.07197597846552918 0.06028149652594024 0.10529827311806485 0.05980540119854551 0.10546735540935026 0.3233303822639335 0.04964247333211349
1912625000.0 0.3266795314371581 0.06880194918043891 0.06325567800231265 0.10309225505729475 0.06265016691924608 0.1035638381646097 0.3224345564780108 0.04280903477111522
1913688000.0 0.3269934399796971 0.0657835861250747 0.06591605131085584 0.10092322954587131 0.06562178897377027 0.10161319574833211 0.3227210555629176 0.03627650935391688
1914750000.0 0.3269115134362801 0.06267639937004513 0.06862793182153937 0.09881609474708672 0.06835241133953728 0.09940293064888438 0.32351894729875225 0.03047273434001624
1915812000.0 0.3269960937690699 0.05955294044960881 0.071096728230496 0.09656393223295555 0.07108857516780305 0.09718324445706975 0.3246815419607808 0.025321815062097824
1916875000.0 0.32672110090422657 0.056660921556422286 0.07354125252598281 0.09424900017819154 0.07367984405604341 0.09486893120426898 0.32667037135185595 0.020966226456492147
1917938000.0 0.3263401962666207 0.053453255205214975 0.07600274389973448 0.0919483333635172 0.07618638394537453 0.0923917364539509 0.3283736021660753 0.0173952815621955
1919000000.0 0.3260566779411661 0.05048454573724249 0.07818772843077455 0.08942844729623388 0.07858923894228974 0.08981023135825227 0.3291251860155147 0.015288082586003846
1920062000.0 0.3255965593602195 0.04749583192354547 0.08051872553996729 0.08686907330752942 0.08094834363795013 0.08719577527670168 0.33027894918014683 0.013063718844833658
1921125000.0 0.3252057297316601 0.04448155508367249 0.08257596964178351 0.08443755598117123 0.08313203922091077 0.08443226804335809 0.33015342114896945 0.011857560199517832
1922188000.0 0.32449121832289596 0.04112105086404355 0.08481764197622903 0.08156330385199637 0.08534127554271723 0.0816671346417297 0.3300305049414008 0.010898058241775503
1923250000.0 0.3238513258084219 0.03832674011023212 0.08692781773082882 0.07870853549187301 0.08745567134803466 0.07880286972221005 0.32811795289789825 0.009923799480286743
1924312000.0 0.3233123643525267 0.035213556583272305 0.0889713987057552 0.07581943383578534 0.08931846077732776 0.07595544737167548 0.32518379798774105 0.009278496882208451
1925375000.0 0.32265537778837455 0.0322551533370212 0.09080635731438567 0.07280472556033275 0.09124414052768982 0.07301543151396786 0.3216829405748475 0.008268583030033303
1926438000.0 0.3218298406678383 0.029103668797721704 0.09260057300153166 0.06979760552756059 0.09306535124373184 0.06997269974959379 0.3176910662875191 0.006115876586690083
1927500000.0 0.3209474396628381 0.02605741430531221 0.09420924831753957 0.06677787244312007 0.09467701576214896 0.0667616645659896 0.3130604195012502 0.003656948657245625
1928562000.0 0.32022973054799614 0.023151349225363074 0.0959306033579261 0.0636855738797482 0.09626698031651737 0.06364105000246605 0.3080782185297131 0.00028112864440018063
1929625000.0 0.31941667001351265 0.02000890009184089 0.09738578300820824 0.060623946504841465 0.09774617181216247 0.06043972680706287 0.30297418658300984 -0.0041604937585262665
1930688000.0 0.3183723100771282 0.016894525374201497 0.09875317989962788 0.05758652146947245 0.09911830629232442 0.057307698766881944 0.29880135028458366 -0.0086925507076915
1931750000.0 0.3175839307030961 0.014056566556163564 0.10013735081042029 0.05449179605537326 0.10040600698559736 0.054274174638414135 0.29495031635322855 -0.014382217818655233
1932812000.0 0.3165651210103105 0.01080071604688553 0.10127683241890598 0.05151318541143648 0.10158708303052004 0.05109171217475145 0.29161587277330414 -0.019885423024827924
1933875000.0 0.31549487285705086 0.008071900226385697 0.10237079661803206 0.048473794850526164 0.10271052208629282 0.04807167157512551 0.2890988751964426 -0.02553563403365781
1934938000.0 0.3145599669710812 0.005084744637627535 0.1034942460357284 0.045349575736127315 0.10370585145171463 0.045116873876185265 0.28738510892043534 -0.031008272558512573
1936000000.0 0.31348828028496795 0.002277739793708623 0.104483688317063 0.04234551230299514 0.10463853567456345 0.042171771134569484 0.2865406682308225 -0.03620267274773126
1937062000.0 0.3123579011719757 -0.000374293170965155 0.1054045090456014 0.039157212147204676 0.10553633120297642 0.039142974765925306 0.2860684893759999 -0.041072914991605154
1938125000.0 0.31125218912777286 -0.003072415588854867 0.10625285631147566 0.036047966922616845 0.10618273589155594 0.036025537106394646 0.2859544860256865 -0.0451141739339525
1939188000.0 0.31017372167977286 -0.005511438224936055 0.10688542329228343 0.032942099735590695 0.10705742410560934 0.03289816729632321 0.2863981738392502 -0.04845230658103617
1940250000.0 0.308894227472017 -0.008148966793003344 0.10755693428764328 0.02952725599249895 0.10757801154062273 0.029648892113804746 0.28661701144089535 -0.051242555942463554
1941312000.0 0.30751505817083197 -0.010568443774156883 0.10797402758330961 0.026381072988335037 0.10801323447027268 0.02642709377882755 0.2866017034581373 -0.05359443729655793
1942375000.0 0.3060914056515727 -0.013115242418735353 0.10829533743282921 0.023170384154816474 0.108303517605626 0.023104350582151836 0.2863929784558671 -0.05527052898508788
1943438000.0 0.3044606514490807 -0.015479742924226787 0.10848654280612706 0.01991057850878456 0.10848645210751552 0.019951994316237183 0.2858325622366329 -0.05665043533924954
1944500000.0 0.302710970365648 -0.01794795296792293 0.10858129293519957 0.0167796882176019 0.10851153405456054 0.01671903263644286 0.284612075018272 -0.05767779809367113
1945562000.0 0.30056581343203503 -0.020335354869810054 0.10834430171466895 0.01367056042194804 0.10839522448975539 0.013662132116843953 0.2832016297445732 -0.05869761708853687
1946625000.0 0.29899970027020095 -0.0227445197153219 0.10815222466404237 0.010531763343073455 0.10827492530596337 0.010665041166056806 0.28099281486292355 -0.059582162347814
1947688000.0 0.29679123012409514 -0.024881692675404944 0.10781879894324059 0.007571601596437428 0.107996224825518 0.007711334802902514 0.2785257942940632 -0.06059982617875175
1948750000.0 0.29463075465245137 -0.027288434453676978 0.10727987195735107 0.0046036634738208055 0.10762915761275932 0.004844972875144935 0.2755840418054546 -0.061536088633906104
1949812000.0 0.2926105466993484 -0.02971865632602058 0.10689136203191338 0.001609809302577837 0.10732918659566625 0.0019419689561553466 0.27239076015324903 -0.06301865447081738
1950875000.0 0.290305041563848 -0.03193590237374061 0.10638619258531112 -0.001276680096585968 0.10689174910576113 -0.0008605984721242364 0.26948070280745334 -0.06468301478611332
1951938000.0 0.28848031264800406 -0.03431569846873959 0.10604488553845426 -0.0039652729490772115 0.10663067817442061 -0.003770920749653643 0.26639600182986395 -0.06667211620126169
1953000000.0 0.28628472741629946 -0.03672040506027566 0.10559883446362714 -0.006743873737489754 0.1062493524589577 -0.00669718641932394 0.2635851239656459 -0.06851650303132462
1954062000.0 0.28441876421415596 -0.03908274692745723 0.1051479765016839 -0.009548842426208239 0.10578517953387928 -0.009562352462230212 0.2608082944792854 -0.07069596022526911
1955125000.0 0.2822019002358495 -0.04149017712675301 0.10454766690327363 -0.012160375847048524 0.10523167180329794 -0.012421048059977352 0.25833741556627643 -0.07284012426997385
1956188000.0 0.2801805056270109 -0.04390488677989615 0.10402903289138352 -0.014740774357736157 0.10453514140152113 -0.015346500132252682 0.2560819273501345 -0.07499815342511604
1957250000.0 0.2780365140103144 -0.04627321798512194 0.10321766649625859 -0.017486328303141542 0.10382835860914189 -0.01827569652530213 0.2541149514146085 -0.07727191464629263
1958312000.0 0.2761346075462423 -0.04850323182416891 0.10242662174930606 -0.020106466117964125 0.10283612208659536 -0.021088693558818268 0.25195231336185775 -0.07924825900442216
1959375000.0 0.27395755548757467 -0.05083513596795156 0.10161337309190807 -0.022848764540679713 0.10168405132587878 -0.023979046827883047 0.2500802802082924 -0.0815348052219871
1960438000.0 0.27173581390944834 -0.0531217134448213 0.10068069054163153 -0.0256181960929553 0.10051199023248837 -0.02665184628770844 0.24835264503014903 -0.08340760893232715
1961500000.0 0.26962093966549844 -0.05507488415262828 0.09970550521669731 -0.02839037788862285 0.09926928008053681 -0.02920863542373493 0.24670166784666855 -0.08535663225947283
1962562000.0 0.26757811453993813 -0.05723843239176024 0.09859398080267567 -0.031051786043620168 0.0979534597148978 -0.03167345968370246 0.24497048679881553 -0.08727538069139387
1963625000.0 0.26557578764370976 -0.05928534343216082 0.09746948233982985 -0.033953764352274624 0.09671958130031719 -0.03390664503813983 0.24337323635564628 -0.08857173239101782
1964688000.0 0.2632694949700815 -0.06107889573046257 0.09630714696764435 -0.03646354933967442 0.09541531987604532 -0.03613819043711057 0.24210864398068777 -0.0902201635032865
1965750000.0 0.2613252829833131 -0.06282627377581189 0.09497340926456552 -0.03894101637260732 0.09413827038623478 -0.03821850669592463 0.24025586180347241 -0.09149067677770037
1966812000.0 0.259156753296879 -0.064635558004988 0.09340238524985112 -0.04119004489910048 0.09309553591553657 -0.040341291353734265 0.239166919848771 -0.09251481670699004
1967875000.0 0.2574555110973789 -0.06653991338935224 0.09195959432595746 -0.04340954444518641 0.09186096980406477 -0.04251070396381086 0.23709908102155142 -0.09344788472754882
1968938000.0 0.255415194838689 -0.06827000305422162 0.09025860455244752 -0.04560557019970104 0.09070430717489196 -0.04481876419234201 0.2355714133474672 -0.09363734813165155
1970000000.0 0.25346195958276563 -0.0698553801715151 0.08869948529695336 -0.04770375365792391 0.0893889352592134 -0.04706700638635777 0.2339738714491093 -0.09411984472377159
1971062000.0 0.25138364994362017 -0.07168026371568362 0.08705996710132427 -0.04978591626389591 0.0882061797361081 -0.04950649346009486 0.2320960660004461 -0.09405115681166369
1972125000.0 0.2493526101679685 -0.07330270313216515 0.08555164766675537 -0.05168637192343181 0.08679933180980423 -0.05193693853044778 0.2302518906839123 -0.09382522517886986
1973188000.0 0.24731707394755084 -0.07502976384248226 0.08385132985326826 -0.0536559579058701 0.08504606049312471 -0.0542535346846593 0.22746099689705715 -0.0937565106960301
1974250000.0 0.24499984843077532 -0.07658106149170575 0.0823863733645192 -0.055712352241131816 0.08331685932806052 -0.056567584984298654 0.2245267848325656 -0.09338076131774672
1975312000.0 0.24282232547265423 -0.07831113890235811 0.08073340579010317 -0.057646813583924886 0.0814813562271639 -0.05865633968646892 0.22143714328792863 -0.09319743861003918
1976375000.0 0.24048411010924947 -0.08000653702405801 0.07900146078698718 -0.059587694641406785 0.07948139721702012 -0.06072668187146357 0.21781799536032578 -0.09323904056268749
1977438000.0 0.23812403932782594 -0.08153186889369496 0.07745971556025287 -0.06153327208202635 0.07743848855795268 -0.06251704246208888 0.21413247874762578 -0.0933846085687796
1978500000.0 0.23583462183564494 -0.08304573014771806 0.07567221247524845 -0.0633056003446367 0.0753207230682286 -0.0642236880438212 0.20994121938303625 -0.09427786279119793
1979562000.0 0.23353500531549706 -0.08451493487526386 0.07384640103003544 -0.06513062875791863 0.07322638552612505 -0.0658285365441796 0.20576970334846273 -0.09496692282274669
1980625000.0 0.23132112675866529 -0.08637844018061815 0.07191178232991076 -0.06679321254979738 0.07109922970867673 -0.0673135920086742 0.2016071269235717 -0.09646364584744892
1981688000.0 0.22924769945041185 -0.08782406009194556 0.06992667365584143 -0.06850053817821491 0.0691328150298748 -0.06880644793354829 0.19762016672603716 -0.09830364254811096
1982750000.0 0.22705193676248941 -0.08950089495364551 0.06784338746403033 -0.06999497314113931 0.06715063200221659 -0.07008808890574829 0.19337809611370257 -0.10074548744152699
1983812000.0 0.2249446560828748 -0.09088159627748225 0.06574714279770916 -0.07171353631877882 0.06523230288082871 -0.07149829146245695 0.18989041397704068 -0.10304044238442994
1984875000.0 0.22310997949743858 -0.09243959192319429 0.06361974855429718 -0.07325569137415311 0.06335600010733786 -0.07296702831075509 0.1868103583973153 -0.10646492128951698
1985938000.0 0.22134050034473 -0.09393250559749446 0.06153761199790372 -0.07469660439484187 0.061559936532449205 -0.07431768816916899 0.18408810194037042 -0.10934572376544364
1987000000.0 0.21948330410997557 -0.0954393368358903 0.05937928002669616 -0.07607733669165201 0.05961162708408994 -0.0757793834191265 0.1822418907102704 -0.11244637281941189
1988062000.0 0.2174509057416435 -0.09678041014429234 0.05722753048689585 -0.07743507982992587 0.05772023666862433 -0.07717296415303246 0.18092334329151438 -0.11509098157598455
1989125000.0 0.21556535694999845 -0.09816447543352563 0.055173870057924644 -0.07865270511700556 0.055690412564913826 -0.07859934932107236 0.1802610477401891 -0.11731382738329102
1990188000.0 0.21379760846859883 -0.0994237602525041 0.053155397344458545 -0.07979445158325857 0.053554570796033825 -0.07994835393495082 0.18014418368658722 -0.11889657293594134
1991250000.0 0.2117813640241214 -0.10073103443753617 0.05080675093434182 -0.0810178831307765 0.05127876710432783 -0.08129835307497377 0.1802565801673943 -0.1195024633025195
1992312000.0 0.20990781597084068 -0.10170498846868438 0.04887175566396688 -0.08206862814219852 0.04904233429376967 -0.0824310973044956 0.1806124503854204 -0.11936689370003745
1993375000.0 0.20806842045026805 -0.10278562316213066 0.04665689602940445 -0.08313197539362736 0.046750830858988714 -0.08366561720313757 0.18041088637246444 -0.11887433884486406
1994438000.0 0.20612136699272363 -0.10354342481922983 0.04451038996705669 -0.08415285366220067 0.04435715503565206 -0.08466227191238997 0.17991166563559188 -0.11740167958904296
1995500000.0 0.20415177629382064 -0.10437568878176404 0.042268916057700084 -0.08520835324151127 0.042064631973201295 -0.08563279460608936 0.1786910886966599 -0.11518862013798459
1996562000.0 0.20213841643622332 -0.10529447990964613 0.04008993323589774 -0.08618146141777079 0.039783775714667687 -0.08654390926953492 0.17684434358083564 -0.1129827974888612
1997625000.0 0.20015104460499009 -0.10580387428447567 0.0377962796713919 -0.08698958036134503 0.037485923845942 -0.08728459425447832 0.17406674040151884 -0.11076528515507905
1998688000.0 0.19822904391426668 -0.1063871094893338 0.03548722617707949 -0.0879070941151672 0.035408795973499246 -0.08800093489159218 0.17045490846537448 -0.10883486568273595
1999750000.0 0.19625552061715945 -0.1069461144803057 0.033294140701360414 -0.08876115776576586 0.033392519073391226 -0.08867293540307133 0.16633748319326097 -0.10709674976295706
2000812000.0 0.19419953276095708 -0.10761536962934737 0.03113403658392428 -0.08925097537373787 0.03115561948911187 -0.08932584961829348 0.16186305837433881 -0.10618991150489762
2001875000.0 0.19209729869695202 -0.10789809592816671 0.02892359853558487 -0.09001597132073437 0.029070437748297085 -0.08995621122691964 0.15707546181340276 -0.10643771515747333
2002938000.0 0.189792228894988 -0.10841095077898881 0.026651594604718953 -0.09046805884806829 0.02683725271312187 -0.09054124560157423 0.15199329222155364 -0.10689556751150438
2004000000.0 0.1876081788594922 -0.10895519289103467 0.024451030700089787 -0.09101069661230814 0.024678617701481397 -0.09113426954128283 0.14761985064023406 -0.10807996165003772
2005062000.0 0.18532962000402578 -0.1094539859153539 0.022371197156237584 -0.09145218588840351 0.022446786918957816 -0.0917333896298369 0.1433863703829288 -0.10999899445198578
2006125000.0 0.183100953549735 -0.10976682658743926 0.020199234929638078 -0.09188450930093868 0.020152121801420442 -0.09226126297121025 0.1400755197025486 -0.1125498074567347
2007188000.0 0.18065563990663908 -0.11025039488197251 0.018005347766653603 -0.09226222541402226 0.01784658537225547 -0.0927385558203979 0.13739980454295703 -0.11507752722063219
2008250000.0 0.1782268173871244 -0.1104392812716289 0.01572735673824138 -0.09256474210403759 0.015504616029151878 -0.09311979197744631 0.13588362659122055 -0.11726830052103486
2009312000.0 0.17593707001043685 -0.1109249473120938 0.013451410909101192 -0.09284489762673073 0.013103413195750082 -0.09346804925578701 0.13495024571370662 -0.11903979027946211
2010375000.0 0.17340559253623714 -0.11126729096911606 0.011221743487323826 -0.09315384408155711 0.010770291675305755 -0.09360824640537431 0.13458689787034736 -0.12119682519612326
2011438000.0 0.17126999812821647 -0.11150039435586868 0.0088819986123043 -0.09340988819973207 0.008427457746726699 -0.09379910963011123 0.1348196705247582 -0.12104977562799567
2012500000.0 0.16894194662457895 -0.1117653724951829 0.006497000518348333 -0.0936937865256083 0.0060702694233029 -0.09378535851918669 0.13560319865316722 -0.12116354535927383
2013562000.0 0.16678647499372024 -0.11196321451508323 0.004018442027062764 -0.09384977177153214 0.003676170959101044 -0.093784750917035 0.13582035663238934 -0.11980228801588086
2014625000.0 0.16474928743988582 -0.11213999683311701 0.0015517395092174895 -0.09394559279842772 0.0013047528503351087 -0.09375343689293096 0.1361530076949512 -0.11744824279669562
2015688000.0 0.1626140404642308 -0.11220955259808843 -0.000932224115724223 -0.09401630676680643 -0.0010465970339268832 -0.09377065897201971 0.135918690581924 -0.11407437432522807
2016750000.0 0.1605243034856075 -0.11225774664422274 -0.0032731179443929413 -0.0940308417763801 -0.0033383166661758836 -0.09372950617669251 0.13498264453561645 -0.11006773185089117
2017812000.0 0.15847424757335526 -0.11214854244082194 -0.005811523706940989 -0.09394079485546465 -0.005754536404808247 -0.09372005631958456 0.1328624834259496 -0.10607609472678366
2018875000.0 0.1565027027884121 -0.11203315445494653 -0.008157412851337626 -0.09377040758872758 -0.008174140227725363 -0.09368532077093253 0.12961547363055753 -0.10142917396655594
2019938000.0 0.1544851832727241 -0.11181850936899891 -0.010616873765523371 -0.09353733068474035 -0.010504863441992432 -0.09362956689818383 0.12529215565391366 -0.09734314324914797
2021000000.0 0.15245273972864432 -0.11147322518982762 -0.013095977966508996 -0.09344724315478792 -0.012945078160863852 -0.09354522464933299 0.11991150561333774 -0.0942560639343735
2022062000.0 0.15042728959221857 -0.11091005888115398 -0.015443515034232823 -0.09306389739190415 -0.015312658851305934 -0.09334647644602391 0.11408928638537408 -0.0917001092619859
2023125000.0 0.1483948202707136 -0.11025398652209169 -0.01776102948920054 -0.09282478288701383 -0.01766142100033688 -0.09312383551050185 0.10781509827737308 -0.09050295556496324
2024188000.0 0.14637914462042434 -0.10947323437158483 -0.020165734518223784 -0.0924420803132557 -0.019944243089086506 -0.09286320519228351 0.1018338202301111 -0.09073453558213485
2025250000.0 0.1441985492114428 -0.10883513849303152 -0.02247366991496092 -0.0920701901757264 -0.022406506968673627 -0.09249589219340124 0.09605112779400084 -0.09102792890920403
2026312000.0 0.14221955818505666 -0.107681271833809 -0.02466573460745893 -0.09175761692642483 -0.024760185599503017 -0.09216593974198214 0.09109575331627975 -0.09312477777789657
2027375000.0 0.1400389563942397 -0.10679745250744721 -0.026918839577403125 -0.0912072018568769 -0.027032820637097974 -0.09165075436557632 0.08728080270126712 -0.09517802660957303
2028438000.0 0.13790450394719397 -0.10579807879847317 -0.029104534938089698 -0.09077869647602017 -0.029391284831890862 -0.09115272111818479 0.08426185663470855 -0.09748903882368984
2029500000.0 0.13578483022535728 -0.10461373259862956 -0.031429088312132016 -0.09026585627550456 -0.03160470904324732 -0.0905912167796642 0.08215034705238444 -0.09999619474682694
2030562000.0 0.13356085242259427 -0.10347753547303559 -0.03358516249907189 -0.08965454210354544 -0.033899185799202425 -0.08988076172782503 0.08099779297343727 -0.10180814846368556
2031625000.0 0.13138952784527125 -0.1023165431147584 -0.035859302167051174 -0.08894231001519576 -0.03624616032469482 -0.08909680800333118 0.08078203316243097 -0.1032579355021959
2032688000.0 0.12915452031313743 -0.10113423984028042 -0.038136435248217304 -0.08812803057464125 -0.038560360630328694 -0.08834075074597621 0.081204615656264 -0.103656196573105
2033750000.0 0.12666313237386032 -0.09996588639712453 -0.040465313102531715 -0.08732172573866757 -0.04086928609324888 -0.08746666253970536 0.0820313790570644 -0.10346145052652915
2034812000.0 0.1245277795144568 -0.09875449811731078 -0.04265684460201064 -0.08648831713601879 -0.04312093174272104 -0.08643756576629366 0.08295957616031867 -0.1018657259811801
2035875000.0 0.12215437630705875 -0.09767324522057544 -0.044978316126408124 -0.08537195279175316 -0.045373174398724646 -0.08539901353518545 0.08347973461405345 -0.09958829854743596
2036938000.0 0.12002323975584592 -0.09648644087842739 -0.04734665979210999 -0.08446749367673631 -0.047615216000734255 -0.08431830208643243 0.08388232966590144 -0.0963835921164315
2038000000.0 0.11770720363897547 -0.09531226087296368 -0.04961694742809959 -0.08314432455293505 -0.04984572479092796 -0.08326344308931981 0.08369628232232755 -0.0919507371317765
2039062000.0 0.11553446044260438 -0.09418575839306172 -0.05197115590999972 -0.08202885858166765 -0.0520692076994138 -0.08187443115730007 0.08248001311247666 -0.08762111544777097
2040125000.0 0.11346048528778187 -0.09305275545477629 -0.054351684255253926 -0.08071094830467442 -0.05434936646984768 -0.0805386502672154 0.0802105270482769 -0.08281732957299778
2041188000.0 0.11123333813727611 -0.09196575900043416 -0.05664687680573503 -0.07939170722129682 -0.05658216463667088 -0.07927227811328597 0.07720191740649336 -0.07831532632139318
2042250000.0 0.10930443912625333 -0.09092204707037017 -0.058983298060193576 -0.07793114046117194 -0.05897719065172386 -0.07777545261376288 0.07343795901054016 -0.0744396300912052
2043312000.0 0.10734077786698985 -0.08979667561939894 -0.06123688680159873 -0.07645232024987188 -0.06114014354290566 -0.07635535838241496 0.06905450145653498 -0.07127524463780281
2044375000.0 0.1055300032259824 -0.08851095506676053 -0.06335826622247959 -0.07487107803401705 -0.06328375656646681 -0.07484709962726602 0.06443115759630146 -0.0692612719861966
2045438000.0 0.10378634277804137 -0.08749925675291405 -0.06566926398573357 -0.07329306659773728 -0.0655047968770266 -0.07333054241911643 0.05994980116791313 -0.06809263355787634
2046500000.0 0.10216681120344098 -0.08627251222889461 -0.06768740522680078 -0.07165506800232986 -0.06761432949414473 -0.07177820909717422 0.056160561548529525 -0.06811369848891494
2047562000.0 0.1008544092872289 -0.0849912238722181 -0.06972830093980327 -0.06985016626770549 -0.06974209652929002 -0.0702363450664712 0.05280992896526738 -0.06862277391513504
2048625000.0 0.09924170538135582 -0.08389199125318328 -0.07171025105849292 -0.06813182313967917 -0.07178931808317135 -0.0684537693405659 0.05040330858030026 -0.06958314762143049
2049688000.0 0.09795626451160686 -0.08257295779293528 -0.07362962088105257 -0.06628996932972317 -0.07371975949763887 -0.06667864721108563 0.04917356585060745 -0.07086516492794444
2050750000.0 0.09659753279401272 -0.08125435012113669 -0.07544653168586604 -0.06448606658932113 -0.07560589723449374 -0.06482729967031237 0.048987802811676875 -0.07202387165609894
2051812000.0 0.09531148388914636 -0.07979731053888146 -0.07725851747734197 -0.06255338374812824 -0.07747813988572713 -0.06289515727471852 0.0492501384802173 -0.07282222040817429
2052875000.0 0.09411887763023216 -0.07840891887489189 -0.0791216663964059 -0.060735167539276554 -0.07931931457770114 -0.06097112030268642 0.05046932036559864 -0.07333482585687005
2053938000.0 0.09301672547334658 -0.07710903669029662 -0.08073392980973672 -0.05882149705925643 -0.0810134721404501 -0.05894237290202523 0.05241467598084002 -0.07305678221212264
2055000000.0 0.09168348752196911 -0.07559339845415253 -0.0824048582572674 -0.05685480666316699 -0.08275624324771431 -0.05689746817347835 0.05456192934887853 -0.07170507337023134
2056062000.0 0.09061488404760003 -0.07402725870933656 -0.08395592824442324 -0.05481305175678906 -0.0844387911720843 -0.05480507771058259 0.05690372189293259 -0.06962141969587958
2057125000.0 0.08940450767779262 -0.07251646098696075 -0.08559746805877007 -0.05266395917554939 -0.08605099578799162 -0.052605813163965856 0.059320740890466316 -0.06686289977814823
2058188000.0 0.08815880898798666 -0.07105745309138528 -0.08719298895450849 -0.05054972949043797 -0.08756562015138264 -0.05040856762646758 0.06118353965274776 -0.06301311788981871
2059250000.0 0.0869822892989905 -0.06952742091105428 -0.08879089840429942 -0.04816983157335173 -0.0891131904610321 -0.04811051756186909 0.06292430727925594 -0.05870771462642957
2060312000.0 0.08579098130939485 -0.06784945280753372 -0.09028350417082949 -0.04577897547849954 -0.09054189672607471 -0.045672048806370505 0.06377028279265645 -0.054011665343525625
2061375000.0 0.08466175280842955 -0.0662715388187368 -0.09158875114103344 -0.04332237605592286 -0.09202297282522572 -0.04313433832235083 0.06378443551884655 -0.04892350295610878
2062438000.0 0.08358579235942469 -0.06471483224707197 -0.09310189026720003 -0.04079215829444737 -0.09338510903056821 -0.04069999195660097 0.06301656466925357 -0.044209358097810035
2063500000.0 0.0824168883037416 -0.06313917463174555 -0.09446904608493491 -0.03824153076352885 -0.09474304798075525 -0.03801241873993596 0.06195652303625481 -0.039756345600769794
2064562000.0 0.08143024720911489 -0.061676863893454024 -0.09578362900344349 -0.035644060023402084 -0.09595962690170304 -0.03538381087848002 0.06032774225684879 -0.03580097788406769
2065625000.0 0.0804577001598495 -0.06034249400168805 -0.0970539133592009 -0.03306089387861724 -0.0970504901787862 -0.03280649271265835 0.05863659752217221 -0.03256308943220119
2066688000.0 0.07952416889056044 -0.05895050039491936 -0.09812951950710559 -0.030443418122625673 -0.0982109745163914 -0.030104647909771264 0.056881617144484364 -0.029949569721877088
2067750000.0 0.07867225839515929 -0.05762784731592078 -0.09921648218666078 -0.027739537448879893 -0.09916630479744064 -0.02747044917070659 0.05525872278490728 -0.028258016971311167
2068812000.0 0.07784431426611071 -0.056425815450701654 -0.10023988175654158 -0.025100959395782982 -0.09997637282611412 -0.024831259040819245 0.054058990255518156 -0.026556831176129954
2069875000.0 0.07702625111109059 -0.055248543558649825 -0.10104787488082641 -0.022387029460389653 -0.10084165514319203 -0.022265622912571007 0.053071327578650546 -0.025666719791418536
2070938000.0 0.07628468012499454 -0.05409454990591109 -0.10182757214979751 -0.019482471958602556 -0.10158155055110224 -0.019543357159657746 0.052978028230092025 -0.024766580697117322
2072000000.0 0.07560381016184788 -0.05291525972956931 -0.10248829295885982 -0.016741201324418215 -0.10222423472799973 -0.016817884744751026 0.053060045765972084 -0.024254367354237267
2073062000.0 0.07493404736701315 -0.05164629025355337 -0.10308350048441889 -0.01383496701230642 -0.10310731705795428 -0.014113634417922597 0.05401991694316779 -0.02331657236973332
2074125000.0 0.07450506393675038 -0.05045830760228668 -0.10371271986410575 -0.010901597437430792 -0.10380622236230666 -0.011310476235041734 0.0550240887517935 -0.02219581285287597
2075188000.0 0.0740197119549028 -0.049160006792068896 -0.1043194794650861 -0.00792962763058576 -0.10442910833362692 -0.008483630446456664 0.056350455972694696 -0.020947829811008466
2076250000.0 0.07374393331310293 -0.04780307726548339 -0.10475693455624646 -0.005117920475642694 -0.10495440807424862 -0.005621188989569764 0.05781588160139382 -0.01947347930051694
2077312000.0 0.07348761168741876 -0.04634857470276598 -0.10496758667355345 -0.0020406368026528445 -0.10537892195268415 -0.0026790113108930633 0.059968990095310884 -0.017541415235025015
2078375000.0 0.0734613502874908 -0.04485929549393687 -0.10513053016790594 0.0006921617340333055 -0.1057623857310524 0.00029225515430139875 0.0620213166008097 -0.01514236443960432
2079438000.0 0.07357207510637438 -0.043504937488749035 -0.10530909565173453 0.0034705337506033954 -0.10592992079340824 0.003376078113709317 0.06387798838560667 -0.012677929824955674
2080500000.0 0.07364104462873523 -0.04196247442503856 -0.1052231754442793 0.006476470127771024 -0.10582292457170286 0.006577688043406641 0.06578273208042308 -0.009446510311823725
2081562000.0 0.07397655302488028 -0.04054916993547751 -0.10501605285269003 0.009415842093203798 -0.10583192425152407 0.009809164488602808 0.06726151947065442 -0.006334069905982155
2082625000.0 0.07430355285391818 -0.0388741015788087 -0.10491054078823431 0.012414899541733512 -0.10557144219714451 0.012984770102121485 0.06851239918535972 -0.0029237261178469602
2083688000.0 0.07453791067480389 -0.03750915827155472 -0.10450483769580211 0.015338627635549777 -0.10519541990715855 0.016140266747337553 0.06959969121245536 0.0003820770775456293
2084750000.0 0.07497326961902563 -0.03586493057475653 -0.10428686204694336 0.018389762837639767 -0.10467201629905588 0.019195705931035645 0.07000313014983306 0.003269564420377857
2085812000.0 0.07520683140845734 -0.034289567107125433 -0.10389475653180551 0.021276302354866085 -0.10417152058458569 0.022156963747750568 0.07029819256914761 0.005861287988644969
2086875000.0 0.07556154228679549 -0.03267506646508818 -0.10368107606807198 0.024487183417385 -0.10350726737698589 0.02511268948622208 0.07048362636475461 0.008430301015508124
2087938000.0 0.07594525448388328 -0.030975437435977107 -0.1032044846561292 0.027308082023766597 -0.10297145962974728 0.027854834564069255 0.0708812058306948 0.01047567191319453
2089000000.0 0.07630906266855736 -0.029322433944463752 -0.10270590672925564 0.030232651626919047 -0.1022622823113349 0.030547062273828935 0.07114255083452699 0.01184630630385513
2090062000.0 0.076809388717715 -0.027446855769135598 -0.10213875298161586 0.03318517568836024 -0.1015195234510143 0.033343535981919865 0.07141487292809615 0.013225689815562143
2091125000.0 0.07745049866848283 -0.02603724492505418 -0.10149009460823603 0.03624175632010097 -0.10079275104183531 0.03613951008853943 0.0719918934480611 0.014531408126691263
2092188000.0 0.07806041075165046 -0.024128866467569766 -0.10058396735997639 0.03922592486107608 -0.09996075904397912 0.03886213217337877 0.0721313156080121 0.01550275589503326
2093250000.0 0.07883286089059545 -0.022573342388587405 -0.09958032745295307 0.04221349749175892 -0.09917531286987163 0.04170266690207887 0.07285193911116411 0.01606739527783066
2094312000.0 0.07960368085742893 -0.020955959638519678 -0.0984917614179137 0.04521327534017485 -0.09828909215908158 0.04478226416502185 0.07327104834872478 0.01653302783741119
2095375000.0 0.08054563536196034 -0.019300767457711757 -0.09721825482980237 0.04825110498069035 -0.0974925452072934 0.04775042887366878 0.07376791576672215 0.016657548595545187
2096438000.0 0.08158151081314453 -0.01794461861896274 -0.09592365546969264 0.05129241304596295 -0.0965241741015034 0.05087378757995611 0.07480669962562997 0.01677663822675552
2097500000.0 0.08270237864582068 -0.01649935873841883 -0.09455634173712775 0.05419597845080928 -0.09531279127122334 0.053815486698889504 0.07551590643782345 0.016219465039193172
2098562000.0 0.08383657803788569 -0.015154370684126353 -0.09312673458917116 0.05692929248248206 -0.09402431970900621 0.05679835989270984 0.07698305353295518 0.015854809782943135
2099625000.0 0.08510114920797442 -0.013990267650762547 -0.09176244432476394 0.05957898091230372 -0.09256294624809867 0.059758883130554795 0.07836521063269804 0.015247999216988446
2100688000.0 0.08629858641493138 -0.012761330755651123 -0.09009378998934656 0.062224674241334134 -0.09092703018573747 0.06255853222188525 0.08057657197521365 0.014315499898814569
2101750000.0 0.08772658443675516 -0.011543518167905092 -0.0885366892470989 0.06472369622941002 -0.08912085814231811 0.06525941720802626 0.08294547439009832 0.013983445499006947
2102812000.0 0.08909263296314558 -0.010488680742178215 -0.0867189535005581 0.06725706446634028 -0.08711792227091919 0.06783902400390952 0.08611769117382907 0.01291182766676603
2103875000.0 0.09063603108423496 -0.009326889804489041 -0.08491024009518597 0.06977858582038747 -0.0850703791666477 0.07041586383432563 0.09010139933108056 0.012987875449128978
2104938000.0 0.09212564366090263 -0.008279621612599129 -0.08323274377557817 0.07217850430365272 -0.08306734184852384 0.07288150373923173 0.09304791682176924 0.012876726559527017
2106000000.0 0.09378796222078435 -0.007294501300890305 -0.08117026338958702 0.07456970103110694 -0.08103006218834564 0.07533513752728017 0.09690854970648553 0.013259456033906061
2107062000.0 0.09538435768077845 -0.0062506171266089785 -0.07943886399253526 0.07702583874610702 -0.07898853907551735 0.07753797499479058 0.10018015531606314 0.014210261682682874
2108125000.0 0.09725070543624982 -0.005238845005734602 -0.07738654271743084 0.07933138960081247 -0.07688960044191052 0.0797379261474054 0.10388509284306431 0.0150680768871023
2109188000.0 0.0991820344193116 -0.004388629167988991 -0.07524392277857535 0.08177442689226329 -0.07494905058758995 0.08198248421725411 0.10698614473062037 0.016418009938920383
2110250000.0 0.1009565683135654 -0.0034241186484648945 -0.07320357961716324 0.08395264759300919 -0.07286990659058225 0.0840375596835667 0.10963039875048824 0.01819512624731624
2111312000.0 0.10287394873159013 -0.002534586880823588 -0.07083937113138258 0.0862658011810518 -0.07083105283099232 0.086170596629033 0.11254505066548551 0.01992318638938154
2112375000.0 0.10475194187115205 -0.0018263212291326127 -0.06866115798032063 0.08827478497463281 -0.06868032704291052 0.08817629857491736 0.11452203314851706 0.02208294980383552
2113438000.0 0.10638994980459533 -0.0011273641814659922 -0.06625292930043408 0.09037538463633336 -0.06629477186672102 0.0902703570442314 0.11622011222441121 0.023556301877563416
2114500000.0 0.10797588268237512 -0.0004980060610637139 -0.06367472325221336 0.09249321613169087 -0.06380269063802611 0.09226143660168197 0.11704276776833862 0.02543204958418808
2115562000.0 0.10953887826832284 5.884241574519841e-05 -0.06112692533542023 0.09435644128985345 -0.061214480682896956 0.09425821815598515 0.11746676677033192 0.02692503956639655
2116625000.0 0.1109730899647734 0.0005174208744660289 -0.05839854088704078 0.09622794319306302 -0.05841315338744136 0.09626487282256639 0.11738286593807258 0.027564732995229605
2117688000.0 0.11225969783358763 0.000822366513785805 -0.055558471934201395 0.09802761870827996 -0.055638015163937904 0.09819486401519663 0.11717302424520556 0.027727580050043624
2118750000.0 0.11350727373218458 0.001014482645251503 -0.052655811689781486 0.09984460511048455 -0.0528334598916699 0.10002441749294531 0.11686555983799556 0.027307857578303247
2119812000.0 0.11475646736724962 0.001310397824952227 -0.04973483626663005 0.10136823630884749 -0.04987139078258772 0.1018905970186232 0.11690084907313188 0.02588783618149939
2120875000.0 0.11587173332481232 0.0013141280037228561 -0.04678942501392385 0.1030629757045324 -0.046922225027267755 0.10349878359840134 0.11737068834267976 0.024115328067147376
2121938000.0 0.11693762583863292 0.001161122182415082 -0.04394021904169064 0.10462300450791401 -0.043951359800907266 0.10508764316514636 0.11855571324043804 0.021719577165188998
2123000000.0 0.11793976797135543 0.0011843280529423986 -0.04098768006880208 0.10601565431339302 -0.04104716321043784 0.10638032827357244 0.1203705753340617 0.019265692532998355
2124062000.0 0.11890798845376087 0.000923703129773213 -0.038032584151726175 0.10737075168802944 -0.038075612907894255 0.10774138292708131 0.12304043649117644 0.016547691169272648
2125125000.0 0.11976747187470509 0.0005813287910145376 -0.034924730142377916 0.10868041650806481 -0.03498009153075859 0.10885142980039933 0.12632864364264132 0.014173328932817378
2126188000.0 0.12067585005963814 0.00035128821722242207 -0.032011712419490405 0.10980832205759862 -0.031930060115000866 0.10998565301106301 0.13018427522876463 0.012495392336351054
2127250000.0 0.12139415825047184 -0.00024253332571260138 -0.02892680096263633 0.1109583119496151 -0.028852563515449372 0.1109824843960097 0.13444942862585632 0.011538343144770627
2128312000.0 0.12218757571183364 -0.000646379759529861 -0.025814083926136915 0.11196513377819076 -0.025653953779173226 0.11206526754536729 0.13895137120787948 0.011061957127115508
2129375000.0 0.12270795910121936 -0.00108165464523715 -0.0226767148296121 0.11296281332371558 -0.022499066620434983 0.11309330819951437 0.1435794942947874 0.011923180827128434
2130438000.0 0.12335433734548917 -0.001623093801607675 -0.019560175699898756 0.11386748043934412 -0.019283255230819907 0.11402238241090107 0.14760128567315914 0.013243498267309996
2131500000.0 0.12381640605019031 -0.0021251974630968687 -0.01632131445681527 0.11465047991617235 -0.016127997177265093 0.11493075031318774 0.15106207011467973 0.015335809706916089
2132562000.0 0.12426408762329232 -0.002519020800048768 -0.013082899101606708 0.11539194993855723 -0.01285589487653568 0.115636946744186 0.15367434413249045 0.018103721428459344
2133625000.0 0.12470027830286425 -0.002992625482649674 -0.009785781076529472 0.11587434849243156 -0.009667135599065459 0.11624250373901686 0.15516134433094225 0.021066141822658032
2134688000.0 0.12513043036642177 -0.003296030010108204 -0.00646029334238024 0.11650076810447728 -0.006292839819724825 0.1167907685658459 0.15553676116617818 0.023712016700767308
2135750000.0 0.1254184672393526 -0.0035414312794511613 -0.0029445373958437602 0.11693496219618693 -0.003025076524183431 0.11715268800815375 0.15517515305843305 0.026269616733411442
2136812000.0 0.1255080059133801 -0.0036673981307320043 0.0004194810164422084 0.11713999512664504 0.00032232879874576444 0.117327390877844 0.15371210571819235 0.027968617637913078
2137875000.0 0.12569711620315557 -0.0039046955259120844 0.003943608542742206 0.11735320756783127 0.003828097216834381 0.11748684678199334 0.15163937854327958 0.02903856924058789
2138938000.0 0.12585898176509208 -0.0038750559310411882 0.007363413420755487 0.11753365444870396 0.007319000165989087 0.1176755032382953 0.1489282859439693 0.028875712579383192
2140000000.0 0.12593835978826895 -0.003748084136764839 0.010837382371537472 0.11754045845451595 0.010872808544677799 0.11772530382740262 0.14604264022384175 0.027416693701157985
2141062000.0 0.12592063542272314 -0.003649163553857098 0.014250192660539954 0.11756669214126667 0.014354846125526358 0.11768479843749781 0.14331224787792912 0.02501343061377348
2142125000.0 0.12574649870460994 -0.0032654707428834344 0.017876411609725945 0.1173900196797858 0.01794822591140418 0.1176314676702875 0.1413674673190938 0.02141116588699804
2143188000.0 0.12556809447563974 -0.0028329812916296337 0.021295695926932767 0.11714183514830136 0.021687086942597078 0.11751586270874394 0.13993962504306545 0.017270592664587588
2144250000.0 0.12528722026728648 -0.002464928808050453 0.0247768393437893 0.11680173472889349 0.02510296402865115 0.11714870670599684 0.13962732859734717 0.012465484076769845
2145312000.0 0.12499348900140272 -0.0018849397164492625 0.028328640039386968 0.11631468185039416 0.02862886863759715 0.11671249564023287 0.14056470022376483 0.007528892222532586
2146375000.0 0.12460255101714737 -0.0012673899847906985 0.03171834030673534 0.11580929388678898 0.0320796931525114 0.11610968353610905 0.14235644841570547 0.0027976258468912483
2147438000.0 0.12427033789523499 -0.0006666633726757215 0.03525207254332962 0.11518946843224291 0.03566159816460367 0.115390195981749 0.14544961468647466 -0.0014119926850836666
2148500000.0 0.12387024539375151 -2.881716334925162e-06 0.038714299911397056 0.11463936886587119 0.03912204268493593 0.1145430395986862 0.14878269319427123 -0.004484207453898172
2149562000.0 0.1234388060385791 0.0005525301295092237 0.04215056141807479 0.11376547071875054 0.04244589571074648 0.11365394148953058 0.15279957096380348 -0.006623022312707611
2150625000.0 0.12295936492325668 0.0009507743259639694 0.04565002396387316 0.11289558886975956 0.045795572292882725 0.11252083713917498 0.15693692195534037 -0.007705089020158884
2151688000.0 0.1226198451951041 0.0016756229740449227 0.04905588818869868 0.1118414207617979 0.04906133367072147 0.11135420021469543 0.16065716829443297 -0.007523399284359079
2152750000.0 0.12227015459336002 0.0019622569036706183 0.05266024174679581 0.11060769642923833 0.052497856347936696 0.11010780060921642 0.16374949978742878 -0.006348046707691956
2153812000.0 0.12189191678954543 0.0025547344276104817 0.05615462894532204 0.10904903055749848 0.05582394413653379 0.10881165974625288 0.1659210241231193 -0.004534561251534706
2154875000.0 0.12177009017884718 0.002973146661489697 0.05983694984590455 0.10736852305140206 0.059285171283802535 0.10741466480458614 0.1667542145527906 -0.0021527339352871554
2155938000.0 0.12140266956413197 0.003586315437425695 0.06315890494876054 0.10558044822490646 0.06272892703204747 0.10577116031089155 0.16622010643536794 5.900197743706218e-05
2157000000.0 0.12153583553177076 0.004236424219622858 0.06655770414303962 0.10370959454156167 0.06623521132355777 0.10423044098769715 0.16479055926561098 0.002137651256028008
2158062000.0 0.12171118852582154 0.004836370833843482 0.07002723475198912 0.1015482674189535 0.06977171356383574 0.1023662448117003 0.1620403669749486 0.003304153074922672
2159125000.0 0.12200511677590736 0.005512448091677987 0.07324766710387066 0.09928834100978282 0.07331099030658927 0.1003037569626171 0.1585883879130674 0.003922340463839071
2160188000.0 0.12254257473678322 0.006181026393733782 0.07647370669702308 0.0969884115134906 0.07669542497889763 0.09800453463537437 0.1544903184447409 0.002697997623965632
2161250000.0 0.12319726953627969 0.006906967552494831 0.0794823754227162 0.0945584080047301 0.08009364905967929 0.09551995524109591 0.15072484686086166 0.0007999228360024734
2162312000.0 0.12410342421077442 0.007464054309868848 0.08244781362509537 0.09214787688492448 0.08330239371744894 0.09292983219774276 0.14690958853596284 -0.0026084030594830175
2163375000.0 0.1251158934728034 0.008043652454390333 0.0854355931969189 0.08966382148169066 0.0863307741288522 0.0901471806796602 0.1441878818908579 -0.006746752967251499
2164438000.0 0.12628124596823104 0.008603742900652942 0.08830290879943944 0.08725101054291755 0.08923283998595938 0.08731735486349156 0.14218428548244025 -0.011898597790171443
2165500000.0 0.12737624073639361 0.009124364077351052 0.09098724686427813 0.08471084834139764 0.09192283728342661 0.08452306913711126 0.14204223932937604 -0.017095988113912688
2166562000.0 0.12877719230078236 0.009720649391107034 0.09367822710268392 0.08225095134450004 0.09443053010653892 0.08162954116948552 0.14308204531630359 -0.022240079495777613
2167625000.0 0.13007506982925568 0.010169674534961539 0.0963061436428284 0.07964366486392231 0.09684992535147117 0.07886842688564505 0.1452396280701598 -0.02719207843998886
2168688000.0 0.1314073933391384 0.010678580637843466 0.09895608275122324 0.07717324851564218 0.09923663046028484 0.07623837634708477 0.1491117094302686 -0.03151315041402568
2169750000.0 0.13271397133537274 0.011246877385381202 0.1015033750397459 0.07457821768113952 0.10152740577990295 0.07355257612674593 0.15362548449814054 -0.03407561821657865
2170812000.0 0.13426201210515756 0.01207940816941454 0.10417314035769602 0.07169627656458614 0.10375383478033856 0.07103117652449552 0.15866567365552942 -0.035468699021287145
2171875000.0 0.13579185464610707 0.012877875462489878 0.10656271237154502 0.06885381331553932 0.10600418105233332 0.06842731052199505 0.1643814337456298 -0.035778801869367036
2172938000.0 0.13730196434466807 0.013666038221003655 0.10902719431767859 0.06572785679361347 0.10823184064211604 0.0657824221726207 0.1691835168433351 -0.03491179785903116
2174000000.0 0.13893376970008034 0.014421682269917517 0.11121440116547045 0.062410804139750434 0.11054550749673651 0.06286588947013229 0.17387028545717848 -0.03239249072935748
2175062000.0 0.14060802968046932 0.015153347955937407 0.11359255496241502 0.059154739078447954 0.1128164247799958 0.05981748563245296 0.17772338722801165 -0.028969453785444257
2176125000.0 0.14231605799500618 0.015766978435523788 0.11548008077173465 0.055410060288617606 0.11518320229442473 0.05643421313709034 0.1798077779237294 -0.0252251244028343
2177188000.0 0.14410994320890885 0.016283906875098928 0.11729110346122679 0.051763492911200436 0.11732125974705666 0.05276719609379534 0.18111489234669853 -0.020817487750964238
2178250000.0 0.1459526762369398 0.01665473465834471 0.11895664685368049 0.04790399377382979 0.11930054042463333 0.04891602865092351 0.18006111224659377 -0.016761342828665073
2179312000.0 0.14750474155402798 0.01673041744331844 0.1203650737794332 0.044060750525191705 0.12099605533565638 0.044798785990055094 0.1787866347574912 -0.013223681671621404
2180375000.0 0.1491645049683869 0.016750645314747813 0.12141245208986347 0.040230201830879865 0.12232750821206549 0.04060231913274523 0.1758283937434348 -0.01049713233539495
2181438000.0 0.15089627771821498 0.016530302010797155 0.12243133027171856 0.036173400832622174 0.1234609755904992 0.03622512608217568 0.1718347682487706 -0.00924974752576198
2182500000.0 0.15234403584687775 0.016145411027330407 0.12331855223016505 0.032178655791013186 0.12431224147524612 0.03199005230610638 0.16809685156657256 -0.008629099513081575
2183562000.0 0.15403854241770132 0.015794561857540055 0.12402393278981699 0.028094133736210877 0.12500848144617174 0.027748878413838076 0.1644283456412596 -0.009668455326219225
2184625000.0 0.15553121952770826 0.01526975994057885 0.12465457586172349 0.024172718517723315 0.12545857975944594 0.023754474283985774 0.1613558854732417 -0.01128764727823602
2185688000.0 0.15704824262719966 0.014886564366761132 0.12523073511393468 0.02031988873029776 0.12578847090205378 0.01985198502678006 0.1589574742635698 -0.014114896484646545
2186750000.0 0.15871264972216778 0.014273994979654538 0.1256882966642552 0.016522624163300508 0.12599220900558977 0.016017457635622116 0.15816544806642785 -0.016762761034592528
2187812000.0 0.16040418583968807 0.01372694630823456 0.12629873689914456 0.012786828442316192 0.1262650789883254 0.012386672779718257 0.15810951480436228 -0.019830019975643706
2188875000.0 0.1622433464060563 0.013505706835547698 0.1266721354790558 0.008981347002048227 0.126459945848432 0.008800525357162891 0.15944837196635825 -0.022573884669267533
2189938000.0 0.16416987027343802 0.012723616618388217 0.12702866083798367 0.00515556396489625 0.12690570677764296 0.005091283347531148 0.1618532849031444 -0.02496311461178208
2191000000.0 0.16601469678509304 0.012211042366047177 0.12743565145640287 0.001510491856348311 0.12726086975141354 0.0015161718175603909 0.1649024375355544 -0.02615327663850509
2192062000.0 0.16822109629873747 0.011605855142702915 0.1276764583298787 -0.00230611842314237 0.12764865096591174 -0.0022709291483413575 0.16879138977813565 -0.026799700817751137
2193125000.0 0.1702713919491094 0.010921294348752109 0.1277804947558846 -0.0060561959875811205 0.12796516960969964 -0.006092571435448037 0.17280579365230517 -0.026314944132796367
2194188000.0 0.17238761929179905 0.01018291857788193 0.1277621497629638 -0.010013129229120305 0.1280507823240351 -0.010103961000238073 0.17658273507394348 -0.02511869759029884
2195250000.0 0.17433182098095948 0.009329245143602583 0.1275963879264192 -0.014027613857348388 0.12805597942300567 -0.014132481166604543 0.18038180290446873 -0.02314815004659451
2196312000.0 0.1764350900145313 0.00854611108445191 0.12731844531780165 -0.01798843638635982 0.12783028800480625 -0.01827750361484246 0.18332655301878867 -0.020175127355786335
2197375000.0 0.17830401587078837 0.007896479656729983 0.12692886011503274 -0.022123569653527096 0.12735124611678938 -0.0223817282193708 0.18542574786308674 -0.016981844494426097
2198438000.0 0.18013743162461449 0.00718717684341018 0.12627099787807916 -0.026108865142896242 0.12661220273909385 -0.026462405941256484 0.18622084155318028 -0.013407941493865797
2199500000.0 0.18190519422992907 0.006455203966655234 0.12546841183138213 -0.03024242025128061 0.1255770758890694 -0.030580133571480757 0.18608409200308024 -0.010545758213530074
2200562000.0 0.18364465571451985 0.0061134853163018815 0.12454639833940767 -0.03418479961979073 0.12442785892436678 -0.03451918671142853 0.18515380033235582 -0.007672273496936469
2201625000.0 0.18527392064011147 0.005666087018731795 0.12349696631412783 -0.03818511891908017 0.12317418616092547 -0.0381445064802826 0.18328259108569536 -0.0058447673419702315
2202688000.0 0.18705187813008528 0.005585667129269848 0.12210304221189996 -0.04199140335900273 0.12176967531217439 -0.04193311235770115 0.18132679199304255 -0.0050136179792889335
2203750000.0 0.18865669153344905 0.005206678524582491 0.1206254819973394 -0.04573196665754418 0.12030338697652374 -0.045554812679685995 0.17864069225594936 -0.005028444319435656
2204812000.0 0.19032296137498103 0.005023416903296792 0.11898974598393922 -0.049377051791215806 0.11885386760447011 -0.04918327802504723 0.17644028708861456 -0.006053840180540615
2205875000.0 0.19205098667481924 0.0049554364494719914 0.11722847843318357 -0.05296476011630216 0.11726178398051107 -0.0527464816632599 0.17487805600300088 -0.007831359561306865
2206938000.0 0.19364868683775058 0.004562200018339335 0.11534808970147595 -0.05652710080916009 0.11576528516866809 -0.056322940348776586 0.17386693293987393 -0.010357596701363173
2208000000.0 0.19521244950454125 0.004314348761912244 0.11344973015001786 -0.06011877662641569 0.11423407436016808 -0.059832122619447245 0.17375966603763301 -0.01353941204828139
2209062000.0 0.19682141417375215 0.004004847129340707 0.11157655235342935 -0.06344472975609165 0.11248237717502528 -0.06353779263318082 0.17441011366551235 -0.01683363055671638
2210125000.0 0.19846981242456407 0.00355792450262629 0.10952519059781773 -0.06682536637882329 0.1106649139227042 -0.06703009087964189 0.17593062171863377 -0.0202756416917442
2211188000.0 0.19995042393785062 0.0030694263329154522 0.1076350272970637 -0.07011992859053277 0.10866605908809451 -0.07056600706954076 0.17842596550677356 -0.02343957952955275
2212250000.0 0.20135759774849862 0.0025539570928280217 0.10546292553167481 -0.07328984415412755 0.10639953067461286 -0.07396488615616614 0.18171797120136676 -0.026496480887436002
2213312000.0 0.2027234262986212 0.0020746207672451274 0.10340207754780002 -0.0763980391291523 0.1040236045803167 -0.07730184811121701 0.1853283255303466 -0.02903920636843891
2214375000.0 0.20441092703690114 0.0014145379658645101 0.10124847725758342 -0.07947867239881813 0.10144615241953299 -0.0804484214985401 0.18934408075213835 -0.031079642775552915
2215438000.0 0.20594219274271847 0.0011480251144494814 0.0989972682627013 -0.08242708699556592 0.09881193082381778 -0.08346917372155072 0.1936087113990228 -0.0324201475859248
2216500000.0 0.20770310426125518 0.0005964697524462922 0.09657007996165545 -0.08552657162961308 0.09604279142443872 -0.08649092612967994 0.1977140313176194 -0.03368384058564992
2217562000.0 0.209615565796665 0.00015556292645158687 0.09404444912469867 -0.08861716731410865 0.09322909301475364 -0.0892460598817074 0.20145980501743146 -0.03418539945035891
2218625000.0 0.21129055032805527 -0.00025162732605973193 0.09138035153133474 -0.0914296321219817 0.09051558323118564 -0.09191121163549844 0.204820794278208 -0.03423952981212107
2219688000.0 0.21358217466055776 -0.0007374333373176751 0.08860147473247768 -0.09450912960844664 0.08771260151481858 -0.0946567551617179 0.20813353910834637 -0.03434997082316325
2220750000.0 0.21570654624095192 -0.0013461801376349145 0.08561357569207793 -0.09728357094606169 0.08499844289586249 -0.09712420757967125 0.21044241434760735 -0.03441393706969017
2221812000.0 0.21796837321858634 -0.0018984864645094615 0.08264256919331461 -0.10003551972205947 0.08225929370323498 -0.09972193155335739 0.21269420553823645 -0.03433008601981362
2222875000.0 0.22033928681829834 -0.002395676203860204 0.07950230540844946 -0.10268917498782755 0.07941310871551314 -0.10204888418727268 0.21405801038784483 -0.034352032733649236
2223938000.0 0.22260835091073086 -0.0030941213774480485 0.07616252991342194 -0.10509422080812912 0.07649547117286802 -0.10444110196902635 0.2160635853838705 -0.034835132195129896
2225000000.0 0.2249277254487667 -0.0038433634071568194 0.07285311634949841 -0.10740724324785195 0.07327906770746023 -0.10682865638759852 0.21713314788265867 -0.035836095989697205
2226062000.0 0.2271936006851492 -0.004564119011247129 0.06929959457590253 -0.10963276974652987 0.07000396528040287 -0.10912059753664072 0.21803474865971684 -0.03677137541472625
2227125000.0 0.22949301358763427 -0.00530234381256869 0.06576798680001114 -0.1116044489717295 0.06642092472588561 -0.11149430821469808 0.22001305474014274 -0.038405749484977894
2228188000.0 0.23168820723312328 -0.006257648258436075 0.06212401028887978 -0.11346962237291773 0.06279173155352834 -0.1136447368943109 0.22129189045374445 -0.0401635552606197
2229250000.0 0.23391221902754414 -0.00695319204416683 0.05843138615517646 -0.11514556797930398 0.05905391227972403 -0.11573802365124851 0.22260666801893175 -0.04165725202987622
2230312000.0 0.2361897535959872 -0.007910469943121931 0.05475155526101056 -0.11686649283913096 0.05511451323329171 -0.11763495176543523 0.22476149992353625 -0.04402312981537962
2231375000.0 0.23840401116032167 -0.008878414216493165 0.05107210943176611 -0.1183918558548683 0.051263229847709216 -0.11929205167774339 0.2267905762866528 -0.04656031923280882
2232438000.0 0.2405938878440056 -0.009868898869756455 0.04735054308383316 -0.1197806508085871 0.04742972414665922 -0.12090739586637579 0.2289985098295436 -0.04835064072894167
2233500000.0 0.24289382879197818 -0.011041913907808074 0.04370656055101522 -0.12119642870869156 0.0435803537076513 -0.12206889001324205 0.2316130469095085 -0.05106822368042429
2234562000.0 0.24503337774343867 -0.01249593669577046 0.03999388159184058 -0.12235810660165956 0.03985951894925358 -0.12314740944686582 0.2339001262752108 -0.05350318732925533
2235625000.0 0.2472548428034275 -0.013787343915188101 0.036116236827124296 -0.12340442319026884 0.035988608812500995 -0.12394364730984227 0.23703370449410527 -0.055842997080908514
2236688000.0 0.2493512184589806 -0.015362446852428838 0.03246920278903285 -0.12449078957458026 0.03218314222492707 -0.1248776939229189 0.24063317784867463 -0.05800967021449712
2237750000.0 0.25146064496304915 -0.017148947700656916 0.02872408822275323 -0.1252915757292053 0.02828979028991359 -0.12550708917581507 0.24341253045392305 -0.059566321384777715
2238812000.0 0.25371454424040285 -0.01902170733854705 0.024989022441471425 -0.12624474188708315 0.02451736942992772 -0.12625630510990682 0.2469710986497459 -0.06177199774895668
2239875000.0 0.25553668044549077 -0.02108874980786885 0.020961811179734675 -0.12682442266318414 0.020663217397525212 -0.1266990319729242 0.24996537935120075 -0.06336348661478074
2240938000.0 0.25753248936986944 -0.02347292332894832 0.01712360329695913 -0.1274651952179466 0.0168227372560361 -0.12732142005051045 0.2532057335772501 -0.0639493077890535
2242000000.0 0.259485583054938 -0.025865148462723486 0.013115497996546955 -0.12788512511864628 0.012999550095825393 -0.1277823905778202 0.25615567856184723 -0.06547889548025095
2243062000.0 0.261399266821607 -0.028358242271474602 0.009215420503790329 -0.12823984779601585 0.00906239103368477 -0.1282168574258674 0.25906552575903774 -0.06600557183130785
2244125000.0 0.26316625456670034 -0.03091259642123086 0.005353900128601446 -0.1284265849309717 0.0052334848487378864 -0.12845711695710577 0.26212078157764224 -0.06637322828022187
2245188000.0 0.2651319183891354 -0.03388933546033575 0.0013317149943761178 -0.1284847128331573 0.0014713372162079746 -0.12869477777565433 0.2647487012894161 -0.06692390635785667
2246250000.0 0.2672074575368024 -0.037075182816079875 -0.0024917816509045124 -0.12854306733824453 -0.002504051416753991 -0.12886071392534285 0.2668831981573413 -0.06709010123996587
2247312000.0 0.26907201420639687 -0.04007502507052272 -0.006580002284418455 -0.12830517662707727 -0.006270511233694843 -0.1286248510301632 0.2685458252432367 -0.06709607760294893
2248375000.0 0.27099064553742475 -0.04306407968791267 -0.010366030119169851 -0.12808320971872095 -0.010205955721890817 -0.1282464554905194 0.27018798280986184 -0.06663207593443621
2249438000.0 0.27284165592062004 -0.046033361255874164 -0.014339938923395116 -0.12757857983322665 -0.014224528291831736 -0.12778501289283276 0.2706080950997169 -0.06669199081643885
2250500000.0 0.27466210617947323 -0.04919272754356814 -0.01826816498818766 -0.1268540153557721 -0.018179124582487396 -0.12717384621049724 0.27086862497524106 -0.0665786800750799
2251562000.0 0.2765352538110737 -0.052368890023922636 -0.022188183792970564 -0.12617811647883614 -0.022206654059952664 -0.126432581485703 0.27015046463094117 -0.06657605098401465
2252625000.0 0.2783012319819462 -0.055529492136880174 -0.026030092498041543 -0.12521379433618793 -0.02625359694494574 -0.12561035227935 0.2691295907411394 -0.06757725996180584
2253688000.0 0.2797056830490323 -0.05872536373840619 -0.029793380757514632 -0.12431839024790006 -0.03023537212663691 -0.12455134039790942 0.26683776579197516 -0.06901399037679093
2254750000.0 0.2815007713443601 -0.06191637624908639 -0.03392493416179304 -0.12314824155579886 -0.034031981946706716 -0.1232376050625162 0.26490503506987373 -0.07134398115537885
2255812000.0 0.2825663617475533 -0.06514829457485877 -0.03757498185191866 -0.12180920559132954 -0.038007242208063785 -0.12201665065682553 0.2623667264190816 -0.07411179326560313
2256875000.0 0.28402134875436114 -0.06838614303149443 -0.04142129382607854 -0.12033089277183495 -0.041645437522412336 -0.12060344546180894 0.2606715354548197 -0.07767076231822152
2257938000.0 0.2848725884970974 -0.07164491748352114 -0.04490978283231501 -0.11884295138820612 -0.04534271106194216 -0.1188920449048522 0.25884450812429055 -0.0822087166402078
2259000000.0 0.28601223027795786 -0.07517234467794462 -0.048715284311932595 -0.11695155722123496 -0.048801935794638554 -0.11704484679986002 0.25759087607740216 -0.08732180963978692
2260062000.0 0.286362837060374 -0.0785754798513071 -0.05213528884459889 -0.11505289903489462 -0.05207460861235492 -0.11514813981233138 0.2565956396907121 -0.09253519486658744
2261125000.0 0.28715109570620767 -0.08202572035782381 -0.05568563309870211 -0.11305539538746588 -0.055484385860482446 -0.11307074727862744 0.2563858713764523 -0.09816129613542462
2262188000.0 0.2876452050194689 -0.08558221178030029 -0.05901311656716755 -0.11099047945982644 -0.05873174618997395 -0.11097144696908946 0.25702216388719995 -0.10337534933044341
2263250000.0 0.28773327309465724 -0.08945971620721971 -0.06214905995988981 -0.10875469802187172 -0.06200955944990322 -0.10884106102324743 0.25796441191846436 -0.10885380456196941
2264312000.0 0.28801807884497416 -0.09292646769084882 -0.06544840328957999 -0.10668363838524957 -0.06514132349316605 -0.10678156628674185 0.25994258592543146 -0.11374910919024446
2265375000.0 0.2878098055841558 -0.09638105185193267 -0.0684112974929611 -0.10433823071475039 -0.06818551165966992 -0.10462645212742111 0.26189656851088927 -0.11809867555063892
2266438000.0 0.28770073104955196 -0.09999408772624145 -0.07136931594165713 -0.10203055953680348 -0.07123777651179247 -0.10252597115303974 0.2640243366549039 -0.12165443517733539
2267500000.0 0.28755650023719886 -0.1037731587597651 -0.07401066558486553 -0.09967562709783044 -0.07423677481942421 -0.10037592588992816 0.2662191746472615 -0.12452425064031993
2268562000.0 0.2871877366266049 -0.10747387071997147 -0.07673395333623982 -0.09715263667788807 -0.07721214389842855 -0.09786901324077257 0.26815387932211526 -0.12669422646800735
2269625000.0 0.2867719573917619 -0.11119760544584302 -0.0794358118641013 -0.09465880155038332 -0.0801559648689737 -0.09550878761084416 0.26933874112049433 -0.1280843183149464
2270688000.0 0.28648777738614123 -0.11502494164354425 -0.082118443639165 -0.09223433047757974 -0.08298036263904805 -0.09274036897465092 0.2697540173816754 -0.1295029480926176
2271750000.0 0.2859618502849236 -0.11877795978546099 -0.0846169624260983 -0.08959789896820876 -0.08560398998331148 -0.08993357664660408 0.2697594910733219 -0.13008294935598821
2272812000.0 0.2856698872827367 -0.1227448124031833 -0.08732542677992976 -0.08697770083040063 -0.08828325656504658 -0.08705464029604025 0.26851034849190253 -0.13116300309227324
2273875000.0 0.28517223064479086 -0.12670298760263343 -0.08985318758850033 -0.0842535130877221 -0.09065361029688501 -0.08405236791527701 0.2664407918643816 -0.1324590818333541
2274938000.0 0.2849587405167148 -0.13049674853886511 -0.09215941167669206 -0.08165643859758448 -0.09292343033645885 -0.0809988991293813 0.2638690100562371 -0.13452243749157247
2276000000.0 0.2842801827380852 -0.134611795379571 -0.09455727608006642 -0.07866338963949643 -0.09493112341117957 -0.07786371569939356 0.2607121239259584 -0.1371664054213143
2277062000.0 0.2838942416743026 -0.13847353734484236 -0.09702449001789235 -0.0756685675928488 -0.09689018705828051 -0.07481092400317561 0.25738137195311733 -0.14117801937926078
2278125000.0 0.28343216419470646 -0.14222407156532216 -0.09899459870210105 -0.07262502293805947 -0.09876388034180673 -0.07184636807334097 0.2542377275491144 -0.14581191114963973
2279188000.0 0.282992782213223 -0.14577737902040727 -0.10097776283945474 -0.06942627103946762 -0.10051937702962034 -0.06880615368667689 0.25153928969746764 -0.1514350420472029
2280250000.0 0.2827713365997391 -0.14919396967631804 -0.10288883311091489 -0.06617633000290217 -0.10219148264635736 -0.06599973175369367 0.24942871376448456 -0.1579467095354132
2281312000.0 0.2823412349345914 -0.15248959606516985 -0.10459379872547729 -0.06292115108714505 -0.10390835101739522 -0.06289960716165337 0.2488722515738072 -0.16477215946905452
2282375000.0 0.2820178011808696 -0.15559180141088189 -0.10626850226620717 -0.059393500317506676 -0.10557659498752321 -0.059975358079569566 0.24919756696475465 -0.17178256861584026
2283438000.0 0.2815867382517137 -0.15837498474849057 -0.10766641181661309 -0.056044442591362466 -0.10714685360794417 -0.056977020873910204 0.25047454904433714 -0.17842305441530404
2284500000.0 0.28124889022335803 -0.16132026011931141 -0.10893561311288331 -0.05257192294123787 -0.10887013075988072 -0.05381586442218186 0.2531981011752578 -0.18468578425743595
2285562000.0 0.2809075049646104 -0.1636822111114906 -0.11008551317670986 -0.049166318063485655 -0.11044580042302639 -0.05060807748889526 0.25646134501695733 -0.19005962769800597
2286625000.0 0.2802794815637306 -0.16618850391256793 -0.11105802822186593 -0.04590780942764525 -0.11174906301500602 -0.047198937070968665 0.2607179321352652 -0.1943697530101523
2287688000.0 0.2796422776435236 -0.1687604136477502 -0.11191520340251669 -0.0428454404207136 -0.11305744374520321 -0.04367855384659635 0.26507519105471705 -0.19704215669333547
2288750000.0 0.2792578509999508 -0.171123331511346 -0.11252466594832036 -0.0395664014863783 -0.11406628666641618 -0.04009959884083904 0.2690076059617512 -0.19835056542106963
2289812000.0 0.27836908442927644 -0.17344143637369058 -0.11334908873641653 -0.0364265763482588 -0.11476561486017312 -0.03643918531808509 0.2726213866341187 -0.19881617868339124
2290875000.0 0.27736363186580487 -0.17588766221924645 -0.11409710881295243 -0.033329526580434976 -0.11537611473315601 -0.03288760845767112 0.27514667876761695 -0.1976938435009285
2291938000.0 0.2765444916762443 -0.17810033836693134 -0.11475496677516382 -0.030221792889320965 -0.11602865921840916 -0.029304012517375667 0.27632115817926084 -0.19605666535118663
2293000000.0 0.27550754335701705 -0.18039220041350965 -0.11549133591110261 -0.02714349783196303 -0.1162607484942607 -0.025871212846387104 0.2766635740525996 -0.19409876958467848
2294062000.0 0.2747169960578369 -0.18238692622813032 -0.11605759346452453 -0.023941337829317982 -0.11648189572198918 -0.022588010522006877 0.2751282753570219 -0.19204023884653282
2295125000.0 0.2732736713660027 -0.1843867412875769 -0.11656131100696532 -0.020559852005672657 -0.11669772790861013 -0.019503527377793515 0.27232997462418684 -0.1901972318815637
2296188000.0 0.2722468230445389 -0.18665643474326832 -0.11706658520715357 -0.017177797201500148 -0.11689631130871861 -0.016380011755009208 0.2686939246780805 -0.18915738031552257
2297250000.0 0.27114853766340696 -0.18892911298460177 -0.1176441170772163 -0.013777341692121931 -0.11708995083643832 -0.013322833644577158 0.2638466071275546 -0.18911820541264138
2298312000.0 0.26993312012228543 -0.19117359671540743 -0.11796115008169747 -0.010282019078101614 -0.11734835890169168 -0.010062542543141125 0.2588940530833962 -0.18997090439877742
2299375000.0 0.2689577997881539 -0.19337010933845009 -0.11808902035926304 -0.0067099418205066545 -0.1175294870997764 -0.006810442220580652 0.2535521373322018 -0.19240522132845925
2300438000.0 0.2679875256586708 -0.19569468943728563 -0.1181091736571804 -0.0031153067814273894 -0.11775958932219105 -0.003524546411037682 0.2485645572649299 -0.19539780753699373
2301500000.0 0.2669457330044005 -0.19797421869687334 -0.11795502845215479 0.00046910954928308874 -0.11762757647778009 -7.975564300127985e-05 0.24413047024199366 -0.1994203648602229
2302562000.0 0.26618113968682017 -0.2006001505458406 -0.11772991257487343 0.004050921303001695 -0.11776119847447261 0.0035678768514577548 0.24087939272596376 -0.20465227858556603
2303625000.0 0.26532613952530143 -0.20307480841706388 -0.11745127566048708 0.007568321196351201 -0.1176032931897792 0.0072093983568861965 0.2391572405142433 -0.20976961498029884
2304688000.0 0.264659012168376 -0.20552681794533667 -0.11693238185667691 0.010985176621425173 -0.1172932052679956 0.010868880406631079 0.23866412701815687 -0.21539854343311268
2305750000.0 0.26392407808360596 -0.2081825667091653 -0.1162703397316386 0.014336077893805893 -0.11677730248983752 0.014436704852215173 0.23877944273610424 -0.22016177235157885
2306812000.0 0.2634505291774227 -0.21055568938614183 -0.1155562463258905 0.01773833825673987 -0.11611459046793482 0.017974268608400068 0.24063886245114205 -0.22496119261560485
2307875000.0 0.26266460012439996 -0.2130075051745848 -0.11451371009591052 0.021182060951753984 -0.11525267530234529 0.021431508764552163 0.24287622996821917 -0.22794325681218253
2308938000.0 0.26212803171117666 -0.21556053285355642 -0.11382323097175993 0.02441672610066153 -0.11417699636504737 0.024708470975505357 0.2453930825637929 -0.22997831482368175
2310000000.0 0.2619109942017438 -0.21785563878293543 -0.11278996075087268 0.02765865945830878 -0.11324817148374934 0.027868482443284315 0.24802918623696046 -0.23076287469559115
2311062000.0 0.26151427199079486 -0.22029240606206132 -0.11196761035554882 0.030843214755832404 -0.11209182142343475 0.030953991900155638 0.24970161409442082 -0.23008876188579483
2312125000.0 0.2613145619512584 -0.22244390497854746 -0.11086881586900187 0.03389799374154591 -0.11109009213090189 0.03397654524007335 0.250968055466706 -0.22903824058418493
2313188000.0 0.2609220078071112 -0.22441519775667515 -0.10973167592009399 0.03696788701307608 -0.10991642296862053 0.036975391173661484 0.25092097707746636 -0.22687064149229558
2314250000.0 0.26061391483304785 -0.22643996549951118 -0.10862236374947312 0.040024094346099326 -0.10891082216379158 0.03996023858487823 0.2495191134626474 -0.2245254020336742
2315312000.0 0.2605265465407736 -0.22845907439397126 -0.10744366039124982 0.04289302696365379 -0.10766811391815778 0.043019960705165686 0.24671157361193644 -0.22231610304881794
2316375000.0 0.2600937351808986 -0.23039307482830254 -0.10621082441294348 0.04586759678234534 -0.10660242970115814 0.046024514442522674 0.24255815192662356 -0.22032541345746925
2317438000.0 0.2596813021697039 -0.23213647060860343 -0.10495515789496103 0.04887267231983958 -0.10524477760428125 0.04905951296495548 0.23725636433060499 -0.2196216055060335
2318500000.0 0.25918170672277724 -0.23415845696095916 -0.10351743822781397 0.05181442702182602 -0.10384815767508358 0.05223075443368957 0.23172005695402556 -0.21977309083960936
2319562000.0 0.2586637865717063 -0.23603524161266298 -0.10185401976790127 0.05464017634844731 -0.10245027650116004 0.05534845803418407 0.22538526194832434 -0.22147084577000428
2320625000.0 0.2575874224047788 -0.23780358427330464 -0.1002769896441169 0.05759364709071773 -0.10054079335459257 0.05830563279482858 0.21893578101112948 -0.22399144807023608
2321688000.0 0.2568584158210091 -0.23987714672487018 -0.0985962202801794 0.06066748410942017 -0.09885295192465801 0.061303373652619494 0.21298785457446595 -0.22814770594127354
2322750000.0 0.25556513485231114 -0.24180985282268821 -0.09676544625474044 0.063474193732012 -0.09680551929416298 0.06408445293860691 0.20797567368405698 -0.2332969277776854
2323812000.0 0.2544562824546012 -0.24368086947416898 -0.0949353056329388 0.06628539262058158 -0.0948142031347499 0.06678891168498201 0.20372041364340487 -0.23944046173566325
2324875000.0 0.2533152074335334 -0.245670910466572 -0.09303705787032163 0.06909988086628621 -0.09264696644411234 0.06940708518376121 0.20094779578982405 -0.24622478906200018
2325938000.0 0.25194935520427664 -0.24776609092482668 -0.09102356677798233 0.07173719505226234 -0.09045170362302772 0.07184063921002933 0.1995962750148594 -0.25277415476326576
2327000000.0 0.25041276308486177 -0.2498178304893259 -0.0888628231664372 0.07437541460570393 -0.08826757492194079 0.07434801701156052 0.19930808908128195 -0.25945872143385257
2328062000.0 0.2488211404714339 -0.2519332512291625 -0.0866038845808495 0.07682202206166962 -0.08605349333117435 0.07654368825424 0.2004186777314979 -0.2653554663652157
2329125000.0 0.24739314996042885 -0.25429803246278276 -0.08411107999643437 0.0791819433479534 -0.08394993047400989 0.07894828112847607 0.20220490816820946 -0.2699557530879604
2330188000.0 0.2459288544594745 -0.25651234922926747 -0.08178527026287863 0.08149036630437931 -0.08170058010051995 0.0812878179223518 0.20452580759657066 -0.2738709817886045
2331250000.0 0.24445164587904541 -0.2588323977399394 -0.0791002709969169 0.08387483942696455 -0.07939311144438368 0.08355772286860441 0.2065850981472766 -0.27637678065526106
2332312000.0 0.24303376048355024 -0.2612942953706686 -0.07653555991015865 0.08604717573182959 -0.0770392451462009 0.08587522541780185 0.20855480419970118 -0.27811613966109644
2333375000.0 0.2415373573253939 -0.2636051483370761 -0.07378287851053478 0.08813263219369909 -0.07457914198129502 0.0881231960291585 0.21012760476437514 -0.2787466965508117
2334438000.0 0.24007152321010694 -0.2662276942051377 -0.07112608986679193 0.09017369278040087 -0.0719666420094838 0.09023802428788398 0.21046153341036283 -0.27884811648219887
2335500000.0 0.23876634496999083 -0.26904416202249776 -0.06839543546776808 0.09213477428736559 -0.06932090133720302 0.09243920177126112 0.21049294918286512 -0.2782046955498999
2336562000.0 0.23734123173067614 -0.2715125829700732 -0.06575039115041746 0.093989131110765 -0.06647847291106444 0.09426437803762856 0.2094582256360594 -0.2774509602313677
2337625000.0 0.23594948446644035 -0.2741426253589686 -0.06292414131268281 0.0957218094517347 -0.06348197704307657 0.09620359186842244 0.20723339806135968 -0.27629248346629864
2338688000.0 0.23458330079131431 -0.27662973389727546 -0.06011994149682523 0.09743243355528299 -0.060391076454877284 0.09790997859978738 0.204086791473301 -0.27589979068495285
2339750000.0 0.23298359195803456 -0.2792485598412921 -0.05708141453221816 0.09891393872879962 -0.05723993836754426 0.09965116109129986 0.19987341104045528 -0.27649951964603126
2340812000.0 0.23171305895891417 -0.28191255478390703 -0.05411594850741858 0.10047723975304045 -0.054091450232147835 0.10123549689929422 0.1958301400093131 -0.2775107810576327
2341875000.0 0.23070046304603775 -0.2843507081727739 -0.051200464315034444 0.10195891853228464 -0.05098158687457186 0.10279356334008699 0.19140298342496734 -0.27987740454541193
2342938000.0 0.22890479012679196 -0.28664355481894693 -0.048115781154325785 0.10354703608866582 -0.04790908788833955 0.1042538417139537 0.1873100024787439 -0.2837289537764902
2344000000.0 0.2276020503042015 -0.2890164684842234 -0.04496085004823326 0.10491383903477443 -0.044864279692890675 0.10556998853901423 0.18375676839534344 -0.2880657350946499
2345062000.0 0.22627953607491244 -0.2912328026606821 -0.04188352511173134 0.10623422511589437 -0.04179283555826249 0.10691208670623953 0.1808335930558367 -0.2937929390479957
2346125000.0 0.22461747377273233 -0.2934838981860484 -0.038874638776011716 0.10752801301635327 -0.03864284866713146 0.10800757004136093 0.17934357360269287 -0.2996454676041512
2347188000.0 0.22302838685121437 -0.2957132652344 -0.03588063760582267 0.10860346077449604 -0.03558601356741897 0.10893345488650952 0.17876381334716823 -0.30560674298993273
2348250000.0 0.2213482876021856 -0.2977009535135233 -0.03268937023867731 0.10967474718045109 -0.032472573303211516 0.10991854013714827 0.17933466874345355 -0.311695434672023
2349312000.0 0.219560965508239 -0.3001028115762151 -0.02982856047794732 0.1107943972243959 -0.02941588976398854 0.11083631257454539 0.1811117349727816 -0.31738033553765177
2350375000.0 0.21765954375474156 -0.30234048949470116 -0.026665815774910003 0.1114613393791883 -0.02630825069790584 0.11160241104677054 0.18334541648690214 -0.3221693847295671
2351438000.0 0.21553758685868848 -0.30440010330559714 -0.023312626833627108 0.11214324142282199 -0.023103256777992263 0.11217211577856886 0.18628885293991196 -0.327033182301864
2352500000.0 0.21359226962790495 -0.30688452832083746 -0.02022114630719848 0.1129174300361278 -0.019783712174840967 0.1129230057842603 0.18838824023451867 -0.3297860651654979
2353562000.0 0.21115516257356934 -0.30897431074578635 -0.016771589159642573 0.11358597237725288 -0.016584435853285475 0.1135853052118434 0.19082168287809442 -0.33258196314478017
2354625000.0 0.20898885849234555 -0.31129185185486635 -0.013519395324022595 0.11411013546711252 -0.013407805962994459 0.11400154545128345 0.19293210748301642 -0.334436962549652
2355688000.0 0.20641659708462576 -0.3140170270042792 -0.010199545059660314 0.11447917734705182 -0.009976117306842601 0.11455981052214714 0.1947725659660712 -0.3351571455189625
2356750000.0 0.2040497784322242 -0.3164064366616342 -0.006690032929326925 0.11486088839791643 -0.0068853975716634454 0.11480227498555137 0.19594053476446052 -0.3352663765963425
2357812000.0 0.20190797166733426 -0.31901586770164664 -0.003210067822394486 0.11504309872977608 -0.003623282486404694 0.1149961826061149 0.19589077730748744 -0.33568758845115154
2358875000.0 0.19934646392914723 -0.32162101370300894 0.0002604197719735215 0.11499390622059875 -0.00018579252910742552 0.11503248012122573 0.19510560532052076 -0.33470409789758476
2359938000.0 0.19682111457125495 -0.3239249102846546 0.003747497964338765 0.11467956022071761 0.0032170337856267843 0.11487708236167278 0.1940765005371312 -0.3342476023512255
2361000000.0 0.1945505095912569 -0.3265944240986126 0.007207423006366967 0.11422429351647392 0.006716590743488888 0.11458767910207762 0.19216912765592453 -0.33278811084368504
2362062000.0 0.19227886788917675 -0.3292387835528254 0.010708743736934088 0.11370942349220484 0.0102883781942449 0.11404133944764151 0.18918967794577168 -0.3325441190378567
2363125000.0 0.18989812221317498 -0.331918204956638 0.014062874807554722 0.11289813121346803 0.013742062570898628 0.11337814162133242 0.1853316735173578 -0.3317426025228394
2364188000.0 0.1876085406931663 -0.3345403958809943 0.017522747691806884 0.11192044318973556 0.017426478265050404 0.1125248355013571 0.18011069130495777 -0.33209186277411556
2365250000.0 0.18541870468661584 -0.33713961791415287 0.020755275733091876 0.11071798069927781 0.02104949448588412 0.11154391561521435 0.1751572927222816 -0.33301991360433025
2366312000.0 0.18330328718049863 -0.3396861255192575 0.024092468912603974 0.1096423716583007 0.02432051920942118 0.11033032562016093 0.1703563520531841 -0.33485345079397727
2367375000.0 0.18097226322724838 -0.34226364493214645 0.0271437347793435 0.10852385969423718 0.02764074499878802 0.10924339193611587 0.16595009930114143 -0.3374514760572268
2368438000.0 0.17891849032588478 -0.34481801112622484 0.03009615737617414 0.10729749041866359 0.03088618185503639 0.10783754208535147 0.161298902008251 -0.34057481972343046
2369500000.0 0.17674749526354136 -0.34745711194916523 0.03306935658057205 0.10603211698291068 0.0338284569278824 0.10653968198785435 0.15716041915911458 -0.3439750527997081
2370562000.0 0.17466886978404772 -0.34979178216813367 0.03610613950006258 0.10470452618326406 0.03664213733344764 0.10505432842688646 0.15323395253493716 -0.34785378838349024
2371625000.0 0.17291727601493118 -0.3522362477257121 0.0388070415752237 0.10360623357593697 0.039444587615586585 0.10370406346970816 0.1505216366325241 -0.35218924571440924
2372688000.0 0.1703983221146368 -0.35451017152566755 0.04186936962890889 0.10223214185588264 0.04231688529452998 0.10221594760487823 0.14704106464827713 -0.356377588305259
2373750000.0 0.16817614145080784 -0.3566325436873557 0.04472307193425059 0.10102073648875076 0.045044024916121854 0.1007352831057496 0.1439481914498907 -0.36005795087396153
2374812000.0 0.1656033516394504 -0.358789912102791 0.04767119300403367 0.09965463641313306 0.047972640802754214 0.09941190150340336 0.14155203831142826 -0.3644946010565848
2375875000.0 0.16338475619984438 -0.36069616303950697 0.05072558123396374 0.09809267477527814 0.05092354494217105 0.09793585190779061 0.13903900168819824 -0.3680858358338675
2376938000.0 0.16084656882158377 -0.3626168907903142 0.053804886598380654 0.09669027283298724 0.05384938618902987 0.0963774909465502 0.13713252907534895 -0.3723090500671882
2378000000.0 0.15819675416725104 -0.36461409188996874 0.056765026622520975 0.09512318935412417 0.0568946443011209 0.09486085636734407 0.13574172796053358 -0.3762617499952271
2379062000.0 0.15556537034777165 -0.36646900393820553 0.059558312541534965 0.09341671511253671 0.059681108734203216 0.09314763149691117 0.1343624045362754 -0.37960477221478395
2380125000.0 0.15272387300227247 -0.3681697407509243 0.062494375146105216 0.09135023422650794 0.06251851284076655 0.0911282125010197 0.13338278409280455 -0.3825630943391313
2381188000.0 0.15013963850954387 -0.3699585460624826 0.06511611018702095 0.0892738483396629 0.0652716073321444 0.08921466143820003 0.1329853037001593 -0.38506732961970674
2382250000.0 0.14741665791372283 -0.37171465365171696 0.06768821187635583 0.08701514397964283 0.06761874063678318 0.0868963755180032 0.1325182683284566 -0.386236643772523
2383312000.0 0.1445299898981047 -0.3738628783706703 0.07011343596102904 0.08458395233437464 0.06996961479748474 0.08453588098258359 0.1313268909413474 -0.3872828123627728
2384375000.0 0.14181165228533157 -0.37574873485514637 0.0724466719798654 0.08201923408759582 0.07215292591554594 0.082130583852373 0.12945018612705061 -0.387425985071938
2385438000.0 0.13883525009057343 -0.3776941689881245 0.07445155791676134 0.07930704526602232 0.07412172619395256 0.07963503437220104 0.12660467686654023 -0.3870740444553726
2386500000.0 0.13593070765648155 -0.37998251946990436 0.07642126193942445 0.07679286856083044 0.07593464581460573 0.07724867448275421 0.12328923434789496 -0.38743737437004194
2387562000.0 0.13302711995527966 -0.3820676721530676 0.07804635663232143 0.07426053412943223 0.07777883543289223 0.07481880285649446 0.11910450438750629 -0.38749462907264204
2388625000.0 0.12982418584476263 -0.384225358978169 0.079586281211844 0.07163675133357948 0.07949551045159635 0.07256568766479446 0.11432917675301833 -0.3879915926439507
2389688000.0 0.12703672200361152 -0.3863959063837782 0.08117938267096826 0.06914005180432385 0.08126360526703963 0.07021083755493346 0.10876148716920132 -0.38883029861901286
2390750000.0 0.12395964529154826 -0.388552528934743 0.08256762616652084 0.06674693487655588 0.08293239339442493 0.06793968718698812 0.10355066754983201 -0.390365216895109
2391812000.0 0.12134352089955946 -0.39073960686392 0.08396918926084523 0.06463665990113414 0.08470880638881108 0.06554259350041534 0.09762331688646028 -0.3922986255522524
2392875000.0 0.11853099219555506 -0.3927411284671758 0.08528612631770328 0.06211971737034129 0.08627733024527816 0.06303328631790495 0.09205381749622013 -0.39472408441783624
2393938000.0 0.1157987089561844 -0.3947482098791598 0.08679638065309955 0.05981667529011715 0.08808702624612078 0.060288440728967434 0.08620605642108886 -0.397999320494023
2395000000.0 0.11339107182915245 -0.3965733562365279 0.0881346283320827 0.05738725809887116 0.0896903390781248 0.05757212264953589 0.08074312737341346 -0.4013845749884165
2396062000.0 0.11060878269346801 -0.3986694011531718 0.08963111955866349 0.05497965605957585 0.09118259857020805 0.05454625398802327 0.07546956402475527 -0.4059113898766959
2397125000.0 0.10824293660188426 -0.4002588730325142 0.09105756957745635 0.052376613548384424 0.09255713761900802 0.05165698037866683 0.07158045168880921 -0.4105178761221615
2398188000.0 0.10563925608783027 -0.40183669503117614 0.09270218448490479 0.04981693814448746 0.09375863503601915 0.04857005185632533 0.06856936027667111 -0.4160555917753658
2399250000.0 0.10345926085426906 -0.403587041788839 0.09414587162514974 0.04710655792746076 0.09488343282784292 0.045676910574253084 0.06655142941015645 -0.42104750422278975
2400312000.0 0.10095393272428355 -0.4051336103463685 0.09562117449942813 0.04437911326164682 0.09572190080108706 0.04291982972935883 0.06621842753831277 -0.4261451426723758
2401375000.0 0.09821241147368134 -0.4065447361534531 0.09704901124738971 0.04174783861513763 0.09650831961850151 0.040340011863527855 0.06670272096643261 -0.43034234527431625
2402438000.0 0.09542564504859846 -0.4079518688057823 0.09821556225945477 0.038692171565689305 0.09733082791575688 0.03779870180629134 0.06781323212868082 -0.4331644467755897
2403500000.0 0.09267170332587986 -0.4090973884204263 0.09927313616251103 0.03600416240301029 0.09794929475335097 0.035546885748133736 0.06956978846736894 -0.4343326204605974
2404562000.0 0.08970226211489617 -0.4101537970734011 0.10023028597272633 0.032933828883949065 0.09880888563538127 0.03308244851436966 0.07054011655461621 -0.4349685088226843
2405625000.0 0.0866926352861496 -0.41106585086133995 0.100966739375319 0.030170577445894065 0.09963886840527528 0.030749312236225297 0.07138940796838569 -0.4341455322824622
2406688000.0 0.08362962167585515 -0.4115533571255552 0.1015169147334503 0.027266101632067687 0.10061764812315528 0.028200765947313848 0.07144953822911546 -0.432151748619021
2407750000.0 0.08041830572959392 -0.4124109987587764 0.1021503545019955 0.02438065737715203 0.10168927750216958 0.02575454695869421 0.06989165882192702 -0.42963402163770603
2408812000.0 0.07702969799302668 -0.41318889620390203 0.10238469678832682 0.021545322110424526 0.10263549093336606 0.023088990672686504 0.06762747681956267 -0.42660078618358455
2409875000.0 0.07364636076061006 -0.4134145619434365 0.10258208004213881 0.01874693461844835 0.10336754344312707 0.020343400731424443 0.06401730763064763 -0.423300182005291
2410938000.0 0.0700985271229882 -0.41427374197402667 0.10262527111159717 0.01619777307574378 0.10409109426518069 0.017376797534898344 0.05929563461480754 -0.4198015649268536
2412000000.0 0.06658823456886014 -0.41510505375786555 0.10279360146795864 0.013510527508719946 0.10453967739177564 0.014273673543922076 0.05326327232613081 -0.41673625655345375
2413062000.0 0.06279756404986567 -0.4155712415583448 0.10272887896842886 0.010763412429474666 0.10466199204949692 0.01096482203259284 0.04638172712913581 -0.41476022226664494
2414125000.0 0.059332179054437204 -0.41627535283278877 0.1026530111447721 0.008169948269519379 0.10452775857221679 0.007831062846744351 0.03808756073209535 -0.41326204269265454
2415188000.0 0.05551239642950817 -0.41716539633972005 0.10278566773669445 0.00566018460519511 0.10423621863367552 0.004581859549223021 0.02999565531499179 -0.4130742996434533
2416250000.0 0.051713210376708174 -0.41790271570548987 0.10274141738017677 0.0029352741903088636 0.10371555714968653 0.0015673743077641961 0.022147202401792083 -0.4141847627894714
2417312000.0 0.047896734735997655 -0.41870452989927476 0.10269265018667587 0.00030486161519365846 0.10314338374942464 -0.0013663088780664174 0.014726594625334072 -0.4160034228683782
2418375000.0 0.04427058944943958 -0.4196331179263912 0.10278149567420515 -0.0025067975172214183 0.10258251416441523 -0.004148922751080534 0.007845186275101333 -0.41996322998793817
2419438000.0 0.04032773093633441 -0.4203967143719551 0.10270773367114838 -0.005514768057188434 0.10212076969717716 -0.006837335469769948 0.0030008525077414075 -0.4243056786302353
2420500000.0 0.03653286281359362 -0.42135614114443226 0.10265541181821046 -0.008373294042233602 0.10190456437088832 -0.009309288522868643 -0.0005055418665023596 -0.42862465918822296
2421562000.0 0.033001661393618244 -0.4220944573767427 0.10263995632784198 -0.01120195682559469 0.10157704633302082 -0.0118614447163191 -0.002190805250909244 -0.43359525632412016
2422625000.0 0.029452444410029813 -0.42287033891526493 0.10246636549987806 -0.014182802293039934 0.10153193355277665 -0.014356947409431877 -0.0021469482085962896 -0.43734627260312514
2423688000.0 0.026201487702837638 -0.4235952710988791 0.10228086484518427 -0.017069295926198415 0.10149446684633175 -0.01682799350596307 -0.0011891171951117431 -0.4394595812899799
2424750000.0 0.022785145426801698 -0.4240668538506675 0.10203670531309406 -0.02035225554574233 0.10144832057474544 -0.019564831105434083 0.0006207055275535445 -0.4413251401778453
2425812000.0 0.019364418172907807 -0.4246155202569057 0.10163188675124858 -0.023284092003907915 0.10131332240203346 -0.022383176101665344 0.003077102487744221 -0.4407848924536289
2426875000.0 0.016299788576448024 -0.4250890101481089 0.10111355920013249 -0.02631072647742995 0.10115069599177914 -0.02540511485118941 0.0037427001976010343 -0.43906097536210476
2427938000.0 0.01327691387450991 -0.4253878355993597 0.10048007790056036 -0.02933297415003002 0.10088928891492978 -0.028402238684804317 0.0037834151228509586 -0.4357772243709987
2429000000.0 0.010223899895967921 -0.42546588628254767 0.09981623299159148 -0.03219124419860519 0.10037370622087693 -0.03154855699961712 0.002969688465019458 -0.43166680829982407
2430062000.0 0.007046276349666177 -0.4257430853306361 0.0989700946948889 -0.034786879670973284 0.09977135455329977 -0.03457592258748149 0.001480619489045503 -0.4267724183375542
2431125000.0 0.003868640355403534 -0.42537038126865123 0.09789816120411514 -0.037658804223612743 0.09872646085981251 -0.03758963397211787 -0.002530604511449654 -0.42146300531464737
2432188000.0 0.0007093258010895432 -0.42519992055392486 0.09678152804312334 -0.04008761205946505 0.09762612707516194 -0.040387598847641454 -0.0075359605412412085 -0.41647965695061717
2433250000.0 -0.0025901320888147405 -0.42501602824269674 0.09554953242874169 -0.04257250756166911 0.09622098444902422 -0.04310431756658335 -0.013779110379201974 -0.41138439652533354
2434312000.0 -0.005682318105284277 -0.42459557036784673 0.09418931646626046 -0.04494758163591034 0.09476034035911819 -0.04549461977152448 -0.02181128618342114 -0.40732842865701907
2435375000.0 -0.009216599029576288 -0.423498806873964 0.09274164010826896 -0.047292974002723025 0.09305126226845928 -0.04786642221282858 -0.03030560728989293 -0.4035967396405291
2436438000.0 -0.012864865334497077 -0.4227869498060935 0.09115933566836303 -0.049626650942538035 0.09138781350244823 -0.05014119986644605 -0.03975794230094366 -0.40192866456910975
2437500000.0 -0.01627491487395543 -0.42192602415324365 0.08965572460824396 -0.051847379238471304 0.08967488637408066 -0.052332324026920694 -0.04925592180665104 -0.4013214113430935
2438562000.0 -0.019713497499032142 -0.4210919674494408 0.0880228831116893 -0.05416959842564386 0.087971457239008 -0.05435165934034195 -0.05856985182829799 -0.4025697520922987
2439625000.0 -0.022990227955998904 -0.4199492381417024 0.08625080255252342 -0.05637967911646257 0.08615399613144194 -0.056626106337302765 -0.06677748650502781 -0.40453576099059296
2440688000.0 -0.026687673216761326 -0.4191768539558696 0.08454717848512866 -0.05877053405769403 0.08442787426326015 -0.05882263675538233 -0.07360254154626177 -0.40855845981062344
2441750000.0 -0.03023652905203442 -0.41831512363525997 0.08274261014836388 -0.061147668350416906 0.0826278078230156 -0.06113388070828313 -0.07899796598185259 -0.41274930833577705
2442812000.0 -0.03391828841943977 -0.4175436752901937 0.08090510062495546 -0.06344042163514002 0.08080901549263893 -0.06351608054349413 -0.0827400656180011 -0.4174415974162738
2443875000.0 -0.03762193595336746 -0.41693658936659644 0.07885700630967526 -0.065821300931472 0.07883244116399896 -0.06581205830444704 -0.08453375157529651 -0.4212862578992001
2444938000.0 -0.041047314126780914 -0.4161993343683641 0.07688187020514049 -0.06814858016856001 0.07693422239752364 -0.06826607486864913 -0.0844780730029316 -0.42512197625067294
2446000000.0 -0.04500750226061002 -0.41560880555970414 0.07459535776853471 -0.07042064423540138 0.0747612146888885 -0.07057951683903152 -0.08395008925842179 -0.4268731999975646
2447062000.0 -0.04863416904102863 -0.4148474922056324 0.07232348110195512 -0.07283176458730647 0.07258770143162041 -0.07285369658109551 -0.08254898211659444 -0.42740202235301283
2448125000.0 -0.052034068168732676 -0.4146682907714606 0.07010273583177484 -0.07513157118343834 0.07022210290854146 -0.07511405695161565 -0.0818728835597466 -0.4261999871990144
2449188000.0 -0.05552951374077458 -0.41427443603436453 0.06775691993940493 -0.07730138274246509 0.06803075601819171 -0.07728942122936107 -0.08119806904271375 -0.42332737711839363
2450250000.0 -0.05866344395241886 -0.41404625908037423 0.06546343957763816 -0.07938840857425007 0.06572056262459121 -0.07937228946545852 -0.08062042993297665 -0.42085255034272506
2451312000.0 -0.06225456594896168 -0.41354312314643454 0.06309951037773791 -0.08139283208024176 0.06331206740526123 -0.08137538303403155 -0.08205126993734321 -0.41678013136554287
2452375000.0 -0.06516105164900024 -0.41330005370329187 0.06068073418167679 -0.08325826395165227 0.060979621646432974 -0.08333902911176261 -0.08400410727839495 -0.4121281079929081
2453438000.0 -0.0683642338510952 -0.4131115921469819 0.0583828615305292 -0.0850426691044708 0.05868479704504573 -0.08523760745388954 -0.08798401006866607 -0.4073989917471932
2454500000.0 -0.07099088089380791 -0.4129313052259878 0.056161312611523594 -0.08669039832716932 0.05637365796159222 -0.0869851510519213 -0.09254184577688472 -0.40359808831984284
2455562000.0 -0.07386655119220381 -0.4124232689296385 0.053750854469652644 -0.08822046161750238 0.05403381989099997 -0.0885542349820022 -0.09730219656436659 -0.4000741967959258
2456625000.0 -0.07655843279186561 -0.4121960641159232 0.05145215127094742 -0.0894780567517969 0.051672115794360145 -0.09007127011282265 -0.10288015011071659 -0.3979552498506928
2457688000.0 -0.07898422610094051 -0.4118347180842355 0.04902919824950414 -0.09089469658765612 0.04921586085131387 -0.09133202936330477 -0.10960659423797559 -0.3961355266077758
2458750000.0 -0.081454485491473 -0.4113725026195263 0.04655019033881712 -0.09200589162589762 0.046646707565973396 -0.09257138212077373 -0.11557931168385115 -0.3958044972556802
2459812000.0 -0.08377807348158263 -0.41052873834771636 0.044067248086693434 -0.09330785919224875 0.043991142237717 -0.09374054037035268 -0.12167010815674247 -0.39663757021040896
2460875000.0 -0.08629263707855438 -0.41002567081038443 0.04138843770531182 -0.09444399429362892 0.041332126151449315 -0.09480046519095525 -0.1269131969310846 -0.39881474892330543
2461938000.0 -0.08851044541872619 -0.4090394086081435 0.03879315883684364 -0.09563162780330699 0.03862100446637737 -0.09583065600399485 -0.13144682075495828 -0.40175854122501287
2463000000.0 -0.09080767138691781 -0.40828592585973883 0.036048114079058106 -0.09673504319304313 0.03595710126556513 -0.0968210225259929 -0.13427084572381995 -0.4048777397394041
2464062000.0 -0.09324652680257683 -0.407188072804947 0.033186943125744627 -0.09768306075927444 0.033202680567374444 -0.09770820634201903 -0.1357151652220235 -0.4089363586358649
2465125000.0 -0.09578867481792432 -0.40574172083054444 0.030097745878759966 -0.09871987613791387 0.030278521692776363 -0.098564710856932 -0.1359182771684725 -0.4111169460495878
2466188000.0 -0.09808344244138364 -0.40517344485328616 0.02722998320221249 -0.09949421400289973 0.027318719616227477 -0.09950317472202684 -0.1357243629305037 -0.41334829673689594
2467250000.0 -0.10035097860703963 -0.40437297336552197 0.024139865035200866 -0.10024965334565417 0.024311373154829747 -0.1003893634758365 -0.1339324362470842 -0.4140016156098052
2468312000.0 -0.10291714870984904 -0.40322738927758345 0.020961389697174575 -0.10081388350799542 0.021285198862812146 -0.1010198955462245 -0.13181577367405628 -0.41374532199402553
2469375000.0 -0.10547741928800418 -0.4024444643282661 0.017686138638657662 -0.10144320050584371 0.01801635608975956 -0.10159490557947146 -0.12950898992667667 -0.4119469544450876
2470438000.0 -0.10802418061033689 -0.4016514402000081 0.014457367054816806 -0.10171198241161626 0.01484114635701965 -0.1021459861994489 -0.1280150798802534 -0.40856692411112155
2471500000.0 -0.11086211276137477 -0.40105166365192574 0.011342904002877184 -0.10205901247723254 0.011512775828258388 -0.10251332638067287 -0.12700164896202074 -0.404260093609411
2472562000.0 -0.11348240084936788 -0.4000649376828465 0.008136338153777867 -0.10211121434247745 0.008259018367331075 -0.10280764039567991 -0.1269415129776631 -0.39837582882605815
2473625000.0 -0.11640666667940536 -0.3995752360251105 0.005101329375332029 -0.10215851867800307 0.004999255520256686 -0.10287249922129864 -0.12808532445089194 -0.3922905437390669
2474688000.0 -0.11880562735639298 -0.39900436005237344 0.0020654203327053772 -0.10208432328412861 0.0019272511021776859 -0.1028346499176314 -0.13086930910441286 -0.3862669062919202
2475750000.0 -0.12210648071192282 -0.39835305962321005 -0.000876822205442335 -0.10207407139034738 -0.001240717725972683 -0.102763922255537 -0.13411311210550053 -0.3807796172042574
2476812000.0 -0.12447904345255265 -0.397740018677101 -0.0037190702450803845 -0.10197704553663524 -0.00409863603108443 -0.10245696909509602 -0.1390350373120875 -0.37609688184156403
2477875000.0 -0.1268825057497161 -0.3973498936218016 -0.006301510925954806 -0.10173492851716845 -0.006904896737764792 -0.10215605084989189 -0.1442534640972433 -0.3718771634009843
2478938000.0 -0.12969341602089915 -0.3971873745427536 -0.009210647611992025 -0.10168259099679902 -0.009761524797495045 -0.10187670687143299 -0.15022998132550416 -0.369147887166719
2480000000.0 -0.13185418091750958 -0.396780511671852 -0.011941574865776256 -0.10139633654268132 -0.012517503079729294 -0.10145789194341803 -0.15608757009254345 -0.36735249857196656
2481062000.0 -0.1345822071599129 -0.39682346427637893 -0.014746631965920808 -0.10121741258324606 -0.015148543464288488 -0.10126240468646541 -0.16193953436724176 -0.36641077437567887
2482125000.0 -0.1366863610547718 -0.3966196008100241 -0.01766001756979042 -0.10087498817657359 -0.01783665564652099 -0.10080981683049531 -0.16773414059588768 -0.366848437281508
2483188000.0 -0.13902295356693545 -0.39687324751203634 -0.020527928864238508 -0.10056568991128641 -0.02060702341973877 -0.10039616071531475 -0.17291759108767202 -0.3676916730575316
2484250000.0 -0.14129931381350053 -0.3963861092237111 -0.023523485191026587 -0.09974098127961468 -0.02350200602256586 -0.09984438033758633 -0.17687052314545074 -0.3690656102077548
2485312000.0 -0.14335326930198108 -0.3964864816985265 -0.026352938324794975 -0.09908281407297265 -0.026448634683853216 -0.09931774679974172 -0.18067432215956813 -0.3708371438202888
2486375000.0 -0.14543028816187945 -0.3962878163698512 -0.02954733569462391 -0.09826366880069946 -0.029561367001150977 -0.09847218961561043 -0.1835624241695508 -0.3726080419117832
2487438000.0 -0.14762877393154508 -0.3956242459579241 -0.03237988757045547 -0.09730736664577218 -0.032477635404968584 -0.09759680894414878 -0.18550558606595274 -0.3747602489030131
2488500000.0 -0.14961379079313508 -0.3954740165581547 -0.035399426512605414 -0.09617735401564641 -0.03552540383998285 -0.0964357616287388 -0.18693685098716645 -0.3757962001311426
2489562000.0 -0.15136703619885916 -0.39469760275902144 -0.03829902900948887 -0.09477279190867163 -0.03839090811268072 -0.09515339970151658 -0.18780241500153452 -0.3762525707573695
2490625000.0 -0.15375230854857566 -0.3940811903772165 -0.0411143337033233 -0.09331952596413905 -0.041330786305457126 -0.09367248748243732 -0.18821312850804703 -0.37584301790905433
2491688000.0 -0.15544883074483196 -0.39321646831744916 -0.04382769269732927 -0.09182412966084245 -0.04398346658697045 -0.09209813518012631 -0.18860906159307894 -0.3747903019695881
2492750000.0 -0.15758723908814762 -0.3921163211146781 -0.04632354151448624 -0.09026129050820382 -0.04648295005137679 -0.09042252793119876 -0.18904750200139392 -0.3730051459086473
2493812000.0 -0.15975626572290827 -0.3914312843602194 -0.04874435924532527 -0.08863550020119029 -0.04886179758122408 -0.08879276001975425 -0.19007379206905778 -0.37062041193775513
2494875000.0 -0.16205599551944322 -0.3904185092802625 -0.05104149952594274 -0.0869286308771622 -0.051137891363581524 -0.08715478981520085 -0.19150905934282164 -0.36770681807974553
2495938000.0 -0.16421585603708738 -0.389558656077726 -0.0533946111893084 -0.08521825108338313 -0.053295383115582705 -0.08554554300616006 -0.19353667256798052 -0.36472627934872404
2497000000.0 -0.16668376148934036 -0.3884280317945902 -0.055622485993643556 -0.08353396480396214 -0.055499091443342204 -0.08397168366015385 -0.19619494697052428 -0.361796468021788
2498062000.0 -0.1690215053858011 -0.38741605609107854 -0.057719558530163716 -0.08188252355105217 -0.057739255543680174 -0.0823769856875308 -0.19935556090377807 -0.3588458589857986
2499125000.0 -0.17151498772176185 -0.3867052449507111 -0.05972459644644918 -0.08020400452918974 -0.059929503531949306 -0.08077446970972191 -0.20286755763074385 -0.3562415396984948
2500188000.0 -0.17435433503537326 -0.38586246211802505 -0.06184854656784219 -0.07850901341246383 -0.06222150902351939 -0.0791430182639872 -0.2066821930287942 -0.3541481453856392
2501250000.0 -0.17707913081012308 -0.38520807458132317 -0.0639371338160319 -0.07697503314731577 -0.06453693358212735 -0.07758481690893163 -0.21077655494060307 -0.35266837580961213
2502312000.0 -0.17997417581741737 -0.3842570799165751 -0.06596140480829187 -0.07512432259113588 -0.0668700932109894 -0.07579445602042767 -0.21510475276552102 -0.3517651531217325
2503375000.0 -0.18240270511098172 -0.38361565566608125 -0.0679838433140352 -0.07344856575485938 -0.06901587780612402 -0.07372057285463834 -0.2194759357347893 -0.3514429672299097
2504438000.0 -0.18517907721286442 -0.3827799569068193 -0.07025724867325263 -0.07157219591000691 -0.07121744780721044 -0.07158168020094859 -0.22387266864589997 -0.3513014196355338
2505500000.0 -0.18782638376880711 -0.3819237872259322 -0.07214839835790378 -0.06950378504866954 -0.07317649795152924 -0.06916457426213132 -0.22766594294484951 -0.35172386352390783
2506562000.0 -0.19041399726899053 -0.3812441211791976 -0.07410630545259446 -0.06740126367037348 -0.07492579536485111 -0.06680426209998822 -0.23120399193782634 -0.3526580206953377
2507625000.0 -0.19310985876904918 -0.3805692559654227 -0.07606803908637151 -0.06513062033183684 -0.0765831219793514 -0.06429588630777705 -0.23461812533895463 -0.35361494472974175
2508688000.0 -0.19565526536249742 -0.3796411876455738 -0.07786683107942334 -0.06267951106610356 -0.0781927172310115 -0.061792074278541366 -0.23709048854847 -0.3547202748983105
2509750000.0 -0.19813433915538278 -0.37895085841324244 -0.07957440465827628 -0.060030998956326964 -0.0795430648576957 -0.05935486998524269 -0.23946181760558874 -0.35610150014233277
2510812000.0 -0.2010017905237944 -0.37835326028425126 -0.08138390006130412 -0.05753631921020088 -0.08092947525406585 -0.05694413171407898 -0.2414621071358631 -0.3574723100773626
2511875000.0 -0.20309538987515005 -0.3773568800668046 -0.08286627316336664 -0.0549190913095132 -0.0822096897998517 -0.054631845943891526 -0.24304061896568016 -0.35862766732053
2512938000.0 -0.20586845895452263 -0.3765407975156154 -0.08427460541297865 -0.052285377537013136 -0.08344484797268935 -0.05238780938772817 -0.2437307861019983 -0.35906494797932614
2514000000.0 -0.20852138450675545 -0.3755655925651666 -0.08564784839009612 -0.04970525252773123 -0.08482680306749722 -0.050230971164857204 -0.24453617666720626 -0.35993560636862754
2515062000.0 -0.21114979083102997 -0.37464071119127196 -0.08678553039502704 -0.04722035863421547 -0.08617017329641465 -0.04796832520914982 -0.24509505550416133 -0.36035534700473304
2516125000.0 -0.21340478966206408 -0.37345870098718004 -0.08783162032986674 -0.044569794129667176 -0.0875382646915764 -0.045632148751124826 -0.24558676204770089 -0.3599263831122716
2517188000.0 -0.21601170608823764 -0.3721104242648479 -0.08879047674227608 -0.041941523094862765 -0.08889764336803797 -0.04321515247516122 -0.24518494122313855 -0.35947025356706147
2518250000.0 -0.2181099305497385 -0.37097662073902266 -0.089641613600991 -0.039482853003934726 -0.09015847148213345 -0.040714447350727996 -0.2456051174218129 -0.35837134265478526
2519312000.0 -0.2206178216915923 -0.36956484696351366 -0.09054281551375058 -0.03683293148066235 -0.09146895702904084 -0.038030003132656434 -0.24599992250610958 -0.3569874273895872
2520375000.0 -0.2229288018742382 -0.3682003004802496 -0.09128069576923774 -0.0344992910441254 -0.09270312002552852 -0.03522785098548548 -0.2461362813537797 -0.35517534412379237
2521438000.0 -0.22532626006613726 -0.36644047873517244 -0.09206073128877064 -0.032034317789243816 -0.09359256744418318 -0.03222846797612755 -0.24661312533968596 -0.3527696974106103
2522500000.0 -0.22779970740253547 -0.36497370492586667 -0.09277350107027031 -0.02960044117176465 -0.094496465904015 -0.029372249706724602 -0.2471277315444983 -0.34976546015998033
2523562000.0 -0.23018205396312819 -0.36330303005800574 -0.09352338504305775 -0.027069659870036702 -0.09514267353095282 -0.02647987046711784 -0.24907654347667602 -0.3466790253993306
2524625000.0 -0.2327512401755912 -0.3615153278772528 -0.09430737922559303 -0.024692484570795887 -0.0955394329244736 -0.02361206880706278 -0.2510871516644981 -0.3429211048120382
2525688000.0 -0.23536185322604572 -0.3592247685109903 -0.09499325922749317 -0.022081736239071982 -0.09575858328016679 -0.020734906747462978 -0.2543904602206027 -0.33898605409155846
2526750000.0 -0.23839321063189292 -0.35770389931482277 -0.09575812242904264 -0.019518041133196853 -0.09597040646158525 -0.018129085380516073 -0.2579898555431012 -0.33582887563998737
2527812000.0 -0.24124861350762028 -0.35599261868406745 -0.09640795328818552 -0.016904724987894203 -0.09607489002690607 -0.01549994339449899 -0.2626597691634402 -0.33278016010134287
2528875000.0 -0.24424117122391473 -0.35419275585871024 -0.0969039329993418 -0.014127872844993544 -0.0963039544556218 -0.012949235935748782 -0.26715117830538493 -0.33035520206918806
2529938000.0 -0.24756701372150247 -0.3523345578701093 -0.09734650546871826 -0.011208205971854306 -0.09651241800057052 -0.01046993419404622 -0.27234938900245903 -0.32906132430323004
2531000000.0 -0.2507521176620809 -0.3509189421973256 -0.09780435814111813 -0.008148012758941189 -0.09674978705602255 -0.007894801645246448 -0.2775000047581213 -0.3284319513126976
2532062000.0 -0.2539381060476898 -0.34939966180337684 -0.09801300143280796 -0.005295226825392023 -0.09710074884999825 -0.005453462444459458 -0.28215680461609943 -0.32841018966030827
2533125000.0 -0.25707754903986574 -0.34797809596043894 -0.09817675904722199 -0.002255925600925358 -0.09738304616367362 -0.0028820256559198474 -0.28637526915333 -0.32923437126279725
2534188000.0 -0.26029376524080083 -0.3464392419934874 -0.09798410286336927 0.0005637701403309985 -0.09777559152522095 -0.00013382392379012736 -0.29013611401351824 -0.3309862275289586
2535250000.0 -0.2634400825122376 -0.3449589898943478 -0.09786526830275974 0.003585323891418574 -0.09802995431574198 0.0026484241644972976 -0.29365659948039996 -0.3322463578583786
2536312000.0 -0.2664065870322762 -0.3435368452866653 -0.09765458646908703 0.006396772668306357 -0.09803848346663468 0.005498146635201232 -0.2960856908821223 -0.33372355679809884
2537375000.0 -0.2689845996590918 -0.3422583843902386 -0.09725844072837037 0.00929270796156577 -0.09798301916872923 0.008462369391856742 -0.29774106256796434 -0.33562134939512905
2538438000.0 -0.2718672329728488 -0.3408153442490174 -0.09667960421103357 0.011874338784135892 -0.097711418542577 0.011421701763877997 -0.29842781167965315 -0.3370914589549901
2539500000.0 -0.2747914038718546 -0.33922854770973937 -0.09616587291888347 0.014707967343194345 -0.097347901135987 0.014383727984722445 -0.29896718387570864 -0.3374349481824065
2540562000.0 -0.2775216003727698 -0.33777510511241354 -0.09558735275455402 0.01720206635119139 -0.09667574241705383 0.017292514420526577 -0.2990756268783201 -0.3375180220461495
2541625000.0 -0.2800403641832047 -0.33629925151966883 -0.09493940873608049 0.0196677102140234 -0.09593718206212341 0.020244375978206303 -0.2983374085073628 -0.33609502194437096
2542688000.0 -0.2826728254885978 -0.33480466675573023 -0.09433162006870063 0.022384529735501802 -0.09520737497209138 0.02294254970755478 -0.2976985946636902 -0.3339158043285149
2543750000.0 -0.2850572969045074 -0.33331112986556133 -0.09364360674729584 0.024737617046881585 -0.09423438447832351 0.025511217791960594 -0.29713121514990326 -0.33038788585836226
2544812000.0 -0.2876354707259545 -0.33157734584299675 -0.09293494556147434 0.027145155621659187 -0.09337849501643666 0.028140557466766976 -0.297106049985184 -0.32508386195692346
2545875000.0 -0.28985776619811315 -0.32942393479812027 -0.0921619233939261 0.029552152240915525 -0.09229995137579547 0.030463171559732542 -0.29811736187416993 -0.3200865633987379
2546938000.0 -0.2924242826626869 -0.3276269954900557 -0.09132263079925011 0.03204020389108122 -0.09133036216217479 0.0328755828334576 -0.2997821210283043 -0.31344512110978506
2548000000.0 -0.2947502918463382 -0.3256813113795788 -0.09046768518963136 0.03445377574067686 -0.0902285894857976 0.0351693605686003 -0.3028115612824511 -0.3073816891024446
2549062000.0 -0.2973341796936878 -0.3235033299922423 -0.08933934779077324 0.037011871006402575 -0.08915038793695865 0.037508119903413614 -0.3073255012648103 -0.30049373997277773
2550125000.0 -0.2995819219536762 -0.3214141438601431 -0.08834560130532522 0.03954228878557934 -0.08793139821730664 0.03981491656541143 -0.3126625527454148 -0.2953158654273185
2551188000.0 -0.3020038342373604 -0.31895502504987366 -0.08710621759426387 0.0421030859492184 -0.08657607880323114 0.042138411734419824 -0.31877279398132224 -0.29076636994723937
2552250000.0 -0.30462943916285856 -0.3166750456207994 -0.08556947333560655 0.0445558411391834 -0.08538178383852746 0.04453091203510664 -0.32555147745161844 -0.28763801394420285
2553312000.0 -0.30700187682159114 -0.3142450198744678 -0.08412417813850516 0.04702845709632798 -0.08394791838807862 0.04680909800133599 -0.3322391059178224 -0.28518797433002163
2554375000.0 -0.3094545591043815 -0.31161528165999325 -0.0826286240317855 0.04936699265683153 -0.08247392046202238 0.049271270276293584 -0.3385148560859384 -0.28506672905928243
2555438000.0 -0.3121636303438142 -0.3091970234912624 -0.080809072377226 0.05189432001376926 -0.08100757872769611 0.05159064129290196 -0.3445847699769708 -0.28596504026840747
2556500000.0 -0.3148348537734326 -0.3067973782274842 -0.0792354395803947 0.054079118378447484 -0.07936896620286711 0.05382047282433204 -0.34849977382157177 -0.2879490398253218
2557562000.0 -0.31768753138440364 -0.30413949467398654 -0.07738244212452222 0.05615103551235606 -0.0776895409092983 0.05604772679367096 -0.3514033217068288 -0.2898312784924609
2558625000.0 -0.32062694307589296 -0.30176921836587794 -0.07553530860605875 0.058212085745729183 -0.07606653414554347 0.05819221245163146 -0.3531385691946529 -0.29281322940992244
2559688000.0 -0.32356006585414804 -0.2994930276412619 -0.0737616031919643 0.06032902392379562 -0.07428667042935945 0.06028644213464093 -0.35337716523820123 -0.2945594203554388
2560750000.0 -0.32659449169569205 -0.29714923895317746 -0.07197054809746452 0.062149634947598134 -0.07243950566089519 0.06241081705125586 -0.3532617745243651 -0.29581614342520757
2561812000.0 -0.32944128322403965 -0.29507510495946615 -0.07016265019047156 0.06418771301257396 -0.07060605002870603 0.06435944210626479 -0.35205150537720437 -0.2967445713812105
2562875000.0 -0.3322026200513816 -0.29278284395096515 -0.06836787025510895 0.06614816736986201 -0.0687333386652239 0.0663289800611585 -0.35008424939647653 -0.29594661981012066
2563938000.0 -0.3351231833896975 -0.29096278829087685 -0.06654340273633763 0.06788614596585213 -0.06687220973713147 0.06838014227846567 -0.3479267052557779 -0.2935752804636139
2565000000.0 -0.3378746172674458 -0.28906583237828026 -0.06481689402983384 0.06986847827206735 -0.06498767743027369 0.07028588070005987 -0.3455024288173692 -0.29096096952257294
2566062000.0 -0.3406792691234166 -0.28742280225165373 -0.0629712703702961 0.07167331271541533 -0.06308428173550694 0.07213755977684247 -0.3436742109936717 -0.2867133035004819
2567125000.0 -0.34327905476650267 -0.2852854166771671 -0.06121353087941463 0.07344508605505756 -0.06109713413948423 0.07377812830175297 -0.34234886551351723 -0.281108201461764
2568188000.0 -0.3455208076907719 -0.28360186987007907 -0.059240140024829344 0.07504348781633348 -0.05913832115992795 0.07544170342675846 -0.34207891697780785 -0.27428642401852965
2569250000.0 -0.3476785787182037 -0.28181127080779417 -0.05726907581257146 0.07664691480196696 -0.05719743935455438 0.07687220827485826 -0.342702334658256 -0.2678294299121515
2570312000.0 -0.3495090302184807 -0.27941939272988825 -0.0551523388987414 0.07814854562075974 -0.055043210071741885 0.07826100046687941 -0.3451016544720788 -0.26041491954630813
2571375000.0 -0.35190667395932185 -0.27779824499405176 -0.05298651893423163 0.07947523668481692 -0.05288294893692241 0.07959332835322576 -0.3484267851127209 -0.2532049001985115
2572438000.0 -0.35353983086475793 -0.2752712163069286 -0.05061727179542158 0.08082716424099304 -0.050636250052596025 0.08086002176921596 -0.3538695270527845 -0.24697997172169522
2573500000.0 -0.35531014477314815 -0.27313887629865446 -0.04827334150917485 0.08216996878131645 -0.048394662530317434 0.0820487140298595 -0.3593428461710633 -0.24223068996139296
2574562000.0 -0.3571307063800596 -0.27115382737626675 -0.04588401466730897 0.08332005579244721 -0.046169751198146675 0.0832625247096617 -0.365934697732397 -0.23865623074875877
2575625000.0 -0.35877317405455933 -0.2683665501457961 -0.04346088664787959 0.08441455151945725 -0.04389906958676742 0.08446068088402155 -0.3723466165319823 -0.23684586791220075
2576688000.0 -0.3602931365051905 -0.26600562171717507 -0.041134589629743847 0.08541654265665871 -0.041647702668145235 0.08552167556011232 -0.37786465857782664 -0.23649032086448277
2577750000.0 -0.3618779342072189 -0.2631495992509952 -0.03876851662036037 0.08626571937477111 -0.039193004163671004 0.08666338242067581 -0.38249790377260273 -0.23715334875841879
2578812000.0 -0.36330342117802045 -0.26031076861974406 -0.03636687632057166 0.08709963809112 -0.03668777994177909 0.08774308592774971 -0.3855099609171847 -0.23870848698439498
2579875000.0 -0.3647600802925819 -0.25776388221368096 -0.03395086885230703 0.08795525647561127 -0.034091232688582836 0.0885846907350772 -0.38749044063414584 -0.23976155102712318
2580938000.0 -0.36658440625390254 -0.2548636367417751 -0.03151810997688284 0.08872243983880737 -0.03148537039399282 0.0894479801033318 -0.3873490823191179 -0.24119275210795468
2582000000.0 -0.3678041921875861 -0.2520442577298806 -0.02900058011031845 0.08959408708643593 -0.02880224559921878 0.09020349898357788 -0.38615698339855803 -0.24090094205263693
2583062000.0 -0.36924817146239985 -0.24923856617086698 -0.02635150872857746 0.09026407390456936 -0.02612891729058269 0.09078058768012384 -0.3844629689292517 -0.2394658407988944
2584125000.0 -0.37056876517344284 -0.2464114621924575 -0.02392676936657833 0.09102930600056518 -0.023409381080582888 0.09139590809041948 -0.3815075462622785 -0.23763169120482572
2585188000.0 -0.372553970136035 -0.24345221355428667 -0.021109307404280457 0.09177921162691702 -0.02071418626950236 0.09191970093335103 -0.3780366445579124 -0.23382829940024055
2586250000.0 -0.37428905606232504 -0.24022200167079769 -0.01843853541430756 0.09252908609080765 -0.018104296504905266 0.09254208046013376 -0.37605847311385165 -0.22889763914366146
2587312000.0 -0.3758519652853464 -0.23719480869507734 -0.015781684719249196 0.09318084709484149 -0.015512210117667314 0.09305237365177736 -0.3740872113636886 -0.22313852191267025
2588375000.0 -0.3776010681661585 -0.2340236266822276 -0.013151610007381638 0.09355440115727232 -0.013009339911458823 0.0935146080872847 -0.3723955723546763 -0.21612083296135595
2589438000.0 -0.37928992043631415 -0.23104666021006615 -0.01044595160721764 0.09414450552652746 -0.010402618227896744 0.09384697267312077 -0.3718529155267732 -0.20815632378641113
2590500000.0 -0.3811600224468345 -0.22800817590229153 -0.007615584565986407 0.09431109314254757 -0.007933197258571906 0.09426293298874842 -0.3733693580778702 -0.20021491085528917
2591562000.0 -0.38269925923917686 -0.22505220273396306 -0.0049817637972740594 0.09448782814901385 -0.005361685934385587 0.09447707334188803 -0.37582077810037023 -0.19226722903424676
2592625000.0 -0.384650558184682 -0.22249148256822468 -0.002311529839772566 0.09458142130127983 -0.0027528592879460427 0.09478049424186033 -0.37985530437476067 -0.18494541874518355
2593688000.0 -0.3862561238061249 -0.21975646301431073 0.00046196014252911305 0.09443691401245748 -9.810748893483626e-05 0.09496391857174685 -0.3850968473331011 -0.17805174723644845
2594750000.0 -0.38774411376195395 -0.2170713227257597 0.00296647099703871 0.09433874116137723 0.0025874128731427854 0.09488970137805272 -0.39140754132424654 -0.17277439983888918
2595812000.0 -0.3891252756891819 -0.21452110888751041 0.005412497273551184 0.09408334771018577 0.0053184767996771526 0.09482901394061725 -0.3981846984942879 -0.1691966310414524
2596875000.0 -0.3905740396394667 -0.21220360590362733 0.007945888510124517 0.09377561904911857 0.008005898387893583 0.09464943769057925 -0.4053033811792449 -0.1670490224060574
2597938000.0 -0.39164129256381647 -0.20977484282939385 0.010359351378224708 0.09344011158390883 0.01069383076109214 0.0942591257322176 -0.4114740112480743 -0.16627307395010663
2599000000.0 -0.39262103892793393 -0.20746905410801755 0.012997093126184725 0.09302500273223598 0.013331085114165003 0.09380333138281478 -0.4173346171619432 -0.16661460314540172
2600062000.0 -0.3935477641893159 -0.20465666598647075 0.015409527557570973 0.09247837114006176 0.015980034157342497 0.09318048316212094 -0.42155851985755527 -0.16770699982955023
2601125000.0 -0.394009903533856 -0.2022556474875105 0.017830367419603716 0.09219071348931464 0.018480681728511184 0.09245580346473345 -0.4245066743155511 -0.17021165104137817
2602188000.0 -0.3949832024987848 -0.19943111311074113 0.020203592520198075 0.09153240298583 0.021005114194412925 0.09171146453232666 -0.42579055535090243 -0.17168248263738672
2603250000.0 -0.39507057712348737 -0.19701944542651073 0.02286189068373167 0.09102057251115948 0.02353948645771396 0.09104671900230858 -0.4259638117566306 -0.1732296835006083
2604312000.0 -0.3956401809516764 -0.19377115122388047 0.025425873448987335 0.09040327447403824 0.02593969566501368 0.09024413361531196 -0.4248943507152928 -0.1738303384797089
2605375000.0 -0.3962217410037598 -0.19093864208698974 0.02797060617283717 0.08977726041566664 0.028356680796512452 0.08946466509483653 -0.4229342299135805 -0.1735431784353338
2606438000.0 -0.39645862755887085 -0.18802373113761536 0.03054657950750934 0.08910528914039152 0.030808448134543212 0.08865127084414347 -0.42059344681718647 -0.17226475899080995
2607500000.0 -0.39690368469504284 -0.18475908799289759 0.03327380757324709 0.08826061078057433 0.03323659365802358 0.08797454642927395 -0.41771280984425563 -0.16984653400124486
2608562000.0 -0.39722840560882283 -0.18166176416222074 0.035839919937019404 0.08732986087182565 0.035794146987803505 0.08711298819951951 -0.4151590236092118 -0.16629919572807234
2609625000.0 -0.3974561464488331 -0.17854763937211934 0.03827810484169204 0.08631536918546652 0.03822673150787803 0.08626199961075663 -0.4127376342020745 -0.16205856910239305
2610688000.0 -0.39798985851626895 -0.17535964047873984 0.04088399601289263 0.08512810060736188 0.04078719247721539 0.0852043411021943 -0.4110764072920404 -0.15661574686399793
2611750000.0 -0.3984845253832529 -0.17220890832927896 0.043277158195862225 0.08404141776542104 0.043389817732057245 0.08408161113486243 -0.410761626785956 -0.15105146240606332
2612812000.0 -0.3992150285366934 -0.16911805222228668 0.04572234899466757 0.08265282156137516 0.04576786105464237 0.08283979473293172 -0.410942640352907 -0.1454151933245406
2613875000.0 -0.39972815592961025 -0.1660119428509993 0.04810182929165072 0.08121483635868515 0.04814955075160774 0.0814728301906468 -0.411998336093191 -0.13983534941357767
2614938000.0 -0.4002104254960252 -0.16274785135801503 0.05038070959581042 0.07981008819251943 0.05037816889327125 0.07995553846016833 -0.41515959672158564 -0.13445234499168085
2616000000.0 -0.40096100786406863 -0.15954182274476308 0.05245163333308225 0.07823009748293955 0.05258774684065312 0.07850175017037012 -0.41793737935020436 -0.13042952097957494
2617062000.0 -0.40139009244280777 -0.15624150917132126 0.054636290197219904 0.07671684111058426 0.05453460990822452 0.0768238631964203 -0.4218230643476853 -0.12730197165086793
2618125000.0 -0.402102892297769 -0.15326629005762557 0.05635369966702259 0.07507072690288916 0.05645025431758993 0.07520189626321105 -0.42523592113657904 -0.1250426878459599
2619188000.0 -0.4025724900471221 -0.15000227914606015 0.0582485565887757 0.07330202577823462 0.05833421952294701 0.07351363744272016 -0.4283060272815309 -0.12388302161477686
2620250000.0 -0.40324997930263284 -0.1470720744198162 0.06009677594937381 0.07162116146597072 0.06002037741100788 0.07182526331883696 -0.4310048359486313 -0.12325495363433539
2621312000.0 -0.40406997239071607 -0.14402561318562088 0.06181647957774858 0.06972520651812923 0.061886597299956686 0.07012598383850262 -0.43317368220665475 -0.12320920449913493
2622375000.0 -0.40475184428806654 -0.14105511453703207 0.06356892099880956 0.06810114229266703 0.06373591946848857 0.06846509313036837 -0.4339894765716874 -0.12395863449702502
2623438000.0 -0.4056621001496368 -0.13847232567930898 0.06529554280609393 0.06620525333660326 0.0656642707621644 0.0666803924652111 -0.4341999827339527 -0.12383872144704586
2624500000.0 -0.4064447318794607 -0.13608945424545296 0.06712104100388225 0.06443901158654997 0.06760167389109628 0.06486449451356872 -0.43446018056249475 -0.1241033947177873
2625562000.0 -0.40694346474528464 -0.13364141092251614 0.0688296639421517 0.06256705792254205 0.06951431858104093 0.06292711362079774 -0.4332649524316062 -0.12383454510856648
2626625000.0 -0.4075568574519287 -0.1310736241547616 0.07068728035523245 0.06076295247316242 0.07131280370319229 0.06101210896838985 -0.43156453837138914 -0.1235409907308748
2627688000.0 -0.40822146058717457 -0.12869811721025165 0.07240489070814209 0.05884053976053526 0.07319491587048373 0.05898665974807371 -0.4293458339196483 -0.1219162597595385
2628750000.0 -0.4087623097866746 -0.12640923113497754 0.07419583453906438 0.056964157446201404 0.074917356444507 0.05685068259288076 -0.42687433214229836 -0.12021111325468566
2629812000.0 -0.4090241292339389 -0.1239869236127743 0.07597943142431274 0.05498971155881758 0.07660758601529291 0.05467422519685218 -0.4242007274356822 -0.11777730502848087
2630875000.0 -0.40905252745646076 -0.12180212201592078 0.07752508010367447 0.05289228636856952 0.07803777473368591 0.052442734558427746 -0.4217475290923208 -0.11476470724669514
2631938000.0 -0.4094014945622128 -0.11904317320153618 0.07924332358936592 0.05064005503373212 0.0794554081569864 0.050112545986003926 -0.4196081664678339 -0.11048748232126487
2633000000.0 -0.40946247721603496 -0.11645695025246189 0.08073142610285558 0.04815268838881664 0.08078031044245347 0.047817505651883745 -0.41763149382554193 -0.1058869069060827
2634062000.0 -0.4093284981059826 -0.1137969379499885 0.08214981869189944 0.04588928399744676 0.08205999150678568 0.04553890950447925 -0.416172499185966 -0.10045922694695768
2635125000.0 -0.4092650315799582 -0.11114951815756378 0.08356220601436555 0.04365676951220325 0.08325588209170316 0.04335014895667234 -0.4157738586842241 -0.09486360184697555
2636188000.0 -0.4094103640852006 -0.10823357823092579 0.08492478470279045 0.04112883063243188 0.08443936745358911 0.04117257801451402 -0.4163203628778759 -0.08963186104543396
2637250000.0 -0.40961787320524784 -0.10522814616307634 0.08605110309310009 0.03881091498928723 0.08564366780435682 0.03889379832143378 -0.41725798685027615 -0.08433725296389709
2638312000.0 -0.40957028382897503 -0.10254731200589412 0.08699082838845536 0.03629315240718447 0.08673148335702065 0.03665806293300186 -0.4182329614464877 -0.07950591640223065
2639375000.0 -0.4100322915826896 -0.09933129761252076 0.08817705415662204 0.033877240134541305 0.08786636002543968 0.034432310606868605 -0.42051832888088825 -0.07503434197323358
2640438000.0 -0.41068586417677744 -0.09647795511309998 0.08891615299358473 0.03158002803026187 0.08890878065623964 0.032123956507767205 -0.4225205499593789 -0.07105010360664558
2641500000.0 -0.4115277131142606 -0.09375542323443026 0.08950725830071136 0.028963338963452417 0.08990081501091804 0.02978756503243325 -0.42451648900037386 -0.0678179104531178
2642562000.0 -0.41227569005259673 -0.09081198908595318 0.09034491956168852 0.02663952515820981 0.0908098392735697 0.02732591882078269 -0.4268983205729653 -0.06500818425548374
2643625000.0 -0.4130255328943245 -0.08803650228886128 0.09083051067164268 0.024095215572942894 0.09161924677340556 0.024646190769173827 -0.42853381562597004 -0.06210178836873293
2644688000.0 -0.41377134622211464 -0.08534216357857217 0.09149339592927466 0.021616265500957015 0.09238692916909103 0.021906815660602333 -0.4305799379802442 -0.059384130190754184
2645750000.0 -0.4147058569974463 -0.08250447935354507 0.09194725783190087 0.019166646787786987 0.09301447062067592 0.01910696990292583 -0.4321825063551907 -0.05710726684928512
2646812000.0 -0.4154787571455965 -0.07989449001123708 0.09268100841999106 0.016660165636159567 0.09346289129558678 0.016415011490392813 -0.4336239932372251 -0.0546544896179743
2647875000.0 -0.4164415974848074 -0.07739890348200716 0.09312363244029603 0.014065706303891418 0.09383480369750527 0.013733367737883582 -0.4344039749901377 -0.053581762565864215
2648938000.0 -0.41752884667935986 -0.07492900238623475 0.093579157755878 0.011501425875253279 0.094148875968504 0.011026857443996535 -0.4354093377571008 -0.05151866822066019
2650000000.0 -0.4179475866474589 -0.07240577263456165 0.09379600531611049 0.00899133340152167 0.09432486545658236 0.008353779826725659 -0.4358124582943562 -0.050094058072506956
2651062000.0 -0.41882099638077475 -0.07007782440550567 0.09416464537419637 0.006473231692457818 0.09439961935235089 0.005755629754965794 -0.4351947191295913 -0.04915952012426834
2652125000.0 -0.41970736992170604 -0.06746263851598856 0.09447278733044256 0.0037550365404503605 0.09443166317500108 0.0032047667033629082 -0.4350098622860747 -0.046744763625537616
2653188000.0 -0.42069739611332374 -0.06512296274584238 0.09447026602309007 0.0009701736340313147 0.09450012958806345 0.0005848641317427954 -0.4336950645989581 -0.044840740123124286
2654250000.0 -0.42111960429142686 -0.06274574436248599 0.09453230255982227 -0.0017390866443225174 0.09443204681545271 -0.0021541003826551102 -0.4320583354673457 -0.042339361984158254
2655312000.0 -0.42237026897494734 -0.060209551783059215 0.09467818523755048 -0.00448867604345696 0.09441502225416344 -0.004932829087132738 -0.43041920117406385 -0.03899654353308447
2656375000.0 -0.4228965722121946 -0.057895076119074684 0.09446714399677168 -0.007295528048188 0.09438017660373912 -0.007552444496069327 -0.4288353315535955 -0.03562964112686603
2657438000.0 -0.42335786246115703 -0.0555968217061983 0.09431783722807635 -0.010111674312039066 0.09413701224953629 -0.010175699723464868 -0.42704384588819194 -0.031826577914267476
2658500000.0 -0.4239603987186081 -0.05303301271260064 0.09405021390322706 -0.01292880770342521 0.09391606467203933 -0.012856944401366477 -0.42525665605324603 -0.02774083048363998
2659562000.0 -0.42435461245764267 -0.05053815980672248 0.09361411195878154 -0.015626701760055834 0.09363978875085258 -0.01563827672723638 -0.4242237936094644 -0.022178045241664456
2660625000.0 -0.42450255279625443 -0.04801033970072679 0.0931648780712779 -0.01840161709061687 0.09329208379517696 -0.01821955311166735 -0.4236697545963743 -0.017214056940796203
2661688000.0 -0.42485672274847863 -0.045720390093775605 0.09264903991573682 -0.020937792984602587 0.09284073885953215 -0.02093239885520747 -0.42393778238077034 -0.012020883838887665
2662750000.0 -0.4249667950078529 -0.043345204188596526 0.09212248409249853 -0.023570438534234052 0.09228491410470846 -0.02334746972983126 -0.42474213173679376 -0.007108897435972675
2663812000.0 -0.42472894284088836 -0.04038175840796371 0.0913600724089685 -0.0261200047637181 0.09161217517439303 -0.026028262023913715 -0.4260360420413967 -0.001890273059154463
2664875000.0 -0.42463097254566395 -0.03738867527655182 0.09057212926122742 -0.028724146910091876 0.09080303164272799 -0.028591804000505424 -0.4278204803457825 0.002158780772862739
2665938000.0 -0.4246511761094754 -0.03447525603237781 0.08972834959685143 -0.03110086116406181 0.0901080353735156 -0.031199559832446273 -0.4303980394701831 0.005727225637447523
2667000000.0 -0.4246333532685199 -0.03140202473170248 0.08893047031604488 -0.0337002753991214 0.08925745248678592 -0.033816458829229304 -0.43332023501447126 0.008845512525410208
2668062000.0 -0.4247693801273816 -0.028032126317858553 0.08798406262225517 -0.03619524800957245 0.08829748257880375 -0.03631848812499071 -0.436025904035152 0.011124246432589933
2669125000.0 -0.4249122251031418 -0.0251141112747108 0.08702974954861391 -0.038594399782118864 0.08733331383034933 -0.038876628169850255 -0.4388540021652838 0.012526207268697001
2670188000.0 -0.4250859672842557 -0.021757668450027395 0.08600939274379331 -0.04105371636376721 0.08630009872200757 -0.04142851927349843 -0.44159613104174666 0.012764882322975395
2671250000.0 -0.42549081378080195 -0.018561194794295997 0.08496429956730372 -0.04346580521470609 0.08520513855137378 -0.04384835797188339 -0.44306576702196354 0.01251438803945677
2672312000.0 -0.4257339281781709 -0.015381912946750972 0.0837711362611736 -0.046026940075035466 0.08389291734204189 -0.04617434091718048 -0.44351314504169004 0.01176420089302138
2673375000.0 -0.42614338075282937 -0.012074084231484754 0.08258952004514664 -0.04825341159113089 0.0827289392481714 -0.048578734214247105 -0.4433888469886212 0.010628399786812546
2674438000.0 -0.4266588432801412 -0.00920353574473223 0.08115319315022891 -0.05064106612140205 0.08131470237266689 -0.05087350708930594 -0.4414821304348363 0.009584054770632901
2675500000.0 -0.42678653362312385 -0.005864159561260111 0.07972205239294695 -0.05299001458688277 0.07977985587779733 -0.05323721282932435 -0.438926976734183 0.009779286734797984
2676562000.0 -0.427236475597264 -0.0031641411277657907 0.07823904516211411 -0.055315558693930206 0.07829742533017854 -0.05551467255736555 -0.435743283153448 0.00983947101269689
2677625000.0 -0.42739334722628 -7.409557810721278e-05 0.07679731565105104 -0.057719808796762785 0.07683994973483892 -0.05794603848705154 -0.43184965177034335 0.011387054669634791
2678688000.0 -0.4276982908439841 0.0024563771384979094 0.07520099200583413 -0.06003290321888635 0.0751963745359452 -0.06007012938520456 -0.42724291070406606 0.012859196989172983
2679750000.0 -0.42792193242699245 0.005217409047961298 0.07364921903601028 -0.06207219867499808 0.07372095745805395 -0.06234002886308761 -0.42256152046992884 0.015997077679727422
2680812000.0 -0.42797938019104653 0.008143843805358344 0.07182346017574948 -0.06433107241269215 0.0720411358088195 -0.06455638331884533 -0.4176737650213515 0.020453195911691254
2681875000.0 -0.42796150040957176 0.011073322658710688 0.0701388876878215 -0.06639997860718012 0.07037354121346766 -0.06672643161399756 -0.4135603642460927 0.025470323216356595
2682938000.0 -0.4272572553550741 0.013750344107274454 0.06834627052614889 -0.06843385449905938 0.06852907888341882 -0.06874982884306868 -0.41001188169244834 0.03175302346316226
2684000000.0 -0.4269205023369502 0.016335790822565265 0.0665548857898685 -0.07051081142804601 0.06669962076923608 -0.07067955636531502 -0.407164056080215 0.03914062588462262
2685062000.0 -0.426490465530182 0.018991553375581227 0.06468432362150131 -0.07234992304787453 0.06471375282065184 -0.07265194617056715 -0.4061550958486779 0.04645539507529292
2686125000.0 -0.42586624778469934 0.02199125268400129 0.06266814366300318 -0.07431444771846671 0.06267292969066156 -0.07452554997608712 -0.4064379711265528 0.05364728088061948
2687188000.0 -0.42486333209867067 0.02424118944544472 0.06070606160846784 -0.0762428666013024 0.06062952111673313 -0.07638875084077593 -0.40834608011905005 0.06011651180035195
2688250000.0 -0.4240348316867472 0.027100471645234055 0.058669046244303795 -0.07794394710243321 0.0584931400922087 -0.07815528128871067 -0.41117342091950954 0.06604233815562677
2689312000.0 -0.42291835361925206 0.029663101165989438 0.05662152891712488 -0.07979837712366274 0.056451820425264115 -0.079879412814117 -0.4148372300774338 0.07009801809434855
2690375000.0 -0.42176434229747706 0.03220347580746276 0.05437024313684871 -0.08139826436419623 0.05425368918794112 -0.08137544697441411 -0.4179558504870528 0.07316602947642843
2691438000.0 -0.42066263690171546 0.03509734882239515 0.05209510130937301 -0.08326535035795135 0.05203833621358516 -0.08280615524306456 -0.4207306163952741 0.073555927657575
2692500000.0 -0.41910746862598197 0.038069873335916035 0.04963765974549002 -0.08451098887245902 0.049759506073552645 -0.08437199243401629 -0.4224037043824821 0.07411294621274468
2693562000.0 -0.4178963175873649 0.04071964913636918 0.047270758474445604 -0.08589416698549557 0.0475591237635421 -0.08569322964292699 -0.42298160304062826 0.07322071433487846
2694625000.0 -0.4162360140705125 0.04377106867205787 0.04447254456614186 -0.08716565154663516 0.04505998530667004 -0.08696835318378565 -0.4219329899979707 0.07128317268726198
2695688000.0 -0.4144029226726071 0.04708569553410768 0.04181181960765441 -0.08830267057567805 0.04246075534138783 -0.0882567951792139 -0.41871735316939496 0.06993498757086618
2696750000.0 -0.41322521967393017 0.05026750728886845 0.039058480452339936 -0.08944271137195309 0.039867252715827764 -0.08961647287521281 -0.4138135250071006 0.06902470120417602
2697812000.0 -0.4115359477802493 0.05337521153092254 0.036216282584777236 -0.09043820143661294 0.03690158044910899 -0.09086136886868962 -0.40829733320700673 0.06919320390371307
2698875000.0 -0.41019414564832263 0.056541067388338674 0.03334398887666294 -0.09136734394258555 0.034133075335179265 -0.09219822424697889 -0.40271766513327417 0.07042786544748733
2699938000.0 -0.40902227765558746 0.059920785351845696 0.030521521897725272 -0.09236843619108738 0.03105872499068309 -0.0933280140176644 -0.3959136601952634 0.0719476754907183
2701000000.0 -0.4072476426296985 0.06311873445810132 0.027832589760328593 -0.09320611035453195 0.02809750133200318 -0.09436004334481891 -0.3885651955128289 0.07557291049475919
2702062000.0 -0.4065337500208766 0.06596899732512189 0.025062774561773297 -0.0940473490862064 0.02500804535196622 -0.09524905764685519 -0.38162989104559314 0.08033450803342944
2703125000.0 -0.40528966001861744 0.06924784046476852 0.022297750584295593 -0.09489480727442418 0.022062112378852392 -0.095995699128972 -0.3755155958403828 0.08599896363692122
2704188000.0 -0.4044129508376008 0.07210035256802229 0.01970985744440027 -0.09549695671180243 0.019010444636519973 -0.09658768662499878 -0.37029505909653243 0.09452487063349253
2705250000.0 -0.4034559659111611 0.0748205120355031 0.016885931386662105 -0.09637266106184049 0.01606437439486281 -0.09693720004827906 -0.3668563472551935 0.10312673937568669
2706312000.0 -0.4024494478892394 0.07746659056842883 0.014255463696777089 -0.0971910649125571 0.013251227794218513 -0.09741401301124997 -0.3654618966001096 0.11293176893946563
2707375000.0 -0.40153299786342217 0.08000327230895028 0.0114775912423508 -0.09774212748711343 0.010649975671235778 -0.09774858150989729 -0.366793911948197 0.12260757562932109
2708438000.0 -0.40040397872525524 0.08251282642998738 0.008866099277596177 -0.09852620913612738 0.008112183348331341 -0.0982071849986127 -0.36983118736952947 0.13098190214222968
2709500000.0 -0.3987753729089072 0.08480795397741582 0.006045878387767018 -0.09894235587774101 0.005603957219175502 -0.09840352850332594 -0.3745607340342118 0.1382558107780274
2710562000.0 -0.3980119011815034 0.08690060587930971 0.0032849146185464583 -0.09948981731367527 0.0030687128619496006 -0.09890239756140248 -0.38153706956368033 0.14470028105289462
2711625000.0 -0.3962479120439467 0.08924400063793887 0.000463174252664078 -0.1000088334501423 0.0005568607340980326 -0.09930124293880556 -0.3888123639414575 0.14813593598971908
2712688000.0 -0.39483088272084493 0.09130973202206513 -0.002233146961783928 -0.10023489190430905 -0.0018902879333695594 -0.09974342253022077 -0.3962202776916859 0.14893774340582966
2713750000.0 -0.39306316645890466 0.09357589794858535 -0.005237209832768572 -0.1002114971798237 -0.004508271900442831 -0.1000184590296356 -0.4013154053570572 0.1478732658311647
2714812000.0 -0.3912078998511919 0.09578574734772365 -0.008063139005948803 -0.10011148905017357 -0.007435982058045684 -0.10000721520001156 -0.4055958807538879 0.1455314962117011
2715875000.0 -0.3894117734706532 0.09735324378728707 -0.011076007697639794 -0.0997279557343665 -0.010233352485837214 -0.1000877325298591 -0.407961381468669 0.1420517711653634
2716938000.0 -0.38726090984226813 0.09970460965372402 -0.014125041976022896 -0.09925233449874842 -0.013392967718763058 -0.09989310823331872 -0.40824714237301296 0.13738141759941036
2718000000.0 -0.38518984061169104 0.10154718010141765 -0.017101197073018236 -0.09843312343155931 -0.016617835461702927 -0.09942107471608772 -0.4058149656761376 0.13287768256115476
2719062000.0 -0.38322090335867165 0.10351405928133216 -0.019957017354652405 -0.0976412587811368 -0.01983844745777973 -0.09866985729906216 -0.401693220744347 0.12906008705290778
2720125000.0 -0.38131988288185237 0.10539340631002887 -0.023012000730689895 -0.09686469971352041 -0.023097637894028796 -0.09773895813335921 -0.395879764276999 0.12601009598678606
2721188000.0 -0.37925282184492465 0.107447270547968 -0.025874233672606443 -0.09562237017733173 -0.02626592904411696 -0.0965618280873623 -0.3880078526850297 0.12462075458762736
2722250000.0 -0.37717575703567663 0.10948713957730088 -0.028748373194651098 -0.09452297924509025 -0.029377598921616715 -0.09532165228209827 -0.379933697514389 0.12402397403658008
2723312000.0 -0.37504078694913234 0.11175013167342851 -0.031495718340251805 -0.09339619487088968 -0.032347108730913 -0.09390456605519587 -0.37219424890300423 0.12524527194017204
2724375000.0 -0.3730852522628491 0.11383278504490106 -0.03418502715275704 -0.09189014144414634 -0.03512673884166359 -0.09229576039339997 -0.3636675865740702 0.12875725866174054
2725438000.0 -0.37080551312938137 0.11650468138716814 -0.03694617102122081 -0.09085229199058072 -0.037665556570569594 -0.09090657710396995 -0.35697918135753876 0.13213366517048855
2726500000.0 -0.3688375273124627 0.1188719443331686 -0.039301671101941604 -0.08965724502153218 -0.04003953241972071 -0.08950398488367355 -0.35086215798272924 0.13710604703779014
2727562000.0 -0.3668116491619984 0.12131853947691115 -0.041852959664815774 -0.08846876333354128 -0.04242095436135275 -0.08826247164796942 -0.34673509868409513 0.14259175742650002
2728625000.0 -0.3650103051501522 0.12383768878737103 -0.04439119348917668 -0.08723863570326268 -0.04455799250494108 -0.08703751035336753 -0.3437412325885411 0.14825458438580902
2729688000.0 -0.36300849398196927 0.1263852491842399 -0.04704366109271343 -0.08598615171794242 -0.046970624280044296 -0.08587507808039396 -0.34330372894949107 0.1545900930125521
2730750000.0 -0.36122857615103954 0.12930719055226997 -0.04952655794999333 -0.08479045930655318 -0.04967863753084852 -0.08476978890936393 -0.34443285527284256 0.15968949783660338
2731812000.0 -0.359639116659287 0.13112639939486628 -0.05222515390700016 -0.08365940749126859 -0.05210014139968116 -0.08356106648274911 -0.3468063648346394 0.1637479152691904
2732875000.0 -0.35784856443283963 0.13346411555056276 -0.054703200283534495 -0.08220006612610808 -0.05469639140122804 -0.08227831390623647 -0.35069447188959 0.16579115433359526
2733938000.0 -0.3564091413591248 0.1354460101990449 -0.05746510617705378 -0.08080161505428818 -0.05736376278698213 -0.08099509318246742 -0.3550009697324289 0.16740637750864526
2735000000.0 -0.35505034270565317 0.13740290780352815 -0.05982643803818856 -0.07923499775632382 -0.059905873368919435 -0.07947797926108019 -0.35858377520456225 0.1666062729186199
2736062000.0 -0.35362414814561344 0.13901750288347897 -0.06230698675546511 -0.07761238679766062 -0.06249136545132218 -0.07772601897537063 -0.3625254876658368 0.16392574392757123
2737125000.0 -0.35243367968968403 0.14064689743832143 -0.06485899677078703 -0.07572441350300482 -0.06492734389063662 -0.07587158207879224 -0.36441696758556746 0.16085986253110293
2738188000.0 -0.3510528925454086 0.14207970959178803 -0.06711359582442081 -0.07370131111052446 -0.06727365817112498 -0.07395380500351945 -0.3646309960041129 0.15641512291092924
2739250000.0 -0.3498334412681142 0.14357945118147813 -0.06925969574414871 -0.07173605994790881 -0.06948836733298094 -0.07177149063871702 -0.3631603377727446 0.1520107084043026
2740312000.0 -0.3482173908404157 0.1448876548620735 -0.0714115704544024 -0.06955317440916714 -0.07147805217291382 -0.06951016921463544 -0.35990373070458886 0.14783746693752473
2741375000.0 -0.34651795676335934 0.14607302062444064 -0.0732584154286538 -0.06700841952568946 -0.07344335010761797 -0.06720793326048678 -0.35546769068560774 0.14505382199879666
2742438000.0 -0.345178588477151 0.14692269618543813 -0.07522040040936029 -0.06475430754152911 -0.07519147130083981 -0.0648803566732653 -0.34972278454098815 0.1424687040962178
2743500000.0 -0.3433163486780648 0.14765386926240368 -0.07687193328366604 -0.06244723112323005 -0.07689865464184228 -0.06265816600232202 -0.3433631085045865 0.1415183195748271
2744562000.0 -0.34108674701744823 0.14875652588457017 -0.07846391461584468 -0.059890214804820735 -0.07859866483766531 -0.060201801034719137 -0.3368194705301164 0.1417024733538811
2745625000.0 -0.33947913769883775 0.1497196990413068 -0.07998531735228456 -0.057580117158297535 -0.08025665990618619 -0.057891212456097206 -0.3296468483390712 0.14282291387381485
2746688000.0 -0.3375915684741772 0.15051226629700598 -0.08160792955851434 -0.05514231372153302 -0.0820051234504815 -0.05566700089843517 -0.3229968794496761 0.14541912469679405
2747750000.0 -0.3357095929592055 0.1512275326699268 -0.08316897382598389 -0.05285602704479813 -0.08358133176997176 -0.05325761601385405 -0.31753832612634575 0.1491461552011644
2748812000.0 -0.333710576778959 0.15228721376432605 -0.08477870518763038 -0.050444850984981256 -0.08532849339909018 -0.05075165258808555 -0.31291510186922644 0.15397326517184073
2749875000.0 -0.33184160137695257 0.1529129145327727 -0.08618716461507504 -0.048003296536569796 -0.08693453213554386 -0.04815819643735409 -0.30964314236105817 0.1591419398069471
2750938000.0 -0.3299513578165914 0.15378619604083396 -0.08767173100957316 -0.04547579593242847 -0.08849364113909487 -0.045497498532264334 -0.30762270244224144 0.16452004503908293
2752000000.0 -0.32809760170768004 0.1546438397855867 -0.0890524244589555 -0.043052652974162914 -0.08977860962721503 -0.04284697481989393 -0.30680969266686775 0.1691220394097848
2753062000.0 -0.32620572650496965 0.155668467064505 -0.09041617241142065 -0.04059672766072941 -0.09105750782859219 -0.040044651809857654 -0.30755472258507394 0.17360095386572208
2754125000.0 -0.32445002653260574 0.156368839787563 -0.09168992707416045 -0.037793600035671365 -0.09222849820258532 -0.037359151813539264 -0.30865693461950744 0.1765701121783572
2755188000.0 -0.32282665131538324 0.15738286695461107 -0.09310460926848346 -0.035119035352433714 -0.09315226594573511 -0.034515458803036324 -0.3105171392087909 0.17914819277285318
2756250000.0 -0.3210623225825569 0.15846494392733185 -0.09406965223951544 -0.032191937288872326 -0.09399682153273642 -0.031712016157795606 -0.3121667325179891 0.18048731674884919
2757312000.0 -0.3194771027545195 0.15937898222889457 -0.09500058110413886 -0.029269387825133594 -0.0947859000430299 -0.029112695866952965 -0.3132816572590862 0.18094726125508606
2758375000.0 -0.31801080726982695 0.1604725714807504 -0.09574675586396375 -0.02636466354856838 -0.09555538544680435 -0.026289601968343537 -0.3143506982383882 0.18068063896502687
2759438000.0 -0.31663693369461166 0.16137111587828767 -0.09639234648362556 -0.02336380244944724 -0.09623522780755318 -0.02360006099620756 -0.31479960490547776 0.18050856329142306
2760500000.0 -0.31511505489108105 0.16228965648956634 -0.09711436300308897 -0.02042810499487656 -0.09693384165725302 -0.02088365945617475 -0.31442580650959934 0.17965725995979534
2761562000.0 -0.313880308559762 0.16308603872641933 -0.09745410247113111 -0.017368296075870544 -0.09749807847670909 -0.017979031477822677 -0.3135907532959512 0.17889253532681554
2762625000.0 -0.31316892358903137 0.1639821482689458 -0.09787838607006977 -0.01461450534080928 -0.09810179011285657 -0.015085515281692096 -0.3119818808299044 0.1779678096394126
2763688000.0 -0.31219013904183 0.16458167980179225 -0.0980152534763754 -0.011547726855493629 -0.0985477700919105 -0.01211987112106587 -0.30995481998190505 0.17733610509739048
2764750000.0 -0.3111900848958336 0.16528725948198866 -0.09806666760709275 -0.008704554297864856 -0.09882653478987476 -0.009035490360374177 -0.3073961118391083 0.17680185152380024
2765812000.0 -0.31063310165798474 0.16589907709677307 -0.09815927461930991 -0.005919122064840265 -0.0991102512471725 -0.005960121117220183 -0.3044456628323289 0.17748052476263457
2766875000.0 -0.30990190025014774 0.16643651033930007 -0.09818345196387958 -0.003025200928581143 -0.09910878364828603 -0.0028499342604506287 -0.30119785656592 0.17752943789664855
2767938000.0 -0.30875947179156954 0.16696206372109104 -0.0980488577275163 2.721158725430741e-05 -0.09892493575426832 0.0003599348382923801 -0.29832885012984456 0.17942903226788073
2769000000.0 -0.3079431816821761 0.16701454090041032 -0.09818694854745944 0.0027098714566074623 -0.09863799272897832 0.0033502500835661123 -0.29617325376835796 0.181272694209806
2770062000.0 -0.3073181954723097 0.16700935183454488 -0.09804378952019098 0.005746628707872732 -0.09833702042298174 0.006120765375216833 -0.29403208220025956 0.18346013806681616
2771125000.0 -0.3062446870865029 0.16705807476320453 -0.09778436924057259 0.008586694001407798 -0.0978853183659641 0.009148231484076336 -0.292646159992686 0.18572644187917542
2772188000.0 -0.3051165236786407 0.16719738343385665 -0.09759884443128611 0.011391829922938483 -0.09757043048227851 0.011903422179799778 -0.29205286485254395 0.18864319684421757
2773250000.0 -0.3042060544290967 0.16715056054205132 -0.09730100169337254 0.014239934737629426 -0.0969685644499107 0.014570118579011422 -0.2917295761803371 0.19070769993620576
2774312000.0 -0.3033197710004314 0.1671224227091261 -0.09678422728617007 0.017096202511681653 -0.09663807613864418 0.017215524079744155 -0.2925084755337723 0.19321450922188052
2775375000.0 -0.30199907893466027 0.16719988670367175 -0.09634860778897655 0.020033897232293003 -0.09608093763972955 0.02003051305131807 -0.29358712479443366 0.19462613118970618
2776438000.0 -0.3005193918391099 0.16714782294419256 -0.09559106788387348 0.02286552931018546 -0.09562856713064591 0.022803541264283033 -0.2955559748184538 0.1961188272002915
2777500000.0 -0.29966418134526496 0.1676723052907567 -0.09490984598626738 0.025898881570872043 -0.09492651051755961 0.02542708778010916 -0.2964453210094563 0.19686549698157763
2778562000.0 -0.29848533449029546 0.16791635221521717 -0.0940578430441591 0.028582401831565664 -0.09430644592381549 0.028360512517800984 -0.2978182224484813 0.19716645839440122
2779625000.0 -0.2973960800615984 0.1679888702249246 -0.09303452926452598 0.03136200420099453 -0.09353560838632229 0.031157589778516508 -0.2993072925902231 0.19717738415835065
2780688000.0 -0.2964230886015931 0.16865615547258317 -0.09183388066279236 0.034191812417378786 -0.09261029265852963 0.0341173508163728 -0.30001388475887414 0.19711814635058283
2781750000.0 -0.2952049158714051 0.1690092445728985 -0.09105044599923082 0.03684227504525385 -0.0915519052313332 0.03697559013052842 -0.30135130547812516 0.1960103573529449
2782812000.0 -0.29399332213843293 0.16962985071263556 -0.08968204022776456 0.03948718733566396 -0.09029452410835344 0.039754805829109834 -0.30269900809175615 0.19540416299085067
2783875000.0 -0.29319732877543603 0.1704670146765569 -0.08848254327328643 0.04213828872074177 -0.0888775974542965 0.04256040505635294 -0.302834023452669 0.19432276864889933
2784938000.0 -0.2921030186340964 0.17103634071912552 -0.08703317912626145 0.04470703109574655 -0.08749603360995682 0.04511985976835618 -0.3034372489575378 0.19300163221078975
2786000000.0 -0.2913978525973088 0.1718302365884413 -0.0857228912266728 0.04715026534627523 -0.08590528252664723 0.04754042834907712 -0.3036306852459953 0.1912544345216705
2787062000.0 -0.29062657877699044 0.17257998493800208 -0.08419949788585797 0.049646919037400254 -0.08426397540419625 0.04997985881249422 -0.30336078293029745 0.1896000884410869
2788125000.0 -0.2897919553588696 0.17333745098264616 -0.08272174733985554 0.051802748463873595 -0.08278773073482874 0.05229863382521639 -0.3026647169497348 0.18725635491428771
2789188000.0 -0.28906692077532586 0.17428822012625508 -0.08099491325681198 0.05423974865794242 -0.0810604973031605 0.054541928106543666 -0.3016159148107354 0.18564816870100706
2790250000.0 -0.28826880950953415 0.17464981688770473 -0.0794570457113307 0.0564487864838564 -0.07933648799101153 0.056634347552490076 -0.2995846901739176 0.1836010422869193
2791312000.0 -0.287968984170977 0.17588390285592287 -0.07763009794275581 0.058749724039035355 -0.0777245308732479 0.05887052726932079 -0.2971158471105109 0.18221729280837298
2792375000.0 -0.28754187776525936 0.17639483717847879 -0.0758854149470133 0.06093887375022584 -0.0759325068602525 0.06108535669861972 -0.29456118395447506 0.181288011832404
2793438000.0 -0.2869673471704212 0.17721879360209913 -0.07399304725030881 0.06312525180315587 -0.07422531905991733 0.06329742502826362 -0.2910476613309893 0.18052689209124045
2794500000.0 -0.2866083745619424 0.17782279600357653 -0.07202327041226693 0.06532384900084817 -0.07237281471605427 0.06550466734242096 -0.28776857941834383 0.1805888202510548
2795562000.0 -0.2863084124398562 0.17849474022349834 -0.07027390576812124 0.0674373361824374 -0.07046563066712087 0.06775656833500711 -0.2841897787910446 0.1808880990427542
2796625000.0 -0.285706562651011 0.17926473801844992 -0.06831377708861121 0.06960591726946953 -0.06845758854970602 0.06985846950065176 -0.28114845409081707 0.18169070943198942
2797688000.0 -0.2852049694820013 0.1797882656693911 -0.06619538867137434 0.0716201757616283 -0.06619648562666088 0.07199914483264286 -0.27759405244095126 0.18375673688517635
2798750000.0 -0.2844616508651414 0.18017261290147094 -0.06394416097040405 0.07358775518934259 -0.06381574008306548 0.07387159699552406 -0.27423198819852695 0.18543681391040717
2799812000.0 -0.283706827732152 0.18076919071532796 -0.061501189439977136 0.07549897730335725 -0.06134163722642892 0.07573203351831276 -0.27163909325950064 0.18788751278962385
2800875000.0 -0.28312409160402613 0.1812184039929526 -0.059066688801904195 0.07733450660031951 -0.05884455624766882 0.0774239726234987 -0.268810297741222 0.19118043684264152
2801938000.0 -0.28222654333053526 0.18177245672631345 -0.05665375914404563 0.07905908429088276 -0.056393780088955535 0.0790313728225452 -0.26758800168617075 0.19404588984066132
2803000000.0 -0.28110721617604906 0.18226560106798606 -0.05400173004894821 0.08074132320646885 -0.05390231598635825 0.0804096251919329 -0.2666539319258234 0.19746848270428927
2804062000.0 -0.28039109703264603 0.18262608276962977 -0.05145362773955828 0.08212799500695489 -0.051509901590297016 0.08172149481261196 -0.2663126869737623 0.20084462227050529
2805125000.0 -0.2791896700276404 0.18319328756305162 -0.04866793606858253 0.08327942816878207 -0.04912567856117425 0.0829479546706841 -0.2666665131294727 0.20296659662642796
2806188000.0 -0.27788867678086454 0.18424596720421538 -0.04611285797374359 0.08462798761345619 -0.04684604319891514 0.08422558189429295 -0.26745709797992495 0.20450211923148665
2807250000.0 -0.27685673644057657 0.18521914151542482 -0.04338849635494114 0.08565171816260082 -0.04443666292350404 0.08546354141856301 -0.26828768196175284 0.20617574661546165
2808312000.0 -0.27626500782748215 0.18592639611357495 -0.04105089069626147 0.08650119962383118 -0.04187152761298841 0.08676087755534352 -0.2694388213652708 0.20684240306427298
2809375000.0 -0.27486132284615095 0.187526120484589 -0.038234487986521126 0.0872142733314757 -0.03932315813377602 0.08800987756517602 -0.26903404116259527 0.2070233454562394
2810438000.0 -0.2735892134820629 0.1886514779370656 -0.035750484204136596 0.08809606784045394 -0.036559301690927117 0.08911752462247309 -0.2689209586562199 0.20672717981581598
2811500000.0 -0.27255969238054734 0.19011987370177066 -0.033166117545623396 0.08900502505176888 -0.03375702539549557 0.09023702171541055 -0.2678555815490742 0.20639842244109521
2812562000.0 -0.2713288865706243 0.19130207808605798 -0.030587122150194018 0.08977018118043477 -0.030759111832030527 0.09110331176551234 -0.26629886416836557 0.20547574844481742
2813625000.0 -0.27045101867400884 0.19299677817578673 -0.028050417620778274 0.09064262938777078 -0.02777459251200469 0.09199383186534325 -0.2637994895115918 0.20538584111915192
2814688000.0 -0.26942876115024195 0.19429846980849141 -0.02559178433525838 0.09153644695921698 -0.02484856980704321 0.09266392423804497 -0.2609160443749197 0.20514600990215612
2815750000.0 -0.26866092117435225 0.1957783147369193 -0.02296775185879946 0.09220475077942114 -0.02204325900361127 0.09296610257442123 -0.2567259861269648 0.20556464155512782
2816812000.0 -0.26786477850140183 0.1972559434756178 -0.02040765934975745 0.0931212198982497 -0.019221439639378356 0.09330930554466309 -0.2521181228393854 0.20725868396197195
2817875000.0 -0.2675654424908202 0.19859660522244968 -0.017640460751834067 0.09360709887449083 -0.016638303860085548 0.09348535284847058 -0.24751253746109536 0.2103413532285663
2818938000.0 -0.2667157884002818 0.1999577202677268 -0.01489488544341711 0.09425900319517622 -0.014073035872854942 0.093581561548097 -0.24331478573194626 0.2145537478732427
2820000000.0 -0.266218948524324 0.20132890852028068 -0.011904766924130368 0.09469305010699353 -0.011621193307082894 0.093804625636473 -0.2401197643158679 0.2199760541330621
2821062000.0 -0.2657499556063983 0.20227572469800442 -0.009001350527724713 0.09496234826993318 -0.00912064816922879 0.09395127673769675 -0.23809966176054648 0.22678830695711164
2822125000.0 -0.2653058371814006 0.20377784076116373 -0.00610638914151897 0.09523831775378816 -0.006742789674381586 0.09433823182744175 -0.23779557207594684 0.2335330215410147
2823188000.0 -0.26477328951490686 0.20526600467100845 -0.0032845084003430653 0.0953740294734765 -0.004298521148532566 0.09458177621547385 -0.2389541652117101 0.2403148166870693
2824250000.0 -0.264294970806771 0.20629481487779447 -0.0004725927510205699 0.09538768522715117 -0.0018129306672790132 0.09497294557427002 -0.2421632910631396 0.24680632552375
2825312000.0 -0.26376491910698596 0.20735490108418136 0.0020968960405228425 0.09495470434564898 0.0008607702250072875 0.09533976281120263 -0.24580996317709303 0.25210549129891435
2826375000.0 -0.26298297866841186 0.20816081216108956 0.0049037067041660855 0.0947211716342021 0.0036073102251056553 0.09550771506357918 -0.25090550774239 0.2564731124354384
2827438000.0 -0.2622771125576027 0.2090168145740907 0.007519401521762335 0.09420017649975698 0.006343208787244402 0.09537636067323076 -0.2560334045612596 0.2592381416285307
2828500000.0 -0.26122138803838335 0.2098614761982305 0.010010722925345897 0.093723559404086 0.009408903521432678 0.09515978593384469 -0.26161150077202355 0.2604097613862368
2829562000.0 -0.2606208644852358 0.2105404857644721 0.012443966666712391 0.09301146373421185 0.012309236081633122 0.09481483487256429 -0.2667925071648478 0.2601311548726063
2830625000.0 -0.25958423876905334 0.21102591514130567 0.014823270984152936 0.09237322123080652 0.015390681577478967 0.09410118258063244 -0.270964126757226 0.2582667613859823
2831688000.0 -0.2585728037220352 0.21172939672039687 0.017367803304636012 0.09169478310606863 0.018257622060603475 0.09299747691149053 -0.273679558126037 0.25520288306086086
2832750000.0 -0.2575688721858353 0.2121409557572891 0.019900628644753757 0.09092738193689602 0.021073441637372597 0.09198890672399994 -0.274972406041249 0.2510459236935953
2833812000.0 -0.256673035520201 0.21300674607196773 0.022262368205713774 0.0902955803653322 0.02359425440142681 0.09086294670660261 -0.2750344627172195 0.24594817172334163
2834875000.0 -0.255414472050537 0.21367108089677067 0.024630366307581142 0.08933004384280752 0.02607482286888824 0.0893759768342323 -0.2733463888769653 0.24097871535165946
2835938000.0 -0.25415578894980767 0.2146227981361396 0.027154905499423794 0.08868219397612329 0.02836900978949593 0.08824093519998985 -0.2697784036022462 0.2372096409107438
2837000000.0 -0.25305383522656816 0.21539841682106603 0.029609576876113878 0.0874964370297493 0.030577914910058516 0.08692816929121966 -0.2643128764441952 0.23311211802043083
2838062000.0 -0.2518004326952256 0.2163919942324676 0.03225465684983582 0.08666436711378828 0.03255132036910159 0.08571763500973595 -0.25871329470151727 0.23016541207758717
2839125000.0 -0.2506950814163095 0.2174766288549413 0.03464884546944509 0.08549456502852194 0.03471060748012749 0.0847647006182462 -0.2516637941098036 0.22886092346409737
2840188000.0 -0.24935327273283614 0.218875773913737 0.03724556721351071 0.0843747600812306 0.03692408599522283 0.08354448767902506 -0.24531966640646877 0.22977456897401471
2841250000.0 -0.24822517146892625 0.21992314390873619 0.039796377645478234 0.08300901428409171 0.039256271385846864 0.0825748242093309 -0.2393204226452259 0.2324722394707902
2842312000.0 -0.2472582440436963 0.2214487955642959 0.04237335350131314 0.08182922613652657 0.04158177885783481 0.08158246596357538 -0.23390860513178605 0.2362275270029701
2843375000.0 -0.2462982342305553 0.2227953126225665 0.04474754717074609 0.0804023349051755 0.04413253980108026 0.08061443472503313 -0.23122961561742902 0.24116541509929196
2844438000.0 -0.24535431673354055 0.22415537722469245 0.04718634305482146 0.07886315875636138 0.04662111005965044 0.07936531184315461 -0.2297807327185152 0.24659547091515144
2845500000.0 -0.24446084688867833 0.22548996136832347 0.04954671408028754 0.07727265642883308 0.049179039477170214 0.07818371011254246 -0.23080213924253204 0.2520448946795431
2846562000.0 -0.2439655264565115 0.22680572904052465 0.051899706006747544 0.07580033670391532 0.05161432302651091 0.07672162261374021 -0.23263421228191936 0.2569292182272637
2847625000.0 -0.24339986292851926 0.2280912695723032 0.053867361054697104 0.07437231553783985 0.05405489634487048 0.07522160599711647 -0.2364017190229989 0.25994876545741485
2848688000.0 -0.24319333346692174 0.22905388967248863 0.05586808511252356 0.07259419090331258 0.05619082557648299 0.07358877493946417 -0.24060586227622852 0.26279961407207497
2849750000.0 -0.24263362076434955 0.23042476974808113 0.05790944972994057 0.07115403337242444 0.05855355023082037 0.07172665128133178 -0.24477213697295938 0.2637623274243546
2850812000.0 -0.2425584734026186 0.23162312502262059 0.05986571628050988 0.06951064561557346 0.06065774815047694 0.06991401808944953 -0.2497491413650187 0.26354742963383276
2851875000.0 -0.24199537108781666 0.2323329757590399 0.0615751326432145 0.0676999722631088 0.06230489817546034 0.06802681398044118 -0.2527807074329418 0.26053630343618966
2852938000.0 -0.24201878306629945 0.2333206518401123 0.06341184539829796 0.0660011054216079 0.06402203292780614 0.06602330921958703 -0.2552045085222076 0.257159605371554
2854000000.0 -0.2415394827912311 0.2340478558769164 0.06508212585554198 0.0640199883694404 0.06573291950600743 0.06401553931006311 -0.2556289220057193 0.25267184311197555
2855062000.0 -0.24122533517817957 0.23485765764036443 0.06689173002484572 0.06228131641612434 0.06726722031249016 0.062057953011963825 -0.2546478782558165 0.24787701692258593
2856125000.0 -0.24060292114462675 0.23526020885564142 0.06848311348028609 0.06027228486285385 0.0687513440366041 0.06009160733897693 -0.25146648744185823 0.24281992812610192
2857188000.0 -0.2401199726232683 0.23589694363203034 0.0702667423115464 0.0582882095649543 0.07039143495041882 0.05797014091184992 -0.2465917385555169 0.23830294298501717
2858250000.0 -0.23957173326565437 0.2363153161104233 0.07182843633466097 0.056035357843595854 0.07186153205590495 0.056041042213930796 -0.24045579601572023 0.23430588437299235
2859312000.0 -0.23891247349630546 0.2367567488213926 0.0733412942197574 0.05399361422517698 0.07348117197112798 0.05396627874608047 -0.2331503657030065 0.23186971454260175
2860375000.0 -0.2382202849096295 0.23694063740034094 0.07489091512986215 0.05166531303130098 0.07499593769570179 0.05178201946999976 -0.22501083326711266 0.23108129099896776
2861438000.0 -0.23741118717392765 0.23736400367293073 0.07640134139479728 0.04936347291694069 0.07647652371125042 0.04951047259789998 -0.2166816529464465 0.23167620668934888
2862500000.0 -0.23650841461347205 0.23772843723395426 0.07770177543975267 0.046974718143962355 0.07787349846530765 0.04711926584241772 -0.2089196801970888 0.23436675850094812
2863562000.0 -0.23554773751808086 0.23803992815842168 0.07903710234691327 0.04454892039382799 0.0793009580825883 0.04463757942014737 -0.20196139539277408 0.23872891296586027
2864625000.0 -0.23464666632992012 0.2385400784087855 0.08025620894148708 0.042174095669066006 0.08050213305949844 0.04198553347918193 -0.19659207833416484 0.2436611337571543
2865688000.0 -0.23335479491895836 0.23891324450284568 0.08148212561429889 0.03944636508984184 0.08173669875601174 0.039542240728163765 -0.19282908043657213 0.24983603929636167
2866750000.0 -0.23217754689800885 0.239754965400738 0.08263539981226475 0.03703336417363109 0.08274721072332851 0.03696353405108352 -0.19089843599289258 0.2559071688583196
2867812000.0 -0.2309109198628802 0.24028215191899804 0.08372814991306897 0.03458407536605462 0.08369361803697384 0.03453580277873794 -0.19055608739201782 0.2621111048864926
2868875000.0 -0.2295459092555597 0.240866522203804 0.08443712869355562 0.032126263343918667 0.08447760369942833 0.032113458662241696 -0.1916548289814244 0.26711127275571017
2869938000.0 -0.22838204024708503 0.24171009892976852 0.08527463965720546 0.029542857833827058 0.08528109802038616 0.02967080574669194 -0.1938161036989859 0.27102178650244463
2871000000.0 -0.22726408111537813 0.24267505352730648 0.08599147588746808 0.02689036738668816 0.08609381381903074 0.027172786711179585 -0.1962262167840766 0.27377293955519927
2872062000.0 -0.22601612627851075 0.2436580230138435 0.08646851955841264 0.024429402834763844 0.08668058218430293 0.024749937895712004 -0.19911203498923538 0.27530914188178585
2873125000.0 -0.22476374037436597 0.24463013912872902 0.08709614831263224 0.02189596769402126 0.08725939640847372 0.02226469035496867 -0.20172566035554468 0.2754743662916107
2874188000.0 -0.2238388356695746 0.24545656195849302 0.08761786713150309 0.019348238073557417 0.08792521263781163 0.019760819755938155 -0.20366024528392976 0.2744860496270442
2875250000.0 -0.22316956726309742 0.2462486342534733 0.08798439530888424 0.0169355277326788 0.08849385265381256 0.017153841436432872 -0.2045987687347935 0.27233029139068804
2876312000.0 -0.22215242360433365 0.24721505657899917 0.08825844828291107 0.014364754464661018 0.08896431067698274 0.014468706693134565 -0.20501773102527213 0.2702407198676288
2877375000.0 -0.2214533005584806 0.24816547134383626 0.0886520262597014 0.011648637987574454 0.08916971183686502 0.011775199988244861 -0.20378210606554012 0.26705704754079784
2878438000.0 -0.22063530205407114 0.2487773905350368 0.08893718564379073 0.009232769499490102 0.08942666984415362 0.009126184186273267 -0.20153542161129515 0.26461644197617024
2879500000.0 -0.2200432996337742 0.24953637730249165 0.08893966292507957 0.006628830887701694 0.08947510297043666 0.006376444959793109 -0.19814159991219876 0.2624198063351327
2880562000.0 -0.21947081928912635 0.2502108312756752 0.0891236793090828 0.0041486876383137195 0.08946167867229333 0.003686304506241856 -0.19424803756047093 0.26139370661747036
2881625000.0 -0.21893779619870266 0.2507774649472259 0.08902894277201369 0.0014494582096783901 0.08929532763105816 0.0010452678066584559 -0.18976975948738836 0.261201197958868
2882688000.0 -0.21851921413490577 0.25124516048652623 0.08902159007796219 -0.0013206226906294334 0.08912956050606803 -0.0015262205249897466 -0.18531934968464706 0.2628369248499758
2883750000.0 -0.21790978360638413 0.2520446901746304 0.08898105248694911 -0.003948565053459621 0.08899907626820568 -0.0041076192730532275 -0.18179436280856587 0.2651098508603683
2884812000.0 -0.21738593707568352 0.25208810804159404 0.08864966697372285 -0.006565394012850998 0.08875178380269068 -0.006644863557483437 -0.17936711241833703 0.2687052392714337
2885875000.0 -0.21681110706834714 0.25229796492658446 0.0884323496112973 -0.009342304495943385 0.08860431069474362 -0.009281907104941128 -0.17747101936072698 0.27265096683865975
2886938000.0 -0.21616606468922653 0.25251605873509325 0.08810269535236936 -0.011853909311115234 0.0881861980602142 -0.011704093243009658 -0.1776464344698023 0.2769636289169532
2888000000.0 -0.21552484182806375 0.25242093957429435 0.08761747708732351 -0.014389158847360127 0.08780352296060705 -0.014306863796320781 -0.1781317047734178 0.28133039759622247
2889062000.0 -0.21488115420124504 0.2527703544041846 0.08708190934964595 -0.016936534089228954 0.0874419664505183 -0.01680769480398492 -0.1801758037162337 0.28490466968192363
2890125000.0 -0.21411467646901824 0.2529935224036901 0.08662468303972394 -0.019413796625861603 0.08689710262456225 -0.019525418782991074 -0.18302649528479728 0.28810436327962335
2891188000.0 -0.21337163001049556 0.25285866947118846 0.08594049540291726 -0.021820001632515573 0.08633007039269475 -0.021936475059537497 -0.18606334343555267 0.29025177883964937
2892250000.0 -0.21235917568857157 0.2529263956544601 0.08535158026340453 -0.024216942680037542 0.08563610173969062 -0.024418199485713003 -0.18985172020873733 0.29197603605651307
2893312000.0 -0.21170336976775458 0.25320025027774135 0.08428919362405905 -0.02650192974582771 0.084793660608173 -0.02699841416633475 -0.1935128375904911 0.29208199218441083
2894375000.0 -0.21064411560547597 0.2536309192488222 0.08351423214972531 -0.02896738469143661 0.08394854745969077 -0.029242620819955486 -0.19723302467662202 0.29150870034392906
2895438000.0 -0.20980935556093513 0.25386966762287816 0.08265239315545057 -0.03120681470624906 0.08274598792465421 -0.03158021097221009 -0.2007767472342421 0.29005575435241526
2896500000.0 -0.20866689997761254 0.2542569022280682 0.08155628111308724 -0.03367893410405305 0.08172089604459776 -0.03392518419580785 -0.20295310562473934 0.2878645709087912
2897562000.0 -0.20764273854450058 0.25451900801656163 0.08039515786524244 -0.03591048363978426 0.08051971665440748 -0.036144791178651506 -0.20461126809740687 0.28467161542137304
2898625000.0 -0.20672675256216796 0.25507197607005877 0.07932770709900035 -0.03799682486768801 0.07930930125551476 -0.038251585873161756 -0.20508906131423896 0.2806649016286903
2899688000.0 -0.20606440715130622 0.255953504008629 0.0780554519511063 -0.04040336451971349 0.07803339669403041 -0.040343488287906494 -0.20476421700809103 0.2776959197333057
2900750000.0 -0.20473573615431 0.2566390703985705 0.07666807369016944 -0.04248971755026016 0.07681533911071575 -0.04254313643118984 -0.20343671557675438 0.2739368700593228
2901812000.0 -0.20445248683885672 0.257119097463778 0.07540861528392725 -0.044653942806660206 0.07544673505326414 -0.044549795840232 -0.20152959117094138 0.2717982191766304
2902875000.0 -0.20357165678201436 0.2581091545784271 0.07387089817294973 -0.0467269889312009 0.07395992812396583 -0.04668309523749575 -0.19877935799230037 0.26987768507579646
2903938000.0 -0.2028044136685341 0.2587598253485095 0.07222190884736396 -0.048896292207281054 0.07247821611256879 -0.04877413900306608 -0.19565501527693963 0.2684867739994644
2905000000.0 -0.20233856237458225 0.25981746861025784 0.0704778146514723 -0.050800467185343735 0.0709598992701569 -0.050897718563666886 -0.1933308879561851 0.26777324424540394
2906062000.0 -0.2018273155053557 0.2609825438452587 0.06881272758023398 -0.05283560806658939 0.06922371792847833 -0.05301383385671637 -0.19020337684794406 0.2681797512282517
2907125000.0 -0.20139947939256375 0.26194776153973925 0.06709310693546025 -0.05493551964611784 0.06749401641405028 -0.05505691187539227 -0.18752984529263483 0.26886380569777507
2908188000.0 -0.20084163959541756 0.2628894193710361 0.06527735915560695 -0.056667815313687746 0.06551368387523102 -0.05704605877273131 -0.18586971059036897 0.26996681802463096
2909250000.0 -0.20071628058142776 0.2637556401814767 0.06350509924980559 -0.058446626436733734 0.06365197130996388 -0.058830977706834646 -0.18422533891374876 0.27083861539482595
2910312000.0 -0.20024639497703478 0.2647607352946049 0.0614071030757548 -0.0601280689537888 0.061643208048748545 -0.060628573551399556 -0.18298086550747622 0.2722032887691063
2911375000.0 -0.20003523052285482 0.26565850887489273 0.05954634939181706 -0.061751486914364884 0.05963333376863803 -0.06216797066233054 -0.18210827270827004 0.27350416202441175
2912438000.0 -0.19971033861542184 0.266680993373956 0.05761736829033554 -0.06330017206724327 0.05764658123093288 -0.0637605748050155 -0.1811446186021777 0.27395753195097067
2913500000.0 -0.19948932387127166 0.26741686839432666 0.05563356468394174 -0.06475880740771633 0.05552248651347937 -0.06504466598780997 -0.18059578084067926 0.27547754483752945
2914562000.0 -0.19934913762618117 0.2684499814511186 0.05354293111892532 -0.06618532897017654 0.05352638501032477 -0.06649850396596962 -0.1796243847560675 0.2763267091531041
2915625000.0 -0.19910530058484419 0.2690511836219301 0.0515582697094669 -0.06767899679610395 0.05161781811783259 -0.06783202667104178 -0.17890148418076532 0.277321522648822
2916688000.0 -0.19900719863345778 0.2698914993892846 0.04963525760914251 -0.06899179329859631 0.04961798290152732 -0.06900942544109659 -0.1786808583853437 0.2783778169807191
2917750000.0 -0.19815190328608892 0.270945880624788 0.04744429309361541 -0.07044572950939101 0.04752353067846469 -0.07033772776897326 -0.1777382035128822 0.27969901137651887
2918812000.0 -0.19819202996777577 0.27171202496418145 0.04532580919154329 -0.07172794532452459 0.04550481141170387 -0.07162908373195952 -0.17715033652920253 0.28063538841381924
2919875000.0 -0.19748931275290127 0.2727483473569115 0.04313439519768573 -0.0728078189231192 0.04338265679126499 -0.07293670618740479 -0.17661345003836754 0.2813398685579035
2920938000.0 -0.19718474400549213 0.27393724944395115 0.04100668117760216 -0.07401469251895113 0.04121501560642272 -0.07422542487332882 -0.17590700653742536 0.28269695382670346
2922000000.0 -0.1964240777252328 0.27510546518502665 0.038762120331545594 -0.0750421562345864 0.03895289159031589 -0.07528485434590927 -0.17503648781749373 0.2831317217986047
2923062000.0 -0.195966323658233 0.27646221899943796 0.03657674133605339 -0.0760466273204777 0.03655703369998607 -0.07640300561728933 -0.17415321819423815 0.28381181021816937
2924125000.0 -0.19523579331209148 0.277582915371935 0.03402003088238368 -0.07690447356419029 0.03423733303522294 -0.07720916525372704 -0.17305439899395392 0.28438611427928057
2925188000.0 -0.19479871546756378 0.27892942677375837 0.03188281430774154 -0.07774787362011944 0.03177810068810825 -0.07808585164259953 -0.1716115795792876 0.28513616624134
2926250000.0 -0.19386195444081636 0.28040295900538814 0.029434811013956317 -0.07859958183125247 0.02922011570631408 -0.07878835896232675 -0.17014794741088934 0.28593605588266696
2927312000.0 -0.1932578052524705 0.28221811931243646 0.02689903637047685 -0.07911464233613842 0.026792477063036075 -0.07938615023472059 -0.16831083614938147 0.2870567828120107
2928375000.0 -0.1929258486413038 0.2836644673139798 0.02454135827697722 -0.07971219491490732 0.024411984189356414 -0.07981189381938213 -0.16624750696883878 0.28767731019950427
2929438000.0 -0.19239100418676114 0.28517497771176914 0.022047731408066963 -0.0802511990433857 0.022206030562839936 -0.08015839574564014 -0.16423934033389093 0.28895870749703273
2930500000.0 -0.1917539847562163 0.2870021294052524 0.019608563265490663 -0.0805492794795373 0.01980290431067995 -0.08042712633433997 -0.16182149854340874 0.2903859688406833
2931562000.0 -0.19156472418745304 0.2888485945111433 0.01729589965045721 -0.08085558734325887 0.017617326866229733 -0.08078473712569934 -0.1593464759308351 0.2919504426521983
2932625000.0 -0.19111649653950857 0.2907510810686143 0.014983161496620342 -0.08098531048738652 0.015329389502539781 -0.08099583941110568 -0.15682310760238183 0.29438147823209515
2933688000.0 -0.19047964024307287 0.29242028133892695 0.012562577321577412 -0.08092317490385827 0.013035790668703312 -0.08126969464526206 -0.1539886958677297 0.2970841196392515
2934750000.0 -0.19015193429602312 0.29430491595590424 0.010271625678378556 -0.08091677276227636 0.010759808851719925 -0.08153076714005197 -0.15167768445475144 0.3006251435079976
2935812000.0 -0.18990842417151624 0.29633500700986726 0.008071795605811947 -0.08111317717017529 0.00822385563943026 -0.08175836698565604 -0.14988491741751994 0.3045307424936657
2936875000.0 -0.18952899889564104 0.29794764521041694 0.0058563458412675545 -0.0809810491768283 0.00594663571384648 -0.08191088331510031 -0.14825486573125313 0.3090457789067665
2937938000.0 -0.1893732376666747 0.2995600213626354 0.003656534639943654 -0.08097452497926522 0.0035973152369111385 -0.08199270625757954 -0.14755901892776296 0.31407628402243626
2939000000.0 -0.18879989491073287 0.3012936951067303 0.0013925786776713578 -0.08113002112921958 0.0011694513651408086 -0.08191272513129193 -0.14792339464189974 0.31865369681316263
2940062000.0 -0.18854731408459355 0.30298752132060713 -0.0007758031739833575 -0.08105442823172763 -0.0012364739364668685 -0.08175515305249373 -0.14844824978872798 0.32350215140573957
2941125000.0 -0.18814824369399422 0.30450511386827717 -0.0029001124896788624 -0.08089028755264736 -0.0035869919561139457 -0.0814293347671925 -0.1503313657682762 0.3278708961517491
2942188000.0 -0.18746591991295297 0.30624956263593317 -0.0051486892079218 -0.0807146377454283 -0.005901065479411769 -0.0810349060530037 -0.1522994851215631 0.331938184362024
2943250000.0 -0.18704110034634117 0.3075221106008698 -0.007402517815380101 -0.08046735584082963 -0.008072179886277554 -0.08050402500951934 -0.1547822342901356 0.33497948438269187
2944312000.0 -0.18624957987818655 0.3090775602256241 -0.009653427758070168 -0.0801659367909921 -0.010216064765040805 -0.07989032287641208 -0.1575588127897293 0.3370287961626617
2945375000.0 -0.1856792387010314 0.3107980616117916 -0.01200752850719627 -0.07967926023712481 -0.012335491693059857 -0.07928482024924859 -0.16045780450438776 0.3380298607148008
2946438000.0 -0.18474247835882604 0.3121594072884122 -0.014349232281887527 -0.0791445151787855 -0.014444919874478693 -0.07873393791059301 -0.1624584972263057 0.3383095362437541
2947500000.0 -0.1841098751945052 0.3138726710213231 -0.016578058712886912 -0.07861008063200595 -0.016483848593555252 -0.07813449354985423 -0.16462117858759065 0.33748440815122843
2948562000.0 -0.1830206312291121 0.31522159207893463 -0.018849082876338377 -0.07786782604602384 -0.018525036077838647 -0.0775121045956191 -0.16593607110009362 0.3357634275627929
2949625000.0 -0.18218686354106664 0.3168907477222374 -0.020997180139842107 -0.07707639573272351 -0.020452103497155198 -0.07695171131487837 -0.166012532881496 0.3335603859567137
2950688000.0 -0.18102728621203923 0.3183911738563388 -0.02304637778222849 -0.07610223944728502 -0.02253252951099358 -0.07617997868456303 -0.1643137093374739 0.33065582554852935
2951750000.0 -0.17966259655275238 0.3201743365654164 -0.02509880756472135 -0.07505533390027551 -0.024500731678211776 -0.0755285232178202 -0.16133624034239993 0.3282186250355639
2952812000.0 -0.17842216355260002 0.32184923024293643 -0.02703111234916844 -0.07402341394530136 -0.02659481521765176 -0.07471636285330478 -0.15773654422425717 0.3266500420670279
2953875000.0 -0.17710238006891174 0.3235525819373771 -0.02892854462405263 -0.07283979512486315 -0.028787622752421718 -0.07360712786362435 -0.1527039543582951 0.3259134309276024
2954938000.0 -0.1757885970586971 0.3252595074457535 -0.030835821436548828 -0.07171343174204357 -0.030786343563436958 -0.07260579720057633 -0.14837795169093884 0.3271681922121234
2956000000.0 -0.17439272224719182 0.32709897896462664 -0.03269770968270917 -0.07058819110543353 -0.032903195342607966 -0.0714525729650639 -0.14285311162572165 0.32992528839817103
2957062000.0 -0.17311240896578467 0.3291469093439807 -0.03441281346701504 -0.0694955820073814 -0.03492693090718982 -0.07013995427163051 -0.1399809239375484 0.33264500342910397
2958125000.0 -0.17185749713167933 0.33131341718454854 -0.03627372926599962 -0.06852596259657003 -0.03701565250948326 -0.06902878309154382 -0.13656714283160787 0.33765562732015536
2959188000.0 -0.17079404984928329 0.333124040938754 -0.03805724443638993 -0.06741066899167594 -0.03888909704899061 -0.06776034685728355 -0.13322239190401133 0.34289211472255754
2960250000.0 -0.1693460883631133 0.33483670107564845 -0.03987712065320886 -0.06652311920823388 -0.04058016065879507 -0.06652538981089168 -0.13373769744439115 0.3494136630669651
2961312000.0 -0.1681701979871192 0.33683289450580267 -0.04161001480992793 -0.06541595547712681 -0.04224498829490157 -0.0653253898818401 -0.1335371565785886 0.3543815859353237
2962375000.0 -0.16696394875667156 0.33886463997586547 -0.043340930008897306 -0.0644101042027416 -0.04387397210552827 -0.06412092249808657 -0.13576312504564372 0.3604627539319531
2963438000.0 -0.16560159628096824 0.34095006029215297 -0.04503687929444572 -0.06322264326852323 -0.0454952795239637 -0.06295610244323255 -0.13876357081257532 0.3654029921769867
2964500000.0 -0.164357815976216 0.3424896177457041 -0.046801280597568065 -0.062042853518003545 -0.046989429857691126 -0.06173016023739828 -0.14253848987861958 0.3695062292589823
2965562000.0 -0.16318226628980323 0.344540930697049 -0.04845147049288367 -0.06077477672679367 -0.048477304432426496 -0.06051469989785446 -0.1465156065882032 0.3722451744479802
2966625000.0 -0.16203291075714657 0.3463710683256589 -0.05007882365630466 -0.059437587368645906 -0.04995270499750557 -0.05923823915582191 -0.1505784040089165 0.3728252035661229
2967688000.0 -0.16072253502896378 0.3478937192279802 -0.05164690594308836 -0.05801260823415704 -0.05145517273568857 -0.05795841747426294 -0.15399909913155582 0.3724457556232655
2968750000.0 -0.15919022545796027 0.349586822268992 -0.05319654682819252 -0.05651205066351724 -0.05295921113580476 -0.05663132761693933 -0.15654216768527746 0.36981164651340215
2969812000.0 -0.15789372157176748 0.35085962682346017 -0.05455049428717763 -0.05491202331718411 -0.054400883435426484 -0.05510337858336752 -0.15699472351304888 0.3658931093392684
2970875000.0 -0.15611296753535137 0.35238684460761943 -0.05595230955296153 -0.0532161592662536 -0.05587622717669752 -0.05348078971483761 -0.1561552251731419 0.36111792867389997
2971938000.0 -0.15469471654767455 0.3538961103703337 -0.057249823196937596 -0.05154165283942269 -0.05717891202673547 -0.05186019219716644 -0.1534358151327551 0.3565421053885723
2973000000.0 -0.15308069490079126 0.35511062113584163 -0.0583809482603005 -0.04983159011583982 -0.05850541083582579 -0.05012048018971866 -0.14812907644078746 0.3512996945145491
2974062000.0 -0.15104267276639072 0.3562266648139294 -0.059500168201030774 -0.04797063227043131 -0.05976609083294565 -0.048340506226560526 -0.14170562141827028 0.34654070388846975
2975125000.0 -0.14914102633240964 0.35732960205588027 -0.06049609584728688 -0.04612278252948646 -0.06066568866142466 -0.04648125326223433 -0.13302989049861424 0.3432576904274573
2976188000.0 -0.14742478630443245 0.3585641623125806 -0.06135418010263461 -0.04421936821191787 -0.0616975077931034 -0.04440947934370245 -0.12377906653072412 0.3421511830594157
2977250000.0 -0.14513768848526343 0.3591706884907099 -0.06223524383891373 -0.04223479293906051 -0.06253806440101381 -0.042370308744497896 -0.11421220505633257 0.34244205408887374
2978312000.0 -0.14275668461748608 0.36073885932030547 -0.06318575750920538 -0.040298496914326555 -0.06350953223930665 -0.04045528450852356 -0.10517672143825385 0.34498107371740083
2979375000.0 -0.14041650585853058 0.3615308970914759 -0.06405748348496992 -0.038387304787824865 -0.06440607639202889 -0.038438862841468115 -0.09702140335024861 0.34865413517048055
2980438000.0 -0.13802998628951915 0.3629195994404165 -0.06498591440175022 -0.03645781939642052 -0.06522863423192964 -0.036419916986152816 -0.08958052703340733 0.35362073924464016
2981500000.0 -0.13547259781590015 0.3640768001380813 -0.06592658214772538 -0.034482598753519014 -0.06617611077758648 -0.034585207449002495 -0.08459405465193445 0.35975736891053073
2982562000.0 -0.13308967384368342 0.3651559649618526 -0.06680754463125496 -0.032718620099234916 -0.0669862866751584 -0.03265739642331504 -0.08122524652028511 0.3664839274555225
2983625000.0 -0.13020069958934127 0.36595270178541484 -0.06762477952774602 -0.03071037474005314 -0.06778904574283016 -0.03064143947904942 -0.07890894571471185 0.3730153011787195
2984688000.0 -0.1277364091749397 0.3671259298725458 -0.06846828954556311 -0.028844106326495946 -0.068602135965566 -0.028829643236849188 -0.07952413785629897 0.3795774134679768
2985750000.0 -0.12510010493055584 0.3685321258160467 -0.06925051352843599 -0.026998831121813015 -0.06935886212724202 -0.026895195557172864 -0.08098966639225023 0.3839735164112671
2986812000.0 -0.12244166686910242 0.3697135778099303 -0.06997403680653905 -0.025016880547445355 -0.07015130655266288 -0.025089454213242015 -0.08285814872773532 0.3878872019002599
2987875000.0 -0.11998153079124457 0.3709499172942422 -0.07058738377371324 -0.023166027734533235 -0.07070762368410524 -0.023137209615959865 -0.08550706650819538 0.38990274191941765
2988938000.0 -0.11735235843381447 0.37229260380123624 -0.07119573934586446 -0.021187059169805587 -0.07135936432931474 -0.021233133558483074 -0.08845011028581792 0.3912434747108786
2990000000.0 -0.11460714236079399 0.3738552480324631 -0.07170314745664215 -0.019142346374804897 -0.0718081018885332 -0.019228010170441383 -0.09029202958088206 0.39002959449348185
2991062000.0 -0.1120425851893472 0.37484474626353237 -0.07220906795548548 -0.017182498964561123 -0.07233115410290804 -0.01722273500703932 -0.09175354852696599 0.3877497082567359
2992125000.0 -0.10974407388973699 0.37639612647669846 -0.07262090143925101 -0.015205972590073587 -0.07273540500825726 -0.015270817445069652 -0.09181721235848288 0.3848316180556234
2993188000.0 -0.10744994804556042 0.37753146923925995 -0.07291251542793487 -0.013247232041686135 -0.07306490770500172 -0.013366848098628757 -0.09026819940965658 0.3813675758782207
2994250000.0 -0.10536570639931478 0.3788321434764838 -0.0731490751215353 -0.01131034387145073 -0.07337613708995061 -0.011485908736274912 -0.08723202601629776 0.3776654644392949
2995312000.0 -0.10246586324430905 0.3798761916155747 -0.0733433891513101 -0.009411439467599671 -0.07357717296225952 -0.009428882105099777 -0.08209839954548513 0.37431659277943574
2996375000.0 -0.10036247911462673 0.38082041920573306 -0.07338642758018485 -0.007463017169810114 -0.07374577185297432 -0.007557864516465288 -0.07660750805148778 0.37202064324794176
2997438000.0 -0.09839991991012705 0.38180285820907806 -0.07343679503357411 -0.005551921163188129 -0.07376148969429851 -0.005593043422281647 -0.069719879382996 0.3711784833197806
2998500000.0 -0.09601669515417621 0.382490134347572 -0.0733866196591587 -0.003634933453209447 -0.07372060504906773 -0.0035841484289391694 -0.06322061522592105 0.3718764104233364
2999562000.0 -0.09370523527855545 0.38330082454995223 -0.07333345759331596 -0.0016288638367521861 -0.07367676528629137 -0.0015640033858498074 -0.056887574530801926 0.37412281542775666
3000625000.0 -0.09219539923888931 0.3833017214076267 -0.07325526817553311 0.00013802649227347074 -0.07360138720423898 0.0004926413285860319 -0.05193286848007227 0.37760073463865795
3001688000.0 -0.08978072585100552 0.38413885015379207 -0.07321507350230862 0.0021400916657365356 -0.07333992148864438 0.002636123922112302 -0.0472572203229559 0.3822268076097406
3002750000.0 -0.08728848487233093 0.38465852973633285 -0.0731453248935663 0.004127560896725829 -0.07299131449220153 0.004570444497627131 -0.04403657834869994 0.38690951725090234
3003812000.0 -0.08500928814002404 0.385268103870922 -0.07309471768315537 0.006222230469438214 -0.07290203334158982 0.006526553837533224 -0.04266651808155088 0.39285059788049015
3004875000.0 -0.08257907899936988 0.3854735112630338 -0.07283379349501133 0.008226999178353404 -0.0726959324399538 0.008423585378535768 -0.0426881013762246 0.39797357376434683
3005938000.0 -0.08027569897707587 0.38578062814766634 -0.07263278758592538 0.01027376585229458 -0.07250739884442775 0.010252789953225028 -0.04437011748005343 0.4025692545711322
3007000000.0 -0.07814518774160378 0.38630978674514843 -0.07240046312993477 0.012242176231543415 -0.07239534239055048 0.01219540697177158 -0.04705456638130955 0.4063288468991124
3008062000.0 -0.0755690641938582 0.3864417889857163 -0.07202741002187499 0.014159124755401578 -0.07215901559823919 0.013966560436661217 -0.05058310692732499 0.4080020970892115
3009125000.0 -0.07261675498600816 0.38682987550906917 -0.0715787259588579 0.016147917234381727 -0.07194664124314419 0.015901869898076636 -0.05461731628705673 0.4084656491488821
3010188000.0 -0.07036785507864253 0.38712004173789744 -0.0710879472044622 0.01804239595645785 -0.07163714025164145 0.017888115971943213 -0.057583823909360995 0.4067697932872695
3011250000.0 -0.06768602262571594 0.3879272895549775 -0.07053183611929778 0.02001468274874941 -0.07138449514848484 0.019852375450325793 -0.06041681267162226 0.4041745672785286
3012312000.0 -0.0651333826732107 0.38770752108801004 -0.06998996795193771 0.021874072342562754 -0.07071040754867097 0.02193701594204317 -0.06147295401312318 0.4003882824878871
3013375000.0 -0.062455994613706774 0.38834755639554674 -0.069363932157664 0.02372156868272038 -0.07003273562226496 0.024054513443612462 -0.06175914493507251 0.39567153474336997
3014438000.0 -0.05993641076331358 0.3890344135245898 -0.06867917736727569 0.025584610319327284 -0.06934005383963286 0.026097918646567558 -0.06035709320679468 0.3908324948801299
3015500000.0 -0.057451111283585446 0.3892947232947475 -0.06798237950932133 0.02735347092362894 -0.06857927014791888 0.028070306897177905 -0.05771241988907951 0.38629055510965843
3016562000.0 -0.05481827321288277 0.3899289064909348 -0.06725334946401859 0.029178381032651402 -0.0675710635501987 0.029938134970408713 -0.0541963429822084 0.38172789778645605
3017625000.0 -0.05250909455229915 0.39072719737040557 -0.06643990383843255 0.030901968269015017 -0.06658132863890212 0.03185855214176185 -0.04962275916845397 0.378651847821235
3018688000.0 -0.04975099038432862 0.39124784937751733 -0.06554241953171686 0.032738366596215165 -0.06540843456752922 0.03356834674611033 -0.0438184208254412 0.3756744001875837
3019750000.0 -0.04780217691873866 0.3921191158160312 -0.06458582722512098 0.034522717945167175 -0.06433314561502233 0.03525660663883947 -0.03826985460784859 0.3746844705529034
3020812000.0 -0.04520535011443461 0.3923193706067798 -0.06351495699160281 0.03623674589827514 -0.0631439067521988 0.03676258800903671 -0.033304851527685836 0.3746352299425929
3021875000.0 -0.043520842626380195 0.3930684494241836 -0.06246216181184331 0.038127877179702285 -0.06211466766033366 0.03841909305436905 -0.027499203489761915 0.3763432031898182
3022938000.0 -0.041293994111838636 0.3934549008672682 -0.06130521532188015 0.03998399073875598 -0.06087863010935009 0.040026233878941705 -0.0229738600210917 0.37714685229957584
3024000000.0 -0.03920323431284577 0.3938735541318928 -0.06007406147278044 0.04182146169566222 -0.059806190775282216 0.04158585900780014 -0.019487286173738728 0.3803123395669842
3025062000.0 -0.03731489841279282 0.3938895929510919 -0.05880469657709366 0.04349711175853959 -0.05870776172095426 0.04327108357790091 -0.017058306777116748 0.3834025811670057
3026125000.0 -0.03533363370789909 0.39404541278485133 -0.05747726454124827 0.04530783686616569 -0.05756533766868248 0.044906443813391365 -0.014883485175878963 0.38634301378568103
3027188000.0 -0.03348253626277705 0.3945189003381272 -0.05615181200118808 0.04703067638272207 -0.056468836546120275 0.04653555621902416 -0.014484148528217416 0.389081914206081
3028250000.0 -0.031351924026976855 0.3943955127887559 -0.05477263336186798 0.048557335115162456 -0.05529788049632255 0.04831903214538161 -0.015206331809982264 0.39119910896755977
3029312000.0 -0.029767695812581915 0.3950577818222246 -0.053397937337803736 0.050054243429277216 -0.05392821309409494 0.050196441415463124 -0.015091340834361554 0.39246817419305885
3030375000.0 -0.02781365128985143 0.3950032591014602 -0.051835247770743866 0.05145181980743418 -0.05237943637325474 0.05164814222545274 -0.0164161831581277 0.39255673596065743
3031438000.0 -0.025906772094592242 0.3953997975924017 -0.05022944221093001 0.052848934099769936 -0.05072743561935115 0.05329206443653338 -0.015264656513310743 0.39182351276545796
3032500000.0 -0.024257549195434536 0.39561405589474224 -0.048693722922864266 0.054162242729089385 -0.04911204554458744 0.05476926043372218 -0.015280356165211555 0.3903173824078195
3033562000.0 -0.022538580276094792 0.3956318200671719 -0.04698715935112582 0.05540144412543855 -0.047332332807319445 0.05622201730478086 -0.014392842607229292 0.3885744371961967
3034625000.0 -0.0209534359020609 0.3957185439174629 -0.04540341929968993 0.05654646834751117 -0.0455903274814276 0.05729207297061401 -0.013078301946591923 0.38588672859470585
3035688000.0 -0.019155021159238318 0.3962192186138496 -0.04376773607922272 0.05783825442179077 -0.04364827082031144 0.05842890771488646 -0.01026565408811876 0.3834114938581702
3036750000.0 -0.017364720973557422 0.3963173569968845 -0.042007424142536796 0.058851477237959755 -0.04195107090644288 0.05945092054162293 -0.006820440390902377 0.3814272864581706
3037812000.0 -0.015949568597390617 0.3959701870667047 -0.04037271101070487 0.0598876742729988 -0.039931705224799566 0.06033524634484712 -0.002709810474654963 0.37864939227634964
3038875000.0 -0.014025288821596475 0.3960918674433336 -0.038681702801236506 0.06093029187179908 -0.03837959861225484 0.06121360847504537 0.001540288193078856 0.37717073595220696
3039938000.0 -0.012536513773127119 0.39620646213575234 -0.03688456888139553 0.06184054249875636 -0.036632220029404146 0.061959968148023785 0.006372498047766358 0.3760390972555303
3041000000.0 -0.010824096561242565 0.3962343029745178 -0.035197964033743305 0.06272081504866571 -0.03484120131015659 0.06269168012215932 0.011255906231626053 0.3754610643093112
3042062000.0 -0.008959074548196288 0.3965027712287638 -0.03333362450783315 0.06355729440043485 -0.033133122930497944 0.06360131912514785 0.01584201893145708 0.3764197636687387
3043125000.0 -0.007207248559791422 0.3971033939322791 -0.03144408332391083 0.06435959628835616 -0.031380765986686855 0.0643431881930766 0.020377558690990318 0.37643866383926566
3044188000.0 -0.005278724231816175 0.39687102120584866 -0.02955043325030471 0.06507674330119534 -0.02957890861857127 0.0651497817858283 0.024470975598433264 0.3776545682559158
3045250000.0 -0.0038364181465986025 0.3973668346388325 -0.027602646704117894 0.06576953154242184 -0.02779957156019517 0.06597237508408431 0.02824242671299088 0.3802349419105112
3046312000.0 -0.00211000767237462 0.39748153922590423 -0.02566203611124987 0.06643135876012857 -0.025832769280035302 0.06675353109371326 0.031209989773823207 0.3823261820613005
3047375000.0 -0.0006054938498984586 0.39809932145486554 -0.02369135501084468 0.06709975805747413 -0.023749398870577886 0.06747223142260544 0.03399341873480325 0.3833062316542875
3048438000.0 0.000927729937605609 0.398464238130331 -0.021682653812426303 0.0677476728139153 -0.021661863015432593 0.06806418406338545 0.03662083974093003 0.38459396927777284
3049500000.0 0.002545136492962006 0.398578248451944 -0.019682895517050634 0.06826894529869315 -0.019596205275529216 0.06853038153711632 0.03870678346813776 0.3866529952497527
3050562000.0 0.004130237640177553 0.3991019362345415 -0.01750427159792521 0.06880172518886038 -0.017495227001360632 0.06895902266605321 0.03969130265818263 0.3887274323677063
3051625000.0 0.005256049588009493 0.39916325089668725 -0.015609793830134262 0.06908047661103649 -0.015440113703488828 0.06928456102629744 0.04053355657895692 0.3900629685908953
3052688000.0 0.006869525855738067 0.3993243372136054 -0.01353747087428215 0.06937105728450353 -0.013325702197498138 0.06943706034297797 0.04195801002700159 0.3902874300733358
3053750000.0 0.008128365484590814 0.399943816535673 -0.011466143401222668 0.06954784067464106 -0.011416660755916139 0.06958268842254339 0.04318092591843103 0.3917258881785139
3054812000.0 0.009942183598134601 0.3997175865874989 -0.00939015559843104 0.06961999064403707 -0.00938248498252593 0.06967678164454186 0.04389655212778534 0.39224842563209994
3055875000.0 0.011113948025212676 0.3997416283679821 -0.007409518073404676 0.06963649674112181 -0.007523356630485848 0.06970450904007543 0.04527064817338235 0.3934292073244678
3056938000.0 0.013375255771242937 0.3995667265251094 -0.0052878844568208004 0.0696635121892698 -0.005475861282234095 0.0699100783940291 0.04592789349846403 0.3934516063169342
3058000000.0 0.014628791841282796 0.3998924670369266 -0.0033383554292583527 0.06959394574535532 -0.003598841945513598 0.06991403592328856 0.04609380395928172 0.3950488073092536
3059062000.0 0.01643441777897408 0.39957916026344237 -0.001481423972610732 0.06949636502159225 -0.0015558085577994925 0.06985012318178734 0.04642870225660553 0.3952166366250979
3060125000.0 0.018054408428543955 0.39974088219484155 0.0004704037399533728 0.0693063034699718 0.0003165384877892474 0.06989587165213611 0.04644528949525661 0.3957934687591073
3061188000.0 0.019880716137066684 0.39970282904754745 0.0023390745031091798 0.0692021494054313 0.0023941496864340597 0.069815074884823 0.04702165469462292 0.3951876911825366
3062250000.0 0.02178739637852192 0.3997883416423494 0.004236890598485408 0.06898170335937906 0.004266143615548488 0.06971810776749698 0.04707005902519112 0.3949339853621159
3063312000.0 0.023748250185880834 0.39975466917123575 0.006053638644776941 0.06884483377855811 0.006326089656650133 0.06936648180457182 0.0474673865440115 0.39379890904630344
3064375000.0 0.025807778004376676 0.4002423382586845 0.00795054501065084 0.0685961305083709 0.008337161469145558 0.06919447038822533 0.047955944560325 0.3925994325110508
3065438000.0 0.027996425175209658 0.40004282544504677 0.00984345901841269 0.0683210234870652 0.010382779863259443 0.06866967028191333 0.04919865325951821 0.39170064999188
3066500000.0 0.029884500785913475 0.40051727027714523 0.011708422388722434 0.06804548702511781 0.012201710225159926 0.0682613042548494 0.05043076610543787 0.39090288193009215
3067562000.0 0.03157773967996612 0.40028789767693623 0.013557963725114539 0.06762828649581024 0.014137207263917217 0.06770377796763805 0.05154862893057074 0.3893809859624077
3068625000.0 0.03314062653532025 0.40059420807462914 0.01545325461041146 0.06724588764843624 0.01581159406178906 0.06715510508073727 0.05362581502071584 0.38851878973425746
3069688000.0 0.03576479131052452 0.40035566942945566 0.01734736670571399 0.06671060777303502 0.017729740880199723 0.0665391484998972 0.05551467622605817 0.38756200388897827
3070750000.0 0.03773569163944056 0.40055397319468555 0.019202906668196466 0.06610193861933464 0.01945781819957379 0.06587839824148899 0.058552355658811284 0.3870223745610482
3071812000.0 0.040020499884806174 0.4007475363590334 0.021143528598310417 0.06548444936083518 0.02120502120051511 0.06532715152601448 0.061447507695710585 0.38632587253166717
3072875000.0 0.041877968580321494 0.4012633088079619 0.022972288750179603 0.06474515880404104 0.022800583278715595 0.06470577932812431 0.06440526734779783 0.3862900842377884
3073938000.0 0.04423380506095246 0.4010371691456912 0.02475862373031854 0.06399645946117605 0.024714738681445993 0.0639870410275253 0.06768115217573463 0.38769254706818174
3075000000.0 0.04642051875476506 0.4013512328414435 0.026539950949125576 0.06299223833608769 0.026474111942072557 0.06326861289264385 0.07023184318065728 0.3890244973718596
3076062000.0 0.048304316627938354 0.40139666702083665 0.02822114495379171 0.06207076511486389 0.028211257638594056 0.06256209391885517 0.07269358737695042 0.3908551618750922
3077125000.0 0.05065999688736986 0.4016823310653924 0.029944116106392263 0.06114952877365214 0.029892343603777082 0.06168901288966525 0.0742550625993567 0.3933592499560679
3078188000.0 0.05278271242215279 0.40150926741009807 0.03142352452627548 0.06017717267168346 0.03164184269519915 0.060706077907173035 0.07530608241895537 0.3955164951900527
3079250000.0 0.0550252681790659 0.40193672051036183 0.03296220695790037 0.05914419728261644 0.03332131427468907 0.059691648343538135 0.07510424195304621 0.39702777646860427
3080312000.0 0.057231961935391255 0.4018892784425498 0.03446857829575818 0.05818865738526524 0.0348840585679731 0.05858903249500198 0.07470762431419369 0.39904175999302477
3081375000.0 0.05912875317882576 0.40199275194795336 0.03591225886375581 0.057242231778345955 0.03644281751352088 0.05747889486555842 0.07358115161462606 0.40023951036773836
3082438000.0 0.06078350105880131 0.4015872362051696 0.03724255915007279 0.05614124946424801 0.037870506043597284 0.05624564168246049 0.07241197005549749 0.3994987582163769
3083500000.0 0.06283853602643659 0.4018611837104255 0.03873981385292465 0.05503562297684488 0.03924244612203884 0.05503952572414235 0.07192426275758117 0.39776771490676577
3084562000.0 0.06506177393803127 0.4015366873000701 0.040177602913013685 0.05386231158167317 0.040625188309156096 0.05375942644266132 0.07195085532562098 0.39509480244867173
3085625000.0 0.0670447221828141 0.4013793588560697 0.041572629517493985 0.052646878912198374 0.041900745607472784 0.052610594513377774 0.07237788578601266 0.3923535769053327
3086688000.0 0.06936904762030548 0.40083585671276695 0.04292345324380411 0.05145747400541414 0.04311246671421024 0.051333978850464757 0.07360042169973545 0.38837987758643094
3087750000.0 0.07129785842771336 0.4005760048120378 0.04423865743103839 0.05019308943685291 0.04450652216691909 0.05014528081756253 0.07623739771845267 0.3843695395587939
3088812000.0 0.07347962465514205 0.4000085109591526 0.045533639832016776 0.048899816119404756 0.04560098126743572 0.048802532846009404 0.07978669553608476 0.38026640210088325
3089875000.0 0.07610514183086398 0.3994000824596734 0.046705791378887807 0.04752775389350018 0.04680052839651102 0.04746974127469906 0.08406592147879147 0.3770794338309521
3090938000.0 0.07840153488512336 0.39903991071403183 0.04787807179254004 0.04595606290987331 0.04795736601959975 0.04602380592437419 0.08973731344111503 0.373460870684174
3092000000.0 0.08076891529771475 0.39866640220776195 0.04886403806394729 0.04445335162608359 0.04907534290368286 0.044541370470943975 0.09631482216894738 0.3712225496076364
3093062000.0 0.08360139333623585 0.3986052095634626 0.04997565054387226 0.042971611506453976 0.05024255645636692 0.043073456281687676 0.10308760189457972 0.3709261579384224
3094125000.0 0.08635467531549562 0.39814501300019406 0.05096333639187249 0.04136682820314807 0.051210106917014664 0.04138479417813184 0.11023063180671071 0.3703000035301753
3095188000.0 0.088971929998317 0.39830048053409856 0.05190285935185317 0.039759659853947256 0.05235462275209808 0.039772175104030305 0.11655231141813022 0.3720275991822145
3096250000.0 0.091719297018791 0.39794288552767715 0.05280429604023302 0.038222240842060176 0.053171855154276665 0.038213865650418156 0.12214178022736737 0.37525868233458964
3097312000.0 0.09419328665478835 0.39824374341609375 0.05373866285145158 0.036693171695223153 0.05407767073871317 0.03662252363753823 0.12747001275322695 0.3790850667022879
3098375000.0 0.09689848696483934 0.3985836581647506 0.05458132699982229 0.03508465566632568 0.05486567609325618 0.03508590130806403 0.1316891290556963 0.38313177514999236
3099438000.0 0.09975973223744194 0.3986548959386512 0.055382384173057325 0.03362642314991267 0.055573620688329134 0.03348217451561089 0.13401590423992962 0.38836414079648207
3100500000.0 0.10155260349782856 0.3987648259730147 0.056080545022359124 0.03210686593458738 0.056386150230051404 0.032108686674920214 0.13497621673063434 0.3932103331504093
3101562000.0 0.10464615242390227 0.39885683971961283 0.05693465493290252 0.030577535891529038 0.057022543677824805 0.030513228471894457 0.13439040281262274 0.39716321379594804
3102625000.0 0.10719418336720213 0.39888869601938653 0.057740389908060775 0.029010258208449626 0.0578057243022811 0.029031204337710177 0.1333482699817799 0.4006781840192737
3103688000.0 0.10953005059934227 0.39877868203637556 0.05844006779084739 0.02753555673470614 0.05839510991726008 0.027488707097691776 0.13089232082481456 0.40231871205106134
3104750000.0 0.11274123799461677 0.39911848244093423 0.05908012423647706 0.025884024710463898 0.059196464690633215 0.025941365372269615 0.12918732377753875 0.4016388017818038
3105812000.0 0.11466989155200505 0.39915763496455514 0.05968871632078568 0.02438661828314885 0.05982469297806343 0.024428291420934018 0.12723805132899085 0.4009813887893635
3106875000.0 0.11724144072291429 0.3994737233729199 0.06035355365781167 0.022750088326939456 0.060616743002175205 0.022832237278703715 0.12634454810411005 0.3985167422678775
3107938000.0 0.12003355674208642 0.3994966562265022 0.060812870867723426 0.02108258661266565 0.06116464903427082 0.02108352603626953 0.1260695153392541 0.39436022303339935
3109000000.0 0.1224559141166145 0.3993589230276546 0.06132010579636857 0.019449193410203795 0.06172122948321486 0.019428218215223936 0.12779677522657396 0.3902675058167431
3110062000.0 0.12499359307944159 0.3995197779845581 0.06171398386526599 0.017753361513680652 0.062109834520194945 0.017786356068001555 0.13011304724903594 0.38593471218704584
3111125000.0 0.12738206901409696 0.3993314583844612 0.062117741157517226 0.016109430036480462 0.06238939596919776 0.0159460261219901 0.13443928240103128 0.3826489404492131
3112188000.0 0.13043945949693805 0.39979888908365313 0.06242874026888957 0.014474218784018769 0.0625873178492713 0.014350575892758465 0.13927315530541012 0.3786419443960697
3113250000.0 0.13205306096406574 0.4000230598265727 0.06258962985365243 0.012768043365777504 0.0627475613928543 0.012696203614296537 0.1453549137240094 0.37682421022466106
3114312000.0 0.13500628850694418 0.3998866145334858 0.06262022336721051 0.011100713982938397 0.06264496161022784 0.011002688556968572 0.1511787610186014 0.3754940789843749
3115375000.0 0.13724641402689686 0.39976249076171977 0.06263244577423434 0.009411499617166533 0.06269188164896061 0.00944898161511362 0.15795490498949746 0.3757434056997215
3116438000.0 0.13940473055603245 0.3995508353076298 0.06264801378633757 0.007827476018754699 0.06268157530278319 0.007862014404421571 0.16401769013606832 0.37744691360408744
3117500000.0 0.14210273562918932 0.3990194722020365 0.06258074600393389 0.006061385900187824 0.06270532411785316 0.0061776098046492835 0.16970652964910588 0.3797622850911622
3118562000.0 0.14476481959126175 0.3984367381132118 0.06246443925067501 0.00439183958697212 0.06273254055640141 0.00465102711171743 0.1735498132719991 0.3835358626692001
3119625000.0 0.14741512155533049 0.3980156463672945 0.06236820016830598 0.0028317340764799424 0.06271699108080897 0.002964325199678253 0.17679561149976583 0.3882977363941911
3120688000.0 0.14971688359881263 0.39726501025081506 0.06230666560775004 0.001217938951222196 0.06277549336806446 0.0013394619939164135 0.1783926159259606 0.3913713296184574
3121750000.0 0.15246790151147804 0.3969432883931862 0.06218168801564258 -0.00037864325829134644 0.06282780936284815 -0.00034278786156869827 0.17843909354584775 0.39543275037814635
3122812000.0 0.15548612094798242 0.39630691452161676 0.06205718164489537 -0.001941547435585829 0.06276533284814548 -0.002082841406096396 0.17674545669197056 0.39763501118065675
3123875000.0 0.15851776588308028 0.3955272301019755 0.06197020152910652 -0.003524702308420958 0.06258984557593532 -0.0038224713174674655 0.1747608645337702 0.39880307744739973
3124938000.0 0.16127692172325864 0.3949510155031109 0.06187737928967186 -0.005077016796201163 0.0624420465324244 -0.005558382551628108 0.17296929514181336 0.3981310450534958
3126000000.0 0.16447092867685376 0.39450962728876626 0.061696911163442975 -0.00668791112174639 0.06213976927909391 -0.007309574347818782 0.1706084080242106 0.39566530564912855
3127062000.0 0.16699789506693186 0.3941729036709684 0.061600505876641926 -0.00830761806433181 0.061793972614227935 -0.008928410765356238 0.16915769015905607 0.39232655128115973
3128125000.0 0.17044046202128196 0.39345553932839256 0.06136255622428426 -0.010008908618089885 0.06141395093042866 -0.010705588003681507 0.16852772285101736 0.38768390830837757
3129188000.0 0.17271353541881374 0.3933556636788441 0.0612128495084363 -0.01165781091479926 0.061008832769149667 -0.012073403636155812 0.16909057073742334 0.382493777776275
3130250000.0 0.17572880836344715 0.3928927410278275 0.060902585283983 -0.013283442029796198 0.06061045738177011 -0.013707130358616489 0.17141799090806545 0.37592701882127455
3131312000.0 0.17857218213811524 0.3926092093657842 0.0605503298451978 -0.014936386345035845 0.06026730131075448 -0.01507396477369611 0.17432899596568552 0.37079789228217197
3132375000.0 0.18078730455049505 0.39211653902714005 0.06012447294636238 -0.016434656120987552 0.05982168982072184 -0.01642683568887396 0.1789077970128556 0.36493594302849014
3133438000.0 0.18394851151076597 0.3910195027102904 0.05960870467895562 -0.018048407780838563 0.05939575646221449 -0.017781615681379707 0.18484351926153905 0.36078096160042816
3134500000.0 0.1858144720389181 0.3904401288061395 0.058953644602814326 -0.019539097062538827 0.0589087968595733 -0.019157146914651018 0.19187143247185542 0.35651860625293347
3135562000.0 0.18852483594590017 0.38946746534770393 0.05822045468173623 -0.021087973044994712 0.05845490699391002 -0.02067351060904767 0.1996929038041329 0.3538746850074467
3136625000.0 0.19103427769894435 0.38845702449206093 0.05746870597506977 -0.022527778916306408 0.05799433375853794 -0.022177606957519906 0.20731036510565623 0.3531419966934043
3137688000.0 0.1932495605400612 0.38709044482471416 0.05670676470240343 -0.023898175406252727 0.05734205097032387 -0.0237463371672911 0.214624824700917 0.3547757043714607
3138750000.0 0.196015289503053 0.38604378190847033 0.05598542331757147 -0.025319332792946302 0.05674953246233326 -0.02523797637253702 0.22146609264020609 0.35694270813351825
3139812000.0 0.19853335715001985 0.38512402371975213 0.05519396720308645 -0.02663354907685581 0.05604499686468607 -0.026858566759451218 0.22711867284256265 0.36037270086289264
3140875000.0 0.20088186883565184 0.38390868449704274 0.054529292718694986 -0.02792791325751153 0.05536226571783823 -0.02838315025657808 0.23141822379311358 0.3647793053564196
3141938000.0 0.2035042442891452 0.38285127531355384 0.053769522676497934 -0.029200776583702324 0.05439103930172755 -0.02989546909024688 0.23415798873248414 0.3682468349981155
3143000000.0 0.20579991066078002 0.3815338792389149 0.05305996044754756 -0.03053330671970382 0.053381006372616314 -0.03135236668262037 0.2356384599949167 0.3715884252047504
3144062000.0 0.2080646662598366 0.380809309664781 0.0523562298315018 -0.03164634491158306 0.052550978368025414 -0.03258137897332032 0.2346325054564501 0.37394344256026374
3145125000.0 0.21045367088852618 0.37949941930226105 0.05159668543040641 -0.03295633132491724 0.05160482606498047 -0.033931618929409914 0.23395718300613982 0.3747410353309023
3146188000.0 0.2129213120604964 0.37822880085490235 0.05089089201640556 -0.03424419022945872 0.05054821403739423 -0.03504920764273155 0.2325457930664647 0.37415876922807695
3147250000.0 0.21489879614851462 0.3767908669072441 0.05004589624215004 -0.035618604739212856 0.04962036375250632 -0.036239498303478085 0.23173187073183674 0.371764511884386
3148312000.0 0.21710975678280278 0.37561497270052935 0.0492150435251732 -0.03699698361119828 0.04867526555709427 -0.037408723812818234 0.2308577045104493 0.36870824393300383
3149375000.0 0.2187053373747789 0.37404960287808925 0.048292938366381814 -0.03826561475454758 0.04797536151018986 -0.03847883973952919 0.23092615442419442 0.36479917711487064
3150438000.0 0.22076424692417945 0.3719486794573927 0.04731627540879583 -0.039596898568339714 0.046911591555921235 -0.039644132134309104 0.23170731445029813 0.3595004200206642
3151500000.0 0.2232644787821094 0.3702052344647929 0.0462977835579943 -0.04096601355620382 0.045925328450262135 -0.040691963665376724 0.23371332319643512 0.35441651598440393
3152562000.0 0.2252587494347814 0.3682265534593809 0.04513424064653767 -0.042137483099640397 0.04496848778555844 -0.04189655875619342 0.23606471830381312 0.3496236652611806
3153625000.0 0.22765385593626114 0.3664443390886495 0.0438847071362845 -0.04333700967372284 0.04400568954993774 -0.04302313190956175 0.23962288754582925 0.3442895093460064
3154688000.0 0.23035698145620864 0.36484696008527284 0.042699768703695885 -0.04442935041348873 0.04293628315260726 -0.04418434687047817 0.244119319389967 0.339772376230994
3155750000.0 0.23209249723812528 0.3630664113530923 0.04138079926595376 -0.0454817328369302 0.041743118184120874 -0.04533014865133166 0.24911611816763038 0.33618474230942524
3156812000.0 0.2347239906381681 0.3614275919656307 0.040083513304685486 -0.046504053587319925 0.04049487489346559 -0.046544285012188026 0.25492205395197465 0.3335449300689691
3157875000.0 0.2366802365128231 0.35966408204467915 0.038707934894393205 -0.04737924434352835 0.03913844061013543 -0.04759682576142639 0.26049508962571477 0.3316755808140773
3158938000.0 0.23892288012380467 0.35809270839600704 0.03741349169496596 -0.048253771119481245 0.03778335834767237 -0.04858315497395939 0.2657433351628404 0.332043829492424
3160000000.0 0.2413983873075971 0.3564290728749194 0.036111504017497596 -0.04907260850743599 0.03638070606831506 -0.04953536202256535 0.27041884493986945 0.3318773481134156
3161062000.0 0.24317614404642504 0.3549767981064255 0.0348071527475484 -0.049851749103026394 0.03502122240389451 -0.05038647763725852 0.274498693832741 0.33344127904374093
3162125000.0 0.24544752420223506 0.35340051867319766 0.03352740221273838 -0.05065479062832991 0.03361274114286881 -0.0511590951643107 0.27763006554379543 0.33463288762850607
3163188000.0 0.24713768978536543 0.35161346353533746 0.03228083372674836 -0.05146526791484064 0.03230731590721892 -0.051876492592931964 0.2790589008641449 0.33704929504970166
3164250000.0 0.24861863949740026 0.34972863659935177 0.03102433739233944 -0.05227895585589079 0.03102640897675863 -0.052599833357469095 0.2798047840232378 0.33859868018341205
3165312000.0 0.25032460857713074 0.347993310733495 0.029813112553615066 -0.05296985393300021 0.029699884431220906 -0.05334414120444742 0.2790071071280099 0.3391928226718245
3166375000.0 0.2520680255419992 0.34587284705177057 0.02855055300291053 -0.05382057550429895 0.028302683127834224 -0.05413013989599258 0.2784373864936446 0.3392803744883686
3167438000.0 0.25384464238592575 0.3433976529924818 0.027150944012863734 -0.054588362183227636 0.02696620724532032 -0.05495213241524521 0.27729890688282155 0.33726174066829373
3168500000.0 0.25578312812523973 0.3411486925553655 0.025850348605325812 -0.05540002003807939 0.025669646146688253 -0.05570826624473654 0.27580260533459455 0.3361093239231894
3169562000.0 0.25738384011567506 0.33906421061368236 0.024441341395595284 -0.056184513679031226 0.024210953143971457 -0.05640138477613971 0.2754200664979855 0.3331670973107697
3170625000.0 0.25918242301548616 0.3368402524753646 0.022985323233400308 -0.05697500829636309 0.02278083325228424 -0.05720730650356652 0.2750411303171936 0.32882949620256585
3171688000.0 0.2613029976545695 0.33471693177959816 0.0215706369664225 -0.057673530682085576 0.021363016160979492 -0.05790249225819318 0.27582639957881366 0.3252931776041001
3172750000.0 0.26322766922197016 0.3326965181449193 0.0200114676874236 -0.05837732966277983 0.019836973362721923 -0.05848764841344275 0.27613607042303806 0.3217181326152924
3173812000.0 0.26527622858485955 0.33056345883897675 0.018512312081979596 -0.05901705154119194 0.0183747072059106 -0.059067764619738235 0.27752027946044683 0.3177519924537782
3174875000.0 0.26705365523642505 0.3282027837345986 0.016853708420006594 -0.05950260169325908 0.01676500255019768 -0.05956120456769082 0.2790828200832216 0.3133071386641637
3175938000.0 0.26909101423239923 0.3263576892506386 0.01524722553988653 -0.06002810336271234 0.015177139105568352 -0.06008296212798735 0.28107436758482873 0.30980890172641923
3177000000.0 0.2711364067326199 0.3241787395162159 0.013607223714765769 -0.0604269578644676 0.013700701660789238 -0.06046553909494552 0.2834453702833661 0.30587988581907094
3178062000.0 0.27274017510857057 0.32227126539894974 0.012056274904315847 -0.06083149519468349 0.012146666725699053 -0.060829905057481266 0.28625600562361136 0.3026107736364142
3179125000.0 0.2750259984791296 0.32004380549192996 0.010428079321652371 -0.06111994747763699 0.010459503419519418 -0.06119972275083543 0.2885632014445966 0.2991685020132498
3180188000.0 0.27629014072412544 0.3177479536752029 0.008809507665719156 -0.06135416680278881 0.009086743102285525 -0.06141006373852481 0.29212573236578027 0.2966989574068462
3181250000.0 0.277777231658244 0.31541714991366404 0.007254046319359619 -0.06147613848476266 0.007465621998743627 -0.06169489776471095 0.2945503782337995 0.29381456108650866
3182312000.0 0.27970623614888107 0.3132352120276874 0.0056253133584769025 -0.061662334313088 0.005796143375736526 -0.062030030439146504 0.2976381405796429 0.29206184922231454
3183375000.0 0.2812217070065961 0.3113609969385709 0.004108250387586146 -0.061850131095304385 0.004234981021587714 -0.06215205565410856 0.3005385046696731 0.2895998488752315
3184438000.0 0.2832996142029792 0.30952991675399 0.002607396191571721 -0.061958405527981 0.0025998035212756324 -0.06239931617514389 0.30189854692050766 0.2885261027858682
3185500000.0 0.2848558987707141 0.3073471880654744 0.0008933522483342281 -0.06192338053026401 0.0008839780743847571 -0.06252454434739696 0.30413033643568393 0.28615550215887453
3186562000.0 0.28688916619382376 0.30511557861498917 -0.0006633838394528204 -0.06203336025738832 -0.00081094582658271 -0.06252400119827731 0.3054135036666313 0.284015823311006
3187625000.0 0.2888424296268523 0.3031971033814118 -0.0023084469100139774 -0.06204642596017044 -0.002410506091895802 -0.06250135288681873 0.30688616977147115 0.28192438683607585
3188688000.0 0.29021579340044035 0.30134242678090506 -0.0039094289306214934 -0.06215545167267129 -0.004254428891261992 -0.0625340894956733 0.30880357206919873 0.27877806345893424
3189750000.0 0.292268050056647 0.2997721744850419 -0.0055188067472342625 -0.06221962099299678 -0.005976810489344827 -0.06243917260691695 0.3111083805146918 0.2769003658927969
3190812000.0 0.29351442497361363 0.2978460604117364 -0.007174924352516202 -0.06217479630507661 -0.007540984244899373 -0.062383060736100594 0.3131535433622533 0.2751047759330319
3191875000.0 0.2946375716874 0.29629394386984403 -0.008838224672092772 -0.06214154413798923 -0.00922222661404723 -0.06217277374392309 0.3153395775875209 0.2728428944745218
3192938000.0 0.29611561487797905 0.2943309309051378 -0.010539042756916842 -0.06198845408492111 -0.010895342721391057 -0.06198692989140731 0.31709829387295213 0.2705431942608141
3194000000.0 0.2973707595614079 0.2927135177400751 -0.012246228532386555 -0.06184751409234835 -0.012415279229013117 -0.061752050847781355 0.3189248902942661 0.2688804735124504
3195062000.0 0.29860668720852657 0.29087894470424003 -0.013962181501455506 -0.06151251448457948 -0.014014271968342608 -0.06148843861498293 0.32053830751469425 0.26692517282721023
3196125000.0 0.3000486508570854 0.2892250106371393 -0.015634322771200068 -0.061186051982137224 -0.015811848568709184 -0.06118452767758896 0.3217280583032455 0.26513948853405267
3197188000.0 0.3010701747902126 0.2876937736755148 -0.017389629135877216 -0.060745061862758104 -0.017362217766075213 -0.06075911419135222 0.32212100126413246 0.26243509575698676
3198250000.0 0.30233372831906646 0.28534443257681225 -0.01909485835182611 -0.06015433216567173 -0.01912747044536753 -0.06034998104400183 0.32374068550866597 0.2597782504555423
3199312000.0 0.3038734553935308 0.283229865853185 -0.02087111648451564 -0.05966900343990135 -0.02079020053732306 -0.0599311112013929 0.3250004664010943 0.2571090051085366
3200375000.0 0.30516050561739155 0.28123797997261146 -0.02247500133125666 -0.05910817646387795 -0.022569780030333213 -0.05956345268804003 0.32646358942333104 0.2537982107302509
3201438000.0 0.30692677076988106 0.279214504020253 -0.024119754487210935 -0.058546698454506545 -0.024228581585025315 -0.058872458780298134 0.32811160446613585 0.2509390353421119
3202500000.0 0.30793781822434 0.2773104684904793 -0.025623596371915996 -0.05789759410858776 -0.0259444785199796 -0.05831193985475981 0.32976493677652996 0.24832556116283433
3203562000.0 0.3098140217760075 0.2751155952266706 -0.02719452686952702 -0.05724118727494597 -0.02748670287782437 -0.05749275043244886 0.33250076058998523 0.2450233366772907
3204625000.0 0.3114301842654436 0.273546549094718 -0.028577675192149776 -0.05651432849254154 -0.028968448912830506 -0.05674002940133309 0.33392242011165474 0.24272055954419489
3205688000.0 0.3127990208904934 0.27161735721843133 -0.030009878480762173 -0.055798112547670566 -0.030439491605782167 -0.055936572124598925 0.33624453205342814 0.2398390358321877
3206750000.0 0.3145031471645008 0.270145638559038 -0.03151493075017576 -0.05505865966149676 -0.03191392464208965 -0.05507590167098259 0.3392585916672829 0.23725310214367037
3207812000.0 0.31613150032115644 0.2679792905639404 -0.03294901151271941 -0.0542331378402043 -0.033315744073956606 -0.054280331277356035 0.34219209802216666 0.23550783004560624
3208875000.0 0.317213832549283 0.2663694623187173 -0.03442715474817946 -0.053449301282094325 -0.03468832139417544 -0.0534016105097491 0.34520192894112156 0.23351002323788492
3209938000.0 0.31887106300248436 0.26502314209776273 -0.03594052710464454 -0.05263148071785802 -0.03618351648850457 -0.05257734623661594 0.3489710765984768 0.23294260619902707
3211000000.0 0.3204355894148226 0.2630891765284089 -0.037470789504911776 -0.051702761147715506 -0.037554949489568064 -0.051699165029886536 0.35238613200118973 0.23307894770256307
3212062000.0 0.32187775756926734 0.2622552556295848 -0.03896228012760694 -0.05085926998018298 -0.03898757938243498 -0.050808094376669985 0.3552021198499394 0.23380021780703072
3213125000.0 0.3230487152793759 0.2604818665179529 -0.040426253777192014 -0.049837274688918916 -0.040458122276769315 -0.04975526679950948 0.3572359059100903 0.2352892055633222
3214188000.0 0.32425278735241536 0.2587416816287324 -0.04184774166751594 -0.04879513267889189 -0.04181152345308953 -0.04890212703732898 0.3582616348441966 0.23665952886095767
3215250000.0 0.32546939289566706 0.25725084029202816 -0.04330355041090702 -0.04765748578614255 -0.04324856867227242 -0.04788396419242537 0.3586338367338312 0.23923168318654564
3216312000.0 0.3269159360786637 0.2558518858237552 -0.04454008922774702 -0.046510164244258585 -0.044736425790223175 -0.04682036047277377 0.3568558648209175 0.24091316628142403
3217375000.0 0.32840188700402134 0.2543556628538666 -0.045973611005867485 -0.04521302374062414 -0.046109801175887775 -0.04547111240475585 0.3556943356483258 0.24035717342102242
3218438000.0 0.3295028393059235 0.2526408236502957 -0.047220703676147814 -0.04393099725065712 -0.04745721641522432 -0.0442433572463251 0.35341791417825325 0.24047449373269714
3219500000.0 0.3311871555369712 0.2515193592806923 -0.048523243262324545 -0.042706676378833935 -0.04878753989514207 -0.04293633826541374 0.3499710160972584 0.23946655826248406
3220562000.0 0.3326519737172798 0.24997135399917042 -0.049697370397925 -0.04138422627016336 -0.05010640620729558 -0.04156298314589246 0.34703047759359407 0.2375561987640817
3221625000.0 0.33341548686311834 0.24884531011335204 -0.05083965332428073 -0.04007593123411612 -0.05122894434826739 -0.040125346917295246 0.34459632432581416 0.23413774208690658
3222688000.0 0.3345353368472499 0.24781684316125863 -0.05201681446500719 -0.03883472011536649 -0.05227817536226409 -0.038799440981225605 0.342506994535155 0.23081726552241721
3223750000.0 0.3354925331198886 0.24674895863436383 -0.053057120740924266 -0.037501659040087926 -0.05342089450284426 -0.03737908622973119 0.34076539408214446 0.22600725213636727
3224812000.0 0.3368937104771857 0.24497804869396533 -0.05414016486141692 -0.036083425549652846 -0.054357139163895986 -0.03600768907029279 0.3407448321299854 0.22047053378490722
3225875000.0 0.3377246712198372 0.24401039238027317 -0.055137019605731544 -0.03473970168430151 -0.05541319980924884 -0.03475280380556231 0.34132953872566657 0.21484059334866906
3226938000.0 0.3383980918697429 0.24290954782576352 -0.056067288152217405 -0.03338720516472553 -0.05613988712231421 -0.03338801386797918 0.3427287372931238 0.21039491117919173
3228000000.0 0.33860331712879976 0.24115149098009075 -0.05692734735328863 -0.03191174110026589 -0.05712014452239204 -0.031890735946899146 0.34565949135423474 0.20527874937628549
3229062000.0 0.3395929305809355 0.2400700756573773 -0.057712817830131054 -0.030487455617038337 -0.057898502486499526 -0.030476728838813753 0.34809280219234273 0.20275618902681974
3230125000.0 0.3403239007048503 0.23794444766776765 -0.058516094931525396 -0.028864215590800917 -0.05870537013849463 -0.028898310715769825 0.3513946375742457 0.19838653030054892
3231188000.0 0.341261531965728 0.2365792292838419 -0.05935120177636887 -0.027307108560767634 -0.059564651445752466 -0.027342271078885615 0.3555611350244183 0.19617629785119656
3232250000.0 0.3419686815630129 0.23467592988061542 -0.060072966741092707 -0.02566706172438073 -0.060240164756134876 -0.025767891286826695 0.3586912441961352 0.1955158409987087
3233312000.0 0.34280789457678656 0.23277532345001256 -0.06069832002896285 -0.024009300969921148 -0.060841157496015555 -0.024043264807289393 0.36145171578364427 0.1971292789758604
3234375000.0 0.3437225090844751 0.23100608152633526 -0.06142937921664889 -0.022328512682166318 -0.06161482999760214 -0.022370276450576525 0.363395500009633 0.19759966413013674
3235438000.0 0.3450989734461845 0.22934057962117507 -0.06210331310535102 -0.020523378646037392 -0.06225216280568009 -0.020524675050021434 0.36421808321934285 0.19816129776127586
3236500000.0 0.346152984067206 0.22753608678808118 -0.06263661521881946 -0.01862522516471895 -0.06275884478462182 -0.018766335620644545 0.36381550147955566 0.19894427879129276
3237562000.0 0.3473050835111715 0.22590273650053805 -0.06324507448770883 -0.016824537394657436 -0.06329917870419778 -0.016959911828260444 0.36207323751475745 0.19986187230934485
3238625000.0 0.3482839374662652 0.22415980730300877 -0.06373087779461564 -0.015051745664369036 -0.063839833790646 -0.015066100713502725 0.3591996761543816 0.1998693300534823
3239688000.0 0.3493723701982541 0.2223864777651533 -0.06421291718647686 -0.01317537988224818 -0.06435882634568468 -0.01317901050251408 0.35582404496613634 0.19829541224957808
3240750000.0 0.3502184352936835 0.2210468961484435 -0.06465202839620446 -0.01132896243487155 -0.06482931862960165 -0.011395631089908743 0.3522994551827324 0.19560772308038105
3241812000.0 0.3511963242201429 0.21894854575431594 -0.06502280747483942 -0.009360508863582691 -0.06533037276161673 -0.00955841180649612 0.34896518190144243 0.19111667580413763
3242875000.0 0.3527637814350421 0.21819712217702178 -0.0654380066510607 -0.007613718364728204 -0.06572525185722113 -0.007705043526289355 0.34541419761265824 0.18580053134642985
3243938000.0 0.3533888715453761 0.21565470458643257 -0.06577039155105299 -0.005771195703450894 -0.06607293271010005 -0.0058144541655772855 0.3437032903272985 0.18048220410559243
3245000000.0 0.354275543380641 0.2143615040966348 -0.0659847455925977 -0.0039809430160703055 -0.06646169052606958 -0.003988521413118178 0.3419812740451359 0.17158255272459716
3246062000.0 0.3550829656156128 0.21259134710387217 -0.06624905272136873 -0.0021540192993508107 -0.06673172627544358 -0.0022794146500693473 0.3436246022952682 0.16385916706640782
3247125000.0 0.35636771100332526 0.21085047768028323 -0.06648938827556755 -0.00042373863775272194 -0.06687027606865864 -0.0003516389476821511 0.34565599801059327 0.15516793511012764
3248188000.0 0.35751780961907503 0.20870773437977952 -0.06659258233518657 0.00126332152633115 -0.0668982343780734 0.0014361700404057504 0.3505845435451214 0.14872704452712168
3249250000.0 0.3587101111743082 0.2071497826947561 -0.06663943434118201 0.0029105757233876006 -0.0670441142117944 0.003213835984611784 0.3554097459044451 0.14104619017991282
3250312000.0 0.35965923714698134 0.2054534987355372 -0.06666273844846371 0.004640079107007858 -0.06697598304852424 0.005022113863412117 0.3617000076286651 0.1362893954080112
3251375000.0 0.36081409051026 0.20324445829457938 -0.06663274378891061 0.0063328869479794825 -0.06691852458580162 0.006795507327535958 0.36889520454764063 0.1321357346278049
3252438000.0 0.36220459352653367 0.20175898661562044 -0.06664264900016988 0.00805007450406889 -0.06677662531799175 0.008498819741321086 0.37654899562988897 0.12962495154298534
3253500000.0 0.36314955519170594 0.20037947330951447 -0.06659690424406436 0.00977335166840786 -0.0666211479471713 0.010164299258032642 0.3844608426401947 0.12981857728485544
3254562000.0 0.3640187955372802 0.19801688126636402 -0.06627114802565758 0.011643734458652135 -0.06623059307072346 0.011927448471325187 0.389510229352277 0.1298271718149614
3255625000.0 0.3654498916475572 0.1964865111297295 -0.06609308090100412 0.013452231585533493 -0.0660888604906409 0.01370632386274466 0.39501367859966613 0.13154893515299695
3256688000.0 0.36590804660457094 0.19479370873736984 -0.0656648578636428 0.01532178372968065 -0.06577441070791837 0.015267694436974134 0.39807849812109974 0.13462482901514264
3257750000.0 0.3670463220557357 0.19283441542760457 -0.06528610306616107 0.017151621619830748 -0.0653213567974597 0.0171921627224601 0.399469765419613 0.13664226142358032
3258812000.0 0.36812977354203247 0.19027856966628712 -0.06467217477664772 0.019126450893663056 -0.06480484108918337 0.019091079607288255 0.3995814645928208 0.13873518307150384
3259875000.0 0.3688468244273248 0.18861587503037733 -0.06407476487774515 0.02101117739470278 -0.06402798875306898 0.020948430001042375 0.3973068279372879 0.13967488216151258
3260938000.0 0.369362991660549 0.18602696359336318 -0.06330393527829929 0.023024819971656296 -0.06347256529937984 0.022819063172590037 0.3946122885065227 0.13960599335344465
3262000000.0 0.37032721629080273 0.18345120972349574 -0.06254420794433252 0.02483685649223097 -0.06279301036595658 0.02477869366806084 0.3914896145650065 0.1392122605499149
3263062000.0 0.37139838248914997 0.18136288110730056 -0.06174335960785801 0.02669029695734048 -0.061956449963799766 0.026710831742704364 0.3882772999705503 0.13609057251619278
3264125000.0 0.3720007122475977 0.17857436240061517 -0.06073076579728426 0.028405473579763977 -0.061124962111637135 0.02860227589610331 0.38409250347463725 0.13223787894195227
3265188000.0 0.3732121420170615 0.17619145421184468 -0.05993517066174801 0.03024140475779322 -0.060309405207033255 0.030379113804856007 0.3829252813030153 0.12728583807214705
3266250000.0 0.3748006450205799 0.17361627762528706 -0.05902908805401085 0.031833546583967455 -0.059434873696983234 0.032141838338908664 0.38090257215353085 0.1221423458605065
3267312000.0 0.37576310458780027 0.17111123403342565 -0.05821149744661935 0.03344569149683822 -0.05852176092005131 0.033656508192853575 0.38092168288450307 0.11564088598406445
3268375000.0 0.37690616028819024 0.16907027135611405 -0.05726856662353238 0.03491855038964414 -0.05753976462910635 0.03532424958315252 0.3825511716933765 0.10988807895148377
3269438000.0 0.3776086541031065 0.16631881959498462 -0.0562909342569996 0.036440278542180876 -0.056553143035362 0.03684376335421559 0.38529124793007485 0.10322902276330212
3270500000.0 0.3787744970679612 0.16387657045496698 -0.055428809030016686 0.03786256509893686 -0.055631740071783904 0.038448322191487264 0.3894270050861915 0.09893759269162714
3271562000.0 0.380222410375168 0.16167040420081555 -0.05450595329157334 0.039399625998200224 -0.05456006517856818 0.03980659461847277 0.39468076426367255 0.09524188080372542
3272625000.0 0.38130166833644713 0.15921804883877172 -0.053572469605454386 0.0408448871727212 -0.053471879167009545 0.041338282626490815 0.4007696080784327 0.09198181043095066
3273688000.0 0.38227615493385814 0.15661282923765923 -0.05262851276375704 0.042352842770626224 -0.052524702515540526 0.04273797385180119 0.4062561944428772 0.0914804130272719
3274750000.0 0.38323318778961785 0.15461505047364899 -0.05169376060246501 0.04381642017579327 -0.05142067760622471 0.044085677625727085 0.4116430732879215 0.09143104562309239
3275812000.0 0.3844154406879316 0.1517990831293595 -0.050566085092736114 0.04532406305420526 -0.05041212579538504 0.04555268842009314 0.4165743990690139 0.09350978832630229
3276875000.0 0.38533403660835425 0.14900117361783052 -0.04940201992623915 0.04679004371676834 -0.04921249417203256 0.04698577458922343 0.41947928899672804 0.09639785183152859
3277938000.0 0.38629509630085035 0.1463508111380877 -0.0480872480090469 0.04816436600955595 -0.04796807569299708 0.04832136732271745 0.42027350652208384 0.09992590406981439
3279000000.0 0.3876083174528751 0.14363009597441292 -0.04671925719353013 0.04962727261707193 -0.04659950746562417 0.04980997701413124 0.42049462513583985 0.10219442388737843
3280062000.0 0.38877239187133905 0.14089956974069365 -0.045162987544208874 0.0510420080647596 -0.04522887697916585 0.05121241150820931 0.4186265995553357 0.10416631338411624
3281125000.0 0.38997749367618595 0.1382357710610807 -0.04368530386229146 0.05240687171010515 -0.04379652874624391 0.052494015096242276 0.4158721667605592 0.10569965640544157
3282188000.0 0.39117429739077875 0.13549161133069118 -0.04218145712126256 0.053724536945448195 -0.04223918730565948 0.053886971729639 0.41291406779216705 0.10542776324980278
3283250000.0 0.39221837032609386 0.13258032731070857 -0.040574264137689 0.054905419441284485 -0.04071797501404934 0.055105742837893754 0.40808250095260623 0.10417327459465305
3284312000.0 0.3936864377040716 0.12979115507994735 -0.038972565405627546 0.05615397693632935 -0.03909645646673112 0.05626808750691094 0.4042688107876332 0.10225107629193607
3285375000.0 0.3949170760586326 0.12757480770654359 -0.03745727426862083 0.05723600892509991 -0.037558533249324066 0.057506685484768394 0.4005909167844602 0.09842327379587523
3286438000.0 0.3959674919645157 0.12491122132905934 -0.03582554551270301 0.05830545890397435 -0.03601311971249105 0.05847059377913771 0.3971610976126532 0.09366038938854833
3287500000.0 0.39667415125710476 0.12233193169798562 -0.03418362849603728 0.05928641251237827 -0.03437185646358869 0.05944689552887835 0.39413507416943644 0.08808336261465598
3288562000.0 0.39798569924509924 0.1192691093533726 -0.03260527960739484 0.06026282929308097 -0.032723080707371205 0.06049766509250922 0.3932326836409333 0.0814932807180379
3289625000.0 0.3986912759782054 0.11667898959185016 -0.030974451604999682 0.061156300992689705 -0.031094806623946737 0.06148179020517871 0.39292260600569034 0.07548072688471198
3290688000.0 0.39957362445437405 0.1140910901553011 -0.02938741693323819 0.06196102543699185 -0.029494987293377663 0.06225474985892374 0.3925963394734959 0.06964158951688659
3291750000.0 0.40088331946027106 0.11138697840118678 -0.02776066371446306 0.06284619008589708 -0.02783948005357133 0.0631463570348353 0.3944056083804635 0.0630637543801147
3292812000.0 0.4011369451965252 0.10833715401083925 -0.02608497412223101 0.06361844775793714 -0.026144448666672676 0.06392173145633516 0.396327668820965 0.05923604132741014
3293875000.0 0.40247001823283 0.10582646418847766 -0.024414339239275974 0.06440320887496746 -0.02445529540705416 0.0647478230552508 0.3986769368353934 0.053967573411598135
3294938000.0 0.4029786820033067 0.10298958970757408 -0.022631999524954646 0.06514311760839545 -0.022585497306027942 0.0654041817731816 0.40165467159905544 0.050288923853676434
3296000000.0 0.4040784495170764 0.10018512862259758 -0.02090893464194102 0.06579760194690691 -0.0208115601766354 0.06619441897055102 0.40315254731057615 0.04866760019919633
3297062000.0 0.4051199712365772 0.09732468331244921 -0.019006159369155638 0.06643467479426823 -0.018919555044279227 0.06669257444507194 0.40460828602275045 0.04535310366998836
3298125000.0 0.4063129380518609 0.09477291005816149 -0.01718795672695867 0.06706881229720715 -0.017144969155950464 0.06722762868988588 0.405790293271451 0.04530702406286507
3299188000.0 0.4073398555677406 0.092094102683529 -0.015223513979848486 0.06749059254164808 -0.015230738773480761 0.06778957002942376 0.4050357873807024 0.043353472141193054
3300250000.0 0.4080473546332283 0.08978376958785429 -0.013255905026014453 0.06806592224011206 -0.013192682158449293 0.06820470746308831 0.4039556941346849 0.041232469116358236
3301312000.0 0.40930485250304144 0.08698992841467211 -0.011252694863606917 0.06847040645941765 -0.011215672908956753 0.06856064050540764 0.4023980017096086 0.03913004560338781
3302375000.0 0.409904681133982 0.08445557289817043 -0.009246131780986603 0.06878779361841013 -0.009267170686474863 0.06896977159524188 0.39981986814803155 0.03633518522766145
3303438000.0 0.4102113330623656 0.08218009006857452 -0.007278733466422653 0.06910598272650086 -0.007249681719935645 0.06934826146950286 0.3986948277388486 0.0329362932780445
3304500000.0 0.41124857310925766 0.07944855122699566 -0.00524676345558894 0.06928423425196738 -0.005175099190174134 0.0695857208377354 0.3962290025235107 0.029401677340975284
3305562000.0 0.4113946924763502 0.07705876720102857 -0.003310920048297387 0.06945071787314121 -0.0032650600670707563 0.06969101991100639 0.3940042891676119 0.02376091332014664
3306625000.0 0.4120754319560114 0.0747058560924925 -0.0013348187403973428 0.069548785522361 -0.0012079681571573661 0.0698430411501575 0.3926844375925606 0.019211190548804834
3307688000.0 0.41232724308111807 0.07215666369231977 0.0006713641712159549 0.06962301953190309 0.0007219949117526898 0.06980655336576048 0.3918461104445071 0.013977470648547347
3308750000.0 0.4130367274847969 0.06922268222645907 0.0026058130917409016 0.06958396814964626 0.0026871192606263256 0.06991199569268003 0.39145130995805927 0.008505442587685043
3309812000.0 0.41347765374173606 0.06687804195454353 0.004434909278046316 0.06953438108767125 0.004557191834807202 0.0698200668808667 0.39160892991890667 0.0026572038470454367
3310875000.0 0.4137801526317983 0.06402399011000538 0.006411517805961123 0.06943256324568181 0.006669979026420313 0.06971855912656574 0.39270311974737043 -0.0027978770072674746
3311938000.0 0.41423672611640733 0.061663642062722665 0.008401428241680631 0.06926480694381884 0.008473283261675858 0.06946138366970207 0.3923817201669087 -0.007566219469007209
3313000000.0 0.4144099483835522 0.058772940008634894 0.010293561980775748 0.06906328109512196 0.010430347784471257 0.06936439722213289 0.39446620947753586 -0.011963623576285139
3314062000.0 0.4147134096051869 0.05608383319382213 0.012200630574598371 0.06885949299040472 0.012275994898164222 0.06903407145724975 0.39562434929026974 -0.016508376007525898
3315125000.0 0.4147876131566563 0.053086216588615724 0.014163615906768866 0.06859179288997269 0.01418309430469234 0.06873547682813516 0.397775489165649 -0.02024687267530288
3316188000.0 0.41489425436054544 0.05084636593488953 0.015949824772496072 0.06831648381810884 0.015993742160194193 0.06854176606754114 0.3998381592685723 -0.023354932553022574
3317250000.0 0.415159088605598 0.04852209242376554 0.017829215086577675 0.06787512235459107 0.01798394629470839 0.06809553000755492 0.4007060431859371 -0.026252174335585587
3318312000.0 0.4154972990788654 0.045564908757919215 0.01969533429372199 0.06744655001537138 0.019853847418994763 0.06772204751321878 0.40227041741008474 -0.02832249731928473
3319375000.0 0.41569372552780937 0.04333364015664778 0.02164456704805456 0.06680418407606295 0.021737763933753387 0.06712400480632723 0.40260489002758587 -0.031595390918242636
3320438000.0 0.41554094536756814 0.04059535360766686 0.023497821415286065 0.0662462582470798 0.02371615951833896 0.06659215812453814 0.4035614048142674 -0.0340135580914036
3321500000.0 0.4155533565542555 0.037997753644440656 0.02534456023340672 0.06554606117973423 0.025518076869285325 0.06582539813635041 0.4049304698224746 -0.03579286682293172
3322562000.0 0.41567773493608606 0.03567388295516182 0.027196303363440134 0.06479102385871963 0.027364150876264585 0.0651423661233896 0.4057632579843616 -0.0384910757199303
3323625000.0 0.4155359707775906 0.03307937362358988 0.028993746313911054 0.0639958362093062 0.029332235884376497 0.06432192840122962 0.4056672093077927 -0.04101517818311386
3324688000.0 0.41544099638260873 0.0304670906793271 0.030713618065877156 0.0632452206146447 0.03116575636482254 0.06345390425859503 0.40603726531827616 -0.04194955165862662
3325750000.0 0.41561009712192487 0.027994228837459022 0.03248098855244716 0.062353398707539975 0.0328840762892133 0.0626263022689602 0.4071793434687342 -0.04387475203534171
3326812000.0 0.41544081232199276 0.025547320998107217 0.03414967355694726 0.06145943412268312 0.03460603760319667 0.061639959959316475 0.4071371115466048 -0.0451325466803712
3327875000.0 0.41524747237299414 0.02290584765257515 0.0358212420204064 0.06054291976432347 0.036247953455039277 0.06064327303285199 0.40720651729021545 -0.0463358308471731
3328938000.0 0.4155158721031082 0.020649881606006514 0.0374724564291432 0.059572641898034275 0.03776717717378232 0.05966667975255254 0.40597946325410833 -0.047259747890757535
3330000000.0 0.4152644204260895 0.01857342835193438 0.039087068146483286 0.05861557464788685 0.039406863527201734 0.058562498517909546 0.4065243630659541 -0.04762659316139705
3331062000.0 0.41516843682114263 0.016045292554438463 0.040530761197559585 0.05752446481063049 0.040758844252626415 0.05753256275093297 0.4052023894056463 -0.046947746945082115
3332125000.0 0.4149340712641609 0.013533529528851245 0.04214311265251391 0.056459247159169765 0.04221369131805959 0.05634873249726301 0.40352346320237603 -0.04767134439346482
3333188000.0 0.41476629069475074 0.011403496174094597 0.04373091138297779 0.05524343892753968 0.043920417176723285 0.055276427699852394 0.40114851547271985 -0.04774452824246604
3334250000.0 0.4146227673208477 0.008921787752423756 0.04527595365132638 0.05408359654600995 0.04546102039484641 0.054194228608156175 0.39828013918119876 -0.04824602610621596
3335312000.0 0.4139016845359038 0.007016283478714214 0.04683508700450524 0.05279635526309633 0.0469766065444506 0.05293666427979311 0.3948735321278387 -0.04855045683251085
3336375000.0 0.4132772186020423 0.004486162951427578 0.048471885800811035 0.051474607565883075 0.04847004180213444 0.05162081352279579 0.3908913920279339 -0.05026165840225253
3337438000.0 0.41239636756830617 0.0018284726356199176 0.049840474250038506 0.05012136178185315 0.049927246800004384 0.05024513341436401 0.3871443467680948 -0.051595410752877435
3338500000.0 0.4120686848171522 -0.00015902087435658535 0.05123239072249533 0.048698425697774876 0.051339152006750405 0.048851774657552825 0.38246703511828434 -0.0550799528280444
3339562000.0 0.41136972280522416 -0.0027613095789275318 0.05259831184321654 0.04722074707305506 0.05282192480751585 0.04731916317731292 0.3783849525829754 -0.05791222589518033
3340625000.0 0.4106143021671452 -0.005305784237060183 0.05390359396537122 0.045697561500325994 0.054210997959408265 0.04577893371942608 0.3748279250733239 -0.062420120371700985
3341688000.0 0.40963399030568637 -0.007575175998337781 0.05512209876290204 0.04412645448103512 0.05539154290155991 0.04423267357986957 0.37201882584421464 -0.06663874165748013
3342750000.0 0.4086019356003362 -0.010674784220873755 0.056283028652747015 0.04250145099266417 0.05676006921548368 0.04260788341276467 0.369696508703815 -0.07167149375716399
3343812000.0 0.4076702886066981 -0.013123522109772592 0.057478779485722574 0.040907135729569964 0.057780597072469374 0.04092783495568087 0.36830012557227376 -0.07626483666623717
3344875000.0 0.4067957015795737 -0.015584082114450825 0.0585172490539838 0.039415495844187146 0.058923481589903556 0.039394175217068964 0.36787106533812974 -0.08111799026078598
3345938000.0 0.4062271558931348 -0.01825799729757511 0.05969889894312839 0.037881978521972795 0.06001969071910254 0.03792108304706868 0.3682383385611006 -0.08552854870073259
3347000000.0 0.4046158257292554 -0.020931997355196165 0.06066105351969314 0.0363165785054158 0.06096697473069882 0.03634863343789493 0.36830998967809514 -0.08866474782548216
3348062000.0 0.4038529178529639 -0.023585160231864105 0.06168813972112394 0.034752513661885365 0.06196293426219656 0.034802969203340375 0.3692479078406539 -0.09123898825358824
3349125000.0 0.4029247305040671 -0.025791742645506422 0.06267500343624222 0.03320107052294419 0.06305258531623353 0.03318747706150132 0.3691259619293704 -0.09316031477990049
3350188000.0 0.4019943531811769 -0.02876252087591583 0.06368048573550286 0.031510384674146234 0.06398370040949913 0.03160876045933475 0.36906805796383685 -0.09413475215671073
3351250000.0 0.4009203845587145 -0.03149058038312966 0.06451085276379218 0.02988670748343976 0.06488395624813448 0.029798750561201754 0.36781822513451456 -0.0939418496115178
3352312000.0 0.40021436926790843 -0.0344405950797463 0.06549686163834614 0.028080022705391748 0.06584147519281296 0.02797044723405583 0.36591452934755914 -0.0941411307266139
3353375000.0 0.39893381706701003 -0.03686426738277186 0.06633427383852723 0.02624832802255375 0.06663951814711068 0.026086396167222112 0.3622498990553909 -0.09469526543078276
3354438000.0 0.3982201621696577 -0.039610037507513435 0.06718767412552343 0.02435443653917543 0.06760083304920819 0.02420705535328162 0.35831876773084803 -0.0947423405893156
3355500000.0 0.3971177316142949 -0.042244957846759586 0.06791770741270407 0.022367787445780916 0.06820367108612307 0.022293276580460906 0.3531000377385751 -0.0964654365146096
3356562000.0 0.39598947731860956 -0.04529788717283015 0.0686809396562832 0.02035592021550929 0.0688162472483813 0.02015552724157561 0.3474450755178325 -0.09898726197578187
3357625000.0 0.3950300413862102 -0.047834676224450416 0.06931963749503292 0.018379139461761312 0.06944765774445993 0.018412798604318992 0.3413546076814828 -0.10180937088204191
3358688000.0 0.394290020749442 -0.050369854285585394 0.07000060059531915 0.016445816180245067 0.07003652744402943 0.016494763648655934 0.33640588334477184 -0.10705437369045036
3359750000.0 0.3933165495274795 -0.052995714685188045 0.07053633473237138 0.01433026292889523 0.07049952480157134 0.014399470028074835 0.33164947987252136 -0.11381659578282623
3360812000.0 0.3924959796151383 -0.055837547012410504 0.07090997019828874 0.012376921505930907 0.07099030905164687 0.012515064163367113 0.32654475645985537 -0.12075098963571847
3361875000.0 0.3914265880288159 -0.058067850002479444 0.07136148689256515 0.010480041288411863 0.07156578376540917 0.010529198364087097 0.3244518078661645 -0.12846057507964137
3362938000.0 0.39015892090240023 -0.06088901912172836 0.07180491621228852 0.00845303513657745 0.07204724122835562 0.008459812758293644 0.3240512867915166 -0.13806962396755018
3364000000.0 0.3895768719410417 -0.06323887606136078 0.07222598622367446 0.006495366736621213 0.07253531748041664 0.006650269114307951 0.32519208363337054 -0.14611243228858858
3365062000.0 0.38816179359204983 -0.06558074616384299 0.07267296386192487 0.0046072423923576335 0.07290477678405743 0.0046880838509187174 0.32860181381228204 -0.15409300846468427
3366125000.0 0.38683454217960084 -0.06781767057280975 0.07292236662303127 0.0026508470015975715 0.07343001777994013 0.002831777989325455 0.3328024797348184 -0.16161974941267085
3367188000.0 0.38596615711129234 -0.07061708175713746 0.07331364080086754 0.000777044092430745 0.07389136682689454 0.0007482246599919009 0.3396696677425178 -0.16665438363108268
3368250000.0 0.3845558705787754 -0.07306135290638816 0.0734789945773346 -0.000989745997786136 0.07411952606305841 -0.0010410880878974106 0.34657188798156424 -0.16978812179786534
3369312000.0 0.3829808822956878 -0.07496127396315755 0.07364210204121324 -0.003048583977087451 0.07412722251001895 -0.003253252842410969 0.3534011122248632 -0.17253080191364753
3370375000.0 0.381796886445931 -0.07758561909092349 0.0736889608701813 -0.004959730857151681 0.07423276598078538 -0.005207534497426981 0.35929612032473524 -0.17149800514691127
3371438000.0 0.3803951622864586 -0.07977173932606775 0.07359150239070408 -0.006860273676328159 0.07405705266701493 -0.00720939773611394 0.3634343634610436 -0.1692802783747634
3372500000.0 0.3791684309772108 -0.08227935650294803 0.07342522772190407 -0.008893063008178813 0.07379372164048265 -0.009184619429340814 0.36669438701329593 -0.16605714799118595
3373562000.0 0.3774682749081581 -0.08457013166459569 0.07313789904988277 -0.010850207535881564 0.07330321844357504 -0.011157001088771042 0.36741703027915495 -0.15855396994450033
3374625000.0 0.37610954627768467 -0.0870792488074804 0.07281155731886915 -0.012911708764329023 0.07293915779773014 -0.013097265326814968 0.3666590633059607 -0.15306632747737797
3375688000.0 0.37485702234320273 -0.08929660103895125 0.07248522201810255 -0.014964950918237085 0.07252339535109231 -0.015157794662321224 0.36399247238326937 -0.14829839412513787
3376750000.0 0.3735391658474343 -0.09172514121553868 0.0719471062363237 -0.016908007522437467 0.0720256476056282 -0.017002638774636886 0.35726887892363457 -0.1426798394883781
3377812000.0 0.37199817718715517 -0.09363378772438818 0.07131634793294098 -0.018976839539847207 0.07136941895363523 -0.019185214286147 0.35069982553599954 -0.1397445076848678
3378875000.0 0.37061954961572463 -0.09648365539112132 0.07078971535185209 -0.021003313088207246 0.07075733222334046 -0.021206075536952845 0.34338360723506184 -0.13896212865989108
3379938000.0 0.3691122975939624 -0.098335839594954 0.07005643407412315 -0.022914303300622923 0.07027769604911234 -0.022891994660099838 0.33556866043852246 -0.13779465282951744
3381000000.0 0.3680302685114751 -0.10081608926487028 0.06926683647252253 -0.025036893021423857 0.06947235222599188 -0.025245453869278928 0.32733398994031765 -0.14117004981452003
3382062000.0 0.3665741625467038 -0.10306402092849558 0.0685989364362883 -0.026983516297303594 0.06882347649419392 -0.027068916236104187 0.3217395716616484 -0.14395888136765952
3383125000.0 0.36526283174100466 -0.10495195802482343 0.06781150723446666 -0.029090870739459623 0.06805757786058343 -0.029162178783088837 0.3166447907712931 -0.1496426540048339
3384188000.0 0.36433131898610904 -0.1076572595386514 0.06693886441020869 -0.031314961167624895 0.06713037558689032 -0.03140537115259089 0.3154685936674954 -0.15516992767814744
3385250000.0 0.3628354503150909 -0.10957830488953112 0.06613800195035874 -0.03335260276498531 0.06641214714726375 -0.033604920672360254 0.31360021203245275 -0.15995596848578772
3386312000.0 0.36202112941603143 -0.11186939991839388 0.06535512775295578 -0.035295709904335004 0.06556550251895231 -0.0357243011126633 0.3150852634519679 -0.16555324781357403
3387375000.0 0.360650286745225 -0.11418335762613917 0.06454145044787059 -0.03749845581879034 0.06458681583859038 -0.03758080404183326 0.3191788988915007 -0.17124911897726933
3388438000.0 0.35942238516845554 -0.11629447087909468 0.0636197673997098 -0.03942834161637748 0.06367883216396182 -0.03963854110161113 0.3245840762994958 -0.17388733315534027
3389500000.0 0.3585227319250481 -0.11842829099112076 0.06268392025750816 -0.041424605573106246 0.0627423852495919 -0.0416156560463883 0.3309928293439714 -0.17601917474117293
3390562000.0 0.3574559523331996 -0.12035758951819409 0.06172603190625046 -0.04325387903431246 0.06191536985321037 -0.04344119198902265 0.3377792509762163 -0.17655163110461647
3391625000.0 0.3565577123285249 -0.12244202809045462 0.06072517304227502 -0.04509371938053069 0.060875335499051726 -0.045306225157346225 0.3445863599373424 -0.17359724772909738
3392688000.0 0.3556043005620018 -0.12399856595741529 0.05972226327226281 -0.04676779114438822 0.059947515051053606 -0.04700087275937063 0.34997936505108673 -0.1703913554100698
3393750000.0 0.35433433400824427 -0.1257819678650249 0.058605270350340105 -0.04844779336119043 0.058741638112816165 -0.04871115452399319 0.35297716273836577 -0.16384395739794494
3394812000.0 0.35338266528028045 -0.12753857428971663 0.05748484753833595 -0.050164557791156236 0.05770140676304305 -0.05028453296479382 0.35458295570179604 -0.15666426764052344
3395875000.0 0.35240261315629984 -0.12912962900150124 0.056246570105466666 -0.05182568006577406 0.056483180723501655 -0.05202726467868037 0.353715569087706 -0.1501506575869457
3396938000.0 0.3512869832994181 -0.13066113569621285 0.055056412625148286 -0.05331757874828246 0.05518168253978218 -0.05357709848933649 0.350211535363548 -0.1413366755806596
3398000000.0 0.35006339329668107 -0.13254525281176985 0.05361544162229203 -0.05488131572382762 0.05381729324954628 -0.055151878543063915 0.34416537910893646 -0.13536523853636778
3399062000.0 0.34931529066463707 -0.1337037322879481 0.052153993596052266 -0.056406212019720105 0.052424916879227124 -0.05674348725778875 0.3358329923634118 -0.1316789424048732
3400125000.0 0.34805346152796435 -0.13527436682552174 0.05063198062709481 -0.05788659712938345 0.05067555462142443 -0.05825950981100557 0.3263821810403006 -0.12805391939998037
3401188000.0 0.34665987847300483 -0.1368563198048277 0.048877003741072254 -0.05933078383480176 0.04899940336504601 -0.059613380494358194 0.31578177300588783 -0.12736023687332435
3402250000.0 0.34568402267045295 -0.13828928130992796 0.04717436561673734 -0.060779610036926585 0.047095823408812965 -0.061062887809637485 0.3062085712269008 -0.1288480233087698
3403312000.0 0.3440649597564028 -0.1396796860562081 0.04523548335446519 -0.062102035282175026 0.04519219066433014 -0.06247056137389444 0.2970436163387358 -0.13235557514607307
3404375000.0 0.34311746534673326 -0.14121567925911369 0.043243663000728134 -0.06345031281271891 0.043176464810337156 -0.06366307340942465 0.2885747996151871 -0.13721351166585236
3405438000.0 0.34160791547314234 -0.1422669692927563 0.041265678987504315 -0.06466153290157144 0.04122873121987777 -0.06479315016528671 0.28223202815391074 -0.14349077898167906
3406500000.0 0.34029445395545865 -0.14375921190234134 0.03914729715559191 -0.0658877087640304 0.03915998446087296 -0.06599870623197124 0.2774462482703083 -0.14992725324638018
3407562000.0 0.3392771748462747 -0.145126386634063 0.037149995608017704 -0.06705461180346198 0.037166208807030976 -0.06708778406789137 0.2746095342217036 -0.15627804848961732
3408625000.0 0.33797378014870344 -0.14672889483853846 0.034943705665858915 -0.0680839960300076 0.035222346184662925 -0.06812912437579192 0.2732617329827703 -0.16288949679651668
3409688000.0 0.33703280745996134 -0.14820856025972515 0.03293611253390487 -0.06918084589429968 0.033166468144133675 -0.06928296653338827 0.2738765183914003 -0.16824081607577257
3410750000.0 0.3355885636800434 -0.14941599711994005 0.03088154855504306 -0.07004985370879462 0.031343411024667193 -0.07013357256978932 0.27470185127910096 -0.17187555657036038
3411812000.0 0.33441683369205727 -0.1511128770944615 0.02896018313113348 -0.07101122363192812 0.02917853407863288 -0.07116407684831243 0.2765737423052733 -0.17492692317240108
3412875000.0 0.3337916096635993 -0.15248952497804083 0.02693463263744373 -0.07193108877920273 0.027216124884025757 -0.07217267209161246 0.27756741005146435 -0.1762172210906053
3413938000.0 0.3323458180541964 -0.15369120736472575 0.02491677928304894 -0.07265101449023678 0.025227629911424836 -0.07312549138899323 0.27923629934391253 -0.17685752328355264
3415000000.0 0.33132699506012986 -0.15485045802819006 0.022961918612613028 -0.07347710974697325 0.02308164124841538 -0.07394710413561452 0.2797888363171733 -0.17688231720629902
3416062000.0 0.32986777664198064 -0.15612865924165412 0.020843745082849894 -0.07417803298859552 0.020884945472069764 -0.07482819161199884 0.2790912144252407 -0.17610162712686261
3417125000.0 0.32874564864203965 -0.15720825181947534 0.018768007580024098 -0.07489964010401051 0.018650666046162074 -0.07558158225143041 0.27756071431673185 -0.17490740371178656
3418188000.0 0.32769911308200944 -0.15844460676725197 0.01656857840548945 -0.07566390122379957 0.016302684388180944 -0.07619780802591061 0.2753654982204422 -0.17417408610901375
3419250000.0 0.32653179542504357 -0.15995599673684813 0.014418581343640557 -0.07634120704602113 0.014168383333096266 -0.07669960698397954 0.2718415448991036 -0.17346336786023325
3420312000.0 0.3251474929282687 -0.16117817997934805 0.012253616129766493 -0.07692200280253302 0.011840275869812782 -0.07713691404856818 0.2681087200865173 -0.17358191220415403
3421375000.0 0.3241976279666835 -0.16225975039440108 0.009876107229534109 -0.07731754219956496 0.009659321119149666 -0.0775204172678838 0.26313117035256606 -0.17519973457011545
3422438000.0 0.3229555019139528 -0.1635600374120594 0.0076271484834322875 -0.077735522810072 0.007272936436071827 -0.07768194524819977 0.2590291932096754 -0.17754791705913195
3423500000.0 0.3217100808412508 -0.16485180570099123 0.005282297823878595 -0.07794516558736853 0.005172488375005655 -0.07785645634049258 0.25473728824529257 -0.18018046062628068
3424562000.0 0.32080429863930543 -0.1660402497158647 0.00287314984430988 -0.07826382298557404 0.0030367418954845033 -0.07809605819572979 0.25111182016866057 -0.18474415136439679
3425625000.0 0.31974949095690586 -0.16726149794625497 0.0006272997326610537 -0.07821734313120635 0.0008089298955654581 -0.07826277881239412 0.24906783978627475 -0.18967691437923903
3426688000.0 0.31814839352543034 -0.16849814012032485 -0.001707454361852883 -0.07822021964817824 -0.0014230934645072222 -0.07830226171666362 0.2481422047030436 -0.19443465134442103
3427750000.0 0.31690368395341517 -0.16948862631651174 -0.003967951340141142 -0.07811547621300463 -0.0036265499212941414 -0.07843473268014327 0.24836693182389863 -0.19966670093143063
3428812000.0 0.31546124205337883 -0.17088917576433074 -0.0062190379796338464 -0.07799537482881842 -0.005913546869851579 -0.07838455326903078 0.2494897235254736 -0.2044647014706412
3429875000.0 0.314305731852998 -0.1718022163112398 -0.008381482945454793 -0.07776695853928683 -0.008225182540881663 -0.07833816825125922 0.25153670078148854 -0.2080010204987651
3430938000.0 0.3128767430379539 -0.17331002089015168 -0.010607644065214871 -0.07748033844398118 -0.010467453477709962 -0.07828857922499674 0.2536411514064698 -0.21031458767153768
3432000000.0 0.311652880581717 -0.17443095199689038 -0.01275467539709328 -0.07732489823289393 -0.012954240931202505 -0.07799836276038587 0.2565604604984388 -0.21242393109668828
3433062000.0 0.3098295956468324 -0.17609157853302748 -0.014933536608164792 -0.07687615756822982 -0.015387036880003485 -0.07767378285055371 0.2593944036490323 -0.21402431951860132
3434125000.0 0.30847679581031734 -0.17716236446186787 -0.01720681833576788 -0.07651576853139162 -0.017612566354066005 -0.07712432507638653 0.26131037412686764 -0.21380236223995083
3435188000.0 0.30694652598404965 -0.17848333907904057 -0.01933379287608626 -0.07612105689680582 -0.01994367085464324 -0.07644166670070891 0.26336196653319344 -0.2125156150228788
3436250000.0 0.30583440011027263 -0.17998990887751606 -0.02149420512102994 -0.07558804830716812 -0.02217972997132998 -0.07584445253507993 0.26449430092673165 -0.2112094112293809
3437312000.0 0.30403978219608413 -0.1812331156340053 -0.023788736650352946 -0.07504530657257828 -0.02430131797723248 -0.0750871053173354 0.2648336861125798 -0.2099402108511056
3438375000.0 0.30269396659924097 -0.18255296078093994 -0.02585864453192778 -0.07437004168522533 -0.0264784165119085 -0.0744022401008371 0.2643990614592343 -0.20778184007441797
3439438000.0 0.3013437985989031 -0.18413601602896623 -0.02817213030590936 -0.07369922852416358 -0.0285663029448496 -0.07354422575378314 0.26344668193920046 -0.20636726420319138
3440500000.0 0.29954366703712915 -0.18560516691169046 -0.03041670731966577 -0.0728237523180184 -0.030616539350808793 -0.07262364806240204 0.2618951574095512 -0.2054333204662783
3441562000.0 0.29852369545751145 -0.18689243911808462 -0.03250266624315603 -0.0721076825390829 -0.032544094875588334 -0.07190145476523256 0.2605123547488081 -0.20444301876381288
3442625000.0 0.2967214191240397 -0.18836006076301226 -0.03465585057456817 -0.07097616404221313 -0.03471475213599697 -0.070976151742903 0.2576493584419421 -0.2035485542198921
3443688000.0 0.29532615211664304 -0.18969265370990937 -0.03685749239689494 -0.07003196705620994 -0.03665513122187101 -0.06993950165360327 0.2558144962458873 -0.2039664716219652
3444750000.0 0.2933864263934097 -0.1914139450816742 -0.0389120948034972 -0.06881355246882823 -0.038806299517397135 -0.06907601222834558 0.2545427137755709 -0.203280023812544
3445812000.0 0.2919416351840614 -0.19240798832393222 -0.041051161734042545 -0.06746975270592363 -0.04074195472379022 -0.06792278133858855 0.25210425300783873 -0.20457663483981323
3446875000.0 0.29049380681842063 -0.1942174436848125 -0.04310291437300802 -0.06632434810222192 -0.0430055473711033 -0.06685316374434914 0.2506565048328784 -0.20458244383314284
3447938000.0 0.2884473370876733 -0.19551363617637493 -0.045006811012822674 -0.06498937937277036 -0.045084075954981845 -0.06558721200698482 0.24937070294104405 -0.20507241391284387
3449000000.0 0.2869229678938189 -0.19686022207790185 -0.04688744837984713 -0.06365335463650112 -0.04716387752172993 -0.06412734874037553 0.24779902689189393 -0.20566525513508468
3450062000.0 0.2852072957393735 -0.1983995527827403 -0.04873590651503671 -0.06224080443120662 -0.049159478995930164 -0.06265597032707423 0.24682052764484724 -0.20602685918927263
3451125000.0 0.2836787042056637 -0.1996242919877585 -0.05050062903840799 -0.06075531816811957 -0.050968375632292416 -0.061226980373375144 0.2453541342704553 -0.20609000242036812
3452188000.0 0.2819585076926642 -0.20121387865880322 -0.05214549711091093 -0.059347377043527515 -0.05269902209103647 -0.059459617465655666 0.24422569482068937 -0.20581820650368804
3453250000.0 0.28032341433753755 -0.20275572232747685 -0.05379858233378105 -0.057704702482991026 -0.05440729861898075 -0.057759714841143 0.24118821318345282 -0.20572991887898506
3454312000.0 0.2782363112625785 -0.2042801402525786 -0.05553514077954348 -0.05606541504681634 -0.05601896672998889 -0.05602887001799121 0.23883789337983446 -0.205825519211845
3455375000.0 0.2766035268891646 -0.20585372611132785 -0.056998063885053143 -0.05450596149510408 -0.05760805152100718 -0.05432388100661362 0.23649806028761308 -0.20559934347351383
3456438000.0 0.27462305542478305 -0.2071643339061253 -0.058749045546150735 -0.052716321900908455 -0.05915922248361526 -0.05280839538642461 0.23347138477733426 -0.20666700998493048
3457500000.0 0.272744355496975 -0.20859895254032904 -0.06021519351222321 -0.05111096401308834 -0.06062959893813057 -0.05095684657929295 0.2299651178547785 -0.20728700595022853
3458562000.0 0.2707838763565363 -0.21011706546821735 -0.061760476492454086 -0.049347105123675225 -0.06209319039822003 -0.049149157755560544 0.22661547810319624 -0.20901502670704872
3459625000.0 0.26862275444784406 -0.21164631366841313 -0.06329563795639 -0.047567645686189305 -0.06354280988060905 -0.04746837956119728 0.22346971519118322 -0.2105974818870699
3460688000.0 0.2664712227480249 -0.21322622640484692 -0.06472623185693181 -0.045656337859578476 -0.06497058811934504 -0.045795661506012594 0.2200911677316954 -0.21256713919985232
3461750000.0 0.26468236846948995 -0.21481794143456145 -0.06620045825599671 -0.043847740804307395 -0.06627109750775367 -0.043838615502132916 0.21765039911252962 -0.21466514682547178
3462812000.0 0.2626371451201618 -0.21635363718198827 -0.06752662625713779 -0.04174216145813539 -0.06762530057283556 -0.04183202205708997 0.21498238572617706 -0.21735146417306828
3463875000.0 0.2610616434246346 -0.21822617489223795 -0.06875798571935136 -0.03974933663408319 -0.0688729022241522 -0.03976547143504116 0.21295273183334137 -0.2191324304116711
3464938000.0 0.2588194641005027 -0.2198376375855464 -0.0699782664105207 -0.037405398880882186 -0.0701113259921242 -0.03757370315115899 0.21095213085105333 -0.2213901061344172
3466000000.0 0.25685160325277323 -0.221432827712752 -0.07102572331453871 -0.03523981434776415 -0.07120601436257469 -0.035417559676301946 0.2092757922265063 -0.22301900673719144
3467062000.0 0.25500245431886825 -0.22288741079269545 -0.0721062414563815 -0.032991284318444794 -0.07228057677488624 -0.033239810134248086 0.2073840559147284 -0.224725719866714
3468125000.0 0.25321719173491114 -0.22476218725659453 -0.07308853609428004 -0.03076426290523318 -0.07326654177441787 -0.030873920891090145 0.2054187707753437 -0.22590283910589828
3469188000.0 0.2513668582615455 -0.2265058368942606 -0.0738692436746315 -0.028428523680710024 -0.07408802656694473 -0.028601314797815088 0.20305015633326595 -0.22692265313013113
3470250000.0 0.24961673160635464 -0.2280139129989652 -0.07453901079481394 -0.026209145514213363 -0.07484750674277225 -0.026552768760296202 0.20041157719712108 -0.22745283376090117
3471312000.0 0.24770134062029597 -0.22955365232525807 -0.0751225454551283 -0.024077195319368496 -0.0755205336889285 -0.02427286557694332 0.19754833416723006 -0.22845911884170186
3472375000.0 0.24592320531659795 -0.23099307958346407 -0.07557509447416444 -0.02189194735705633 -0.07604177536047077 -0.022015132017701014 0.1936445012762729 -0.2298776683643674
3473438000.0 0.2440256435506237 -0.23278892178298038 -0.07614604555116376 -0.019635447966746072 -0.07651522103033746 -0.019757752704725004 0.1889487645804765 -0.23161676496918382
3474500000.0 0.2424132886676351 -0.2342361004398936 -0.07645859209814226 -0.01753810003027341 -0.0770258949623883 -0.017555882502325735 0.18487974055082912 -0.23378251043079665
3475562000.0 0.24040622007412146 -0.23535269728292932 -0.07699868757138852 -0.015314378740659279 -0.07753438015748905 -0.015365528302264344 0.18043456124268534 -0.2373631516178459
3476625000.0 0.23872837062874835 -0.23645912940751224 -0.07743192653466946 -0.013124202691053799 -0.0779376628714763 -0.012883818437522813 0.17624668205092212 -0.2412116490581045
3477688000.0 0.2368801406938094 -0.2377582557662158 -0.07795881155590235 -0.010952690230798642 -0.07837658722674756 -0.010626731651174398 0.17293630352922118 -0.24615101054814728
3478750000.0 0.23489530976805556 -0.23894996486215894 -0.0782735338417613 -0.008662196752788752 -0.0787834466928401 -0.008426450031257186 0.16967222466835802 -0.2525341863717662
3479812000.0 0.23287269612404482 -0.23999791740367285 -0.07870751804444345 -0.006384910816848082 -0.07906129766167297 -0.006104350941952446 0.16853884653727924 -0.2591610610029128
3480875000.0 0.23103017182994132 -0.24095228681430014 -0.07893506824862218 -0.004102081827683928 -0.07917942606507725 -0.0038847325574835737 0.1684489993337605 -0.26554202928778864
3481938000.0 0.2291567500833783 -0.2419609229923565 -0.07921908857308438 -0.0019294961558234019 -0.079494044310564 -0.0015186836153964333 0.169450929309178 -0.2727411037444316
3483000000.0 0.22723842847827957 -0.24308758529505597 -0.07935381419257102 0.000464366056631056 -0.07943978942159832 0.0005727410296571703 0.17240238321727722 -0.27817268484387075
3484062000.0 0.2253885519290105 -0.24404181483613976 -0.07931194785479254 0.00263970743384891 -0.07928521526436053 0.0029260544319521333 0.17484968709579107 -0.2824084256318028
3485125000.0 0.22333610810131138 -0.24498243452730695 -0.07931600014975436 0.004972454872952574 -0.07924507448207603 0.004934849220517418 0.17958561464222142 -0.2853582029272309
3486188000.0 0.22125703513523284 -0.2456069114189593 -0.07899897445264455 0.0072619136700909715 -0.07895282586996281 0.007247674954030478 0.18349637069560026 -0.28725984979250424
3487250000.0 0.21954790372390498 -0.24665582826278687 -0.0788298177460817 0.009425950239977358 -0.07875263424285432 0.009274430302373567 0.1879142900238565 -0.2864601609708551
3488312000.0 0.2167738611855334 -0.24715852840493208 -0.0783857923093945 0.011654801882574351 -0.07859100157079442 0.011534025615017525 0.19116553702786085 -0.28581913452951285
3489375000.0 0.21482548805373922 -0.24783627853500162 -0.07781877343546281 0.013752937283297996 -0.07802490709293484 0.013614585039937774 0.1923957194666101 -0.2830726962051939
3490438000.0 0.21269384955981707 -0.24898716811983057 -0.07724076575293849 0.01595283890700873 -0.0776796246193806 0.01583079923404743 0.19265298168073297 -0.27877811868168884
3491500000.0 0.21071908765444583 -0.24943208094987104 -0.07665039242255027 0.017913562381168528 -0.07717910867746978 0.017799321337545783 0.19170646144502523 -0.2747191170715514
3492562000.0 0.20849471936287337 -0.25025496899745214 -0.07598852106818761 0.019805613112466286 -0.07632377034974647 0.01973776677635847 0.1910743110363804 -0.27023557120532826
3493625000.0 0.20649805963960702 -0.2510586869464237 -0.07521587794815875 0.02186141000366518 -0.07571079505334347 0.02185426268847528 0.18793637627724702 -0.266724863419226
3494688000.0 0.20431571531148507 -0.2514451925055108 -0.07425823007331099 0.023871254684461937 -0.07480371674893367 0.023948622431272826 0.18232111745390578 -0.2626665861623387
3495750000.0 0.20225865369942578 -0.25230290875152095 -0.07333512541770339 0.025981089684314583 -0.0737348734366908 0.0260411052717069 0.17697287476148107 -0.2608420537536718
3496812000.0 0.20022983378055464 -0.2528436183228598 -0.07251887197465051 0.0280629811415079 -0.07290011552666427 0.02836977602532411 0.17172044680882542 -0.26055483237783933
3497875000.0 0.19825221626866896 -0.2534595131787144 -0.07172932358423702 0.03017407000931477 -0.0718470927841033 0.030530072107384166 0.16685183876632984 -0.26186286113774376
3498938000.0 0.19628285293420886 -0.253981597502074 -0.0707000342562307 0.03230621984948422 -0.07098732346077158 0.03248664789569769 0.161555522731577 -0.2654875754911189
3500000000.0 0.1944087513328716 -0.25455919372793345 -0.06986336429081944 0.03431017427694598 -0.06994942554461234 0.03468923995861963 0.1581982229219897 -0.2702039055359153
