! Created with skrf 1.9.0 (http://scikit-rf.org).
# Hz S RI R 50.0 
!freq ReS11 ImS11 ReS21 ImS21 ReS12 ImS12 ReS22 ImS22
700000000.0 0.15915621440576289 -0.8347169483747228 0.04206662567922278 0.04315986187195068 0.04093665965563501 0.04628635963543653 0.14107636097415246 -0.8275054287758193
700687500.0 0.15423006492976507 -0.8340694004877839 0.04308160583451388 0.042140787651822456 0.042668751064241915 0.04548927359724288 0.13518531931061734 -0.827105606235476
701375000.0 0.14816234728970515 -0.8336743632434667 0.044062928443685125 0.041182908293761894 0.04448650895149931 0.04445087995091165 0.12851231262281038 -0.8266570123135794
702062500.0 0.14296201546393264 -0.8333105438527312 0.0450230561863457 0.04036384865208284 0.04621504731023104 0.043325768383220324 0.12200808066502211 -0.8264507315915226
702750000.0 0.13696896104542505 -0.8326287708668147 0.045915776309425636 0.039397631557603646 0.04787408760964201 0.04202859762185472 0.11531602388948134 -0.826260015693622
703437500.0 0.13146159770904856 -0.8319995341592135 0.04684975987397614 0.038608429907676614 0.04936653115405615 0.04066761431152017 0.10914435324189202 -0.8262850078827394
704125000.0 0.1252568825392361 -0.8315956396265554 0.0478279666722655 0.03784714407951411 0.05074539493700424 0.039210166870359046 0.10320912645950818 -0.8262937687135984
704812500.0 0.11944942637293612 -0.8307241344405591 0.04875263408789457 0.03707153854650095 0.05192162836112387 0.03766863950786848 0.09679179815592172 -0.8259939995297226
705500000.0 0.11366120166456342 -0.8300185939084883 0.04984438137179354 0.036299232716340855 0.052943888421614675 0.0361375365852337 0.09078092326798978 -0.8262040009112451
706187500.0 0.10789749503686577 -0.8292188762067149 0.050908685926658 0.03560214624699958 0.053870732750811515 0.03467804154261464 0.08494978515834596 -0.8261367991690654
706875000.0 0.10220396757148865 -0.828533781898981 0.05200632647931752 0.034849349456617315 0.054621019069201936 0.03329650347938917 0.07926999548992357 -0.8262714757722854
707562500.0 0.09609631424076753 -0.827503643278044 0.053187407034302886 0.03402080647183448 0.055329324792460555 0.03194288389680668 0.07349976996514275 -0.8264481115481965
708250000.0 0.0902298795846004 -0.8266168465059313 0.054371361457711744 0.03321106118263239 0.05590609902902618 0.030688720844138616 0.06786145057465556 -0.8260110462115052
708937500.0 0.08451941754432839 -0.825547435761383 0.05565040928454035 0.03228093375434477 0.05655501936694409 0.02951596913151169 0.062602587455933 -0.8259546247883612
709625000.0 0.07841098411906577 -0.8250458002468138 0.05695419054511418 0.031294699329342264 0.057247894755628165 0.028523305446271612 0.05673639627723038 -0.8259606586254229
710312500.0 0.0725374813994557 -0.8237479462921204 0.05827209990134172 0.030256287298562213 0.057950958337159617 0.027551594332086513 0.05150790044394984 -0.8255605602529352
711000000.0 0.06719943514119588 -0.8226809505717827 0.05956721062321138 0.0291501852241259 0.058732546757134366 0.026640754655094315 0.045992184798141315 -0.825064289267724
711687500.0 0.061035193798040184 -0.8216790991858258 0.06090181517401748 0.027935712061858086 0.05957077187048683 0.025753511431480552 0.040956800321104415 -0.8244171616218051
712375000.0 0.05544456546442765 -0.8204853350203873 0.06218265660248263 0.026563852782090593 0.06054544897622699 0.02489331815644838 0.03575208387401051 -0.8234528481660057
713062500.0 0.04973601710698423 -0.8193440930308551 0.06349626331076079 0.025227826448134535 0.06163446437710839 0.023964339976692662 0.03039596136813824 -0.8226736486048928
713750000.0 0.04363825145315225 -0.8181134490213698 0.06477987560337667 0.023713460390627144 0.062751209723666 0.0229212294610617 0.02522347237415803 -0.8213867304674498
714437500.0 0.03820272752029046 -0.8166671271596769 0.06589076008114876 0.022199547796666663 0.06385985403248537 0.021864000992419027 0.019950565020920217 -0.8193662701625584
715125000.0 0.032604590895151886 -0.8155615509803438 0.0670110210719028 0.020536338587882633 0.06506960871136531 0.020671832790023596 0.014553202502611816 -0.8175169753560417
715812500.0 0.027397121718768635 -0.8142764678252148 0.06803205484165796 0.01880287921564227 0.06632755312705259 0.019316073854480167 0.008187032995350622 -0.8154951896798287
716500000.0 0.022152608321561684 -0.8126765447392544 0.06901446250714444 0.017092110578384254 0.06755295162303729 0.01791589186832298 0.0022939401345519095 -0.8132828881248715
717187500.0 0.01674664837365739 -0.8112215399697914 0.0698954358974655 0.015328637331153949 0.06876050604053004 0.016314458302785342 -0.0038510998492507146 -0.8106768024732649
717875000.0 0.0113685348528476 -0.8094288939502008 0.07067287042710398 0.01348001202608669 0.06985201895103782 0.014636827860315237 -0.009968479247515047 -0.8082872885039003
718562500.0 0.006107224285726098 -0.8075792598459148 0.07139869597424828 0.011718712945443662 0.07089033876528315 0.012865333266107075 -0.016311186937483433 -0.8054456889120978
719250000.0 0.0012295902257568787 -0.8056531685784307 0.07202210032175253 0.009953574949703642 0.07182146791768719 0.011085619163092886 -0.022768126362543134 -0.8027071668237687
719937500.0 -0.00383503515010574 -0.8038660455250067 0.07267436710304595 0.0082149089629322 0.07268942706332007 0.009227188534696621 -0.029577823844940124 -0.7998454737544408
720625000.0 -0.008595305288702332 -0.8017321257625344 0.07326154855754226 0.006472227130529999 0.07347991560281109 0.007273718917589895 -0.03636170163616166 -0.7969378027802126
721312500.0 -0.013316485390336363 -0.7992496608899047 0.07379854081632319 0.004722414820497931 0.07416269297906727 0.005402689853257971 -0.04310909082717105 -0.7939016115073141
722000000.0 -0.018174726593182592 -0.7972642887523193 0.07437539380721103 0.0028259095933754544 0.07487829304521479 0.0033116208138456176 -0.050163824462097405 -0.7910823922257265
722687500.0 -0.0228799050657325 -0.7953492852103144 0.07488457543648604 0.0009537295875267854 0.0753397520206417 0.0012516975260667659 -0.05691383263037554 -0.7885566544875517
723375000.0 -0.027434094346183328 -0.7931436624932081 0.07523838663192778 -0.0009621095143399103 0.07568156327132655 -0.0008145355193788853 -0.06457258526983756 -0.7862945624724789
724062500.0 -0.032369386367980583 -0.7911152876156257 0.07546283653135746 -0.00279078466008561 0.07588388199283366 -0.002740442420086549 -0.07143936563531934 -0.7836707263303886
724750000.0 -0.03792326686041087 -0.7887309205563247 0.07568666625874923 -0.0045350471971276445 0.07604206073693041 -0.004509737668347716 -0.07820597871345704 -0.7812206845953691
725437500.0 -0.042786057330152415 -0.7857726799816331 0.07597617246438094 -0.006063348757938628 0.07622710695240716 -0.006115488874197762 -0.08480874254281036 -0.7786710012759842
726125000.0 -0.04785131572871688 -0.7831167171325455 0.07634135570191965 -0.007720491602707554 0.07655721356657053 -0.007776649157176407 -0.09156681211484823 -0.7766477355518152
726812500.0 -0.052884952422941355 -0.7800420941436658 0.0767110396579207 -0.009392017076704675 0.07686477165094587 -0.009349857103193098 -0.09771488576276553 -0.7743597548309785
727500000.0 -0.05771827070731141 -0.7768119465503819 0.07710732491262334 -0.011129815420302806 0.07727331116921198 -0.011052372509465119 -0.10409280581204133 -0.7724144975984757
728187500.0 -0.06208190970356919 -0.7735312217458825 0.07752421395820686 -0.012846072537711098 0.07776198519593243 -0.012745741100895651 -0.1102126855640709 -0.7702271386082297
728875000.0 -0.06700078368547945 -0.7704898016400122 0.07804595452683281 -0.01473963402312266 0.07825942926055864 -0.014582911185158582 -0.11618291904239973 -0.7683436379302989
729562500.0 -0.0720495937998664 -0.7672743077439176 0.07847387867704969 -0.016595002684898195 0.07874700954373871 -0.016514183861780808 -0.12158067067938026 -0.7664110623439926
730250000.0 -0.07694467733899293 -0.7637994864251594 0.07882518263215463 -0.018753592041524474 0.07921969627493054 -0.01857536140778284 -0.12705191189586185 -0.7642529076364001
730937500.0 -0.081707956328928 -0.7604704264485234 0.07915368170468763 -0.0208635862095176 0.07959815775915861 -0.020827540075904306 -0.13246705119185861 -0.7622285819593092
731625000.0 -0.08695638983590585 -0.7571122723246312 0.0794813291712085 -0.02305857391353167 0.07992912773829337 -0.023144225678578673 -0.1377431194953028 -0.7603711149293302
732312500.0 -0.09232983396080607 -0.7539396189747005 0.07962800091239114 -0.0253242518313758 0.08015627601650331 -0.025589243504216923 -0.14269166760907842 -0.7580672383905035
733000000.0 -0.09744252688489416 -0.7499520846854987 0.07966704486717757 -0.027606661641394283 0.08017059054977244 -0.028009400726500655 -0.14747157871065272 -0.7553426448507145
733687500.0 -0.10266646367500736 -0.7470310112264805 0.07966828355266024 -0.029875790304355884 0.08017639769957462 -0.03049312698284952 -0.1518266448194707 -0.7524618513231296
734375000.0 -0.10801714937329356 -0.743183474320301 0.07953948477333976 -0.03231668957980886 0.08000624059621851 -0.03304784307503995 -0.15705545090434833 -0.7494739900149612
735062500.0 -0.11299268732615331 -0.7394680267789167 0.07945021476069852 -0.03460794838538462 0.07977388766209137 -0.03557325723653907 -0.16146206481278239 -0.7463250847269672
735750000.0 -0.11814581192307536 -0.7356484239808094 0.07918361366659651 -0.036941011672295784 0.07934993724172926 -0.03804636666330574 -0.16556658824826323 -0.7422362442639914
736437500.0 -0.12319074661525553 -0.7318581008214856 0.07876039358379659 -0.03949681721047514 0.07884684666497352 -0.04060310056416573 -0.1703681063246104 -0.7384027729511482
737125000.0 -0.12807818554744496 -0.7282589345928866 0.07840603774375138 -0.04190168320643054 0.07826078942879348 -0.04308244247474867 -0.17492871279023953 -0.7340685685448978
737812500.0 -0.13311935230567823 -0.7242091956932235 0.07794998864583828 -0.044411645419104764 0.07763981739758533 -0.045620098880956785 -0.17946968056701595 -0.7298809248723314
738500000.0 -0.1377651549617992 -0.720636223128569 0.07749038613359178 -0.046885788375581404 0.07689175164131859 -0.04798460445987349 -0.1838581421860058 -0.7249720933786997
739187500.0 -0.14252123892108196 -0.7170447877569928 0.07689335375996688 -0.04936675895648409 0.07609330725206825 -0.050349304591825586 -0.18851502984566787 -0.7200661009146834
739875000.0 -0.14712539046645493 -0.7129855504833522 0.07617086903975731 -0.05185728103531033 0.07512460876614471 -0.05269314428967031 -0.19336905009581565 -0.7149261397070125
740562500.0 -0.15157137366633666 -0.7096231956163843 0.07544076438381427 -0.05437630328058396 0.07418255651551679 -0.054978569560790475 -0.19807337416928963 -0.7092674145405604
741250000.0 -0.15591643386332985 -0.7059227646633804 0.07461163702424906 -0.05688345905322124 0.07320022139754229 -0.05728249377129486 -0.203343255747751 -0.7037758948092141
741937500.0 -0.16020224769556 -0.7022103452211118 0.07365518462910016 -0.059416271109427536 0.07221794708877224 -0.05950901550716499 -0.20808905811946535 -0.6984264237524603
742625000.0 -0.16416001869699812 -0.6987427776121092 0.07266707195713762 -0.061860224941897635 0.07113149289151809 -0.061693257748561645 -0.2133338366246073 -0.6927131308204627
743312500.0 -0.16810104675776036 -0.6948869468400968 0.07152885443234314 -0.06439300721950961 0.07003048554028676 -0.06395854127967945 -0.21856429346661616 -0.6874227301433001
744000000.0 -0.1717559385104235 -0.6913385622277937 0.07039882002785156 -0.06689415800980941 0.06895884718509053 -0.06619500170063192 -0.2232849945356286 -0.6817316010957479
744687500.0 -0.17513870185600022 -0.687914596978198 0.06920392720610498 -0.06931389096647908 0.06795283002641228 -0.06846229734220696 -0.22836027956400592 -0.6764484846072905
745375000.0 -0.17895072574573728 -0.684145180482808 0.06780331543915166 -0.07183217822599021 0.06669834243779202 -0.07074677136930356 -0.23381998603875503 -0.6707745261248342
746062500.0 -0.18218717875810805 -0.680716450986477 0.06633455583320741 -0.0742957149538883 0.06550000623034492 -0.0731012019118925 -0.2389879034742486 -0.6658415475437452
746750000.0 -0.18524400632598148 -0.6771421588586203 0.06487847801518977 -0.07676357864477533 0.06423755044481748 -0.07536218695217388 -0.24366815574326245 -0.6609535874957541
747437500.0 -0.1883292838062664 -0.6736535623670747 0.06320336389759759 -0.0791849766640882 0.06281719501683321 -0.0776979244142242 -0.2485073355103897 -0.6559790757493313
748125000.0 -0.19149206230017982 -0.669967746860026 0.06143285221988752 -0.08156981106115377 0.061428201308419784 -0.08010398276029121 -0.2530362195252335 -0.6511841060527404
748812500.0 -0.1939551262398573 -0.6664784046671074 0.05954236424560966 -0.08387762764211747 0.05987686232723469 -0.08250902445085173 -0.25762436277813805 -0.6467175196728064
749500000.0 -0.19697655930474384 -0.6630807815741402 0.057602741256902186 -0.08622952445986343 0.05822075772244672 -0.08485620715162413 -0.2616026453660406 -0.642080898794331
750187500.0 -0.19972495265838583 -0.659576971806543 0.05551396420643915 -0.08852834270271867 0.05643178191135991 -0.08726759726932916 -0.2657489430354091 -0.6375107804512888
750875000.0 -0.2024871621384496 -0.6563024629757571 0.05333048968972648 -0.0907437957180628 0.054510254739456296 -0.08968072733786349 -0.26964236077125375 -0.632807687956985
751562500.0 -0.20540300385037447 -0.6525593181042687 0.05104839527295507 -0.09275809911529882 0.052480571737456086 -0.09201957820621785 -0.2726708143118944 -0.628442868222736
752250000.0 -0.20843592164001185 -0.6490264960482466 0.048549988016831615 -0.09483206212671395 0.05013016166468833 -0.09427364094309537 -0.27613012403583004 -0.623440020198811
752937500.0 -0.2115926523664819 -0.6449792015024788 0.04604441936428121 -0.09669061977231191 0.047676358835983715 -0.09648869386199872 -0.2789460768091187 -0.6184955064304873
753625000.0 -0.2149238920597628 -0.6410752643652373 0.04350767127985682 -0.09846157156083434 0.04520705910344974 -0.09864255885520057 -0.28143962751843893 -0.6139742177746897
754312500.0 -0.21783713915950095 -0.6366454380784897 0.04099690403399479 -0.10007322560209617 0.042619874617027036 -0.10061378350373532 -0.28382952339893935 -0.6089580980439753
755000000.0 -0.22104098149704202 -0.6319284924489075 0.038408621846561936 -0.10162901867866517 0.039954659823865306 -0.10255246820042561 -0.28606341209266983 -0.6039908540141156
755687500.0 -0.2240874027800732 -0.6269630331618413 0.03586523690819389 -0.10307482787879585 0.03718619857814191 -0.1044107445586123 -0.28763670749996173 -0.5989160989767814
756375000.0 -0.22647872473137307 -0.622099150602865 0.03342763729532605 -0.10457157518384425 0.03445316989352431 -0.10614512947115574 -0.28942367731370894 -0.5932376980393749
757062500.0 -0.229095551141607 -0.6168783670233475 0.030896707992331806 -0.10601340893669826 0.031509464600499255 -0.10790029249414285 -0.29124658721771746 -0.5875705330205567
757750000.0 -0.2316322225338905 -0.6120467052333068 0.02835068982366755 -0.1074373513236167 0.028613845036787888 -0.10948883882049092 -0.2927013111586025 -0.5814762924933465
758437500.0 -0.23375091567727208 -0.6069543960300888 0.025776336911404553 -0.10875614302493107 0.025551399962527706 -0.1110161236703326 -0.2941428493201895 -0.575220346689021
759125000.0 -0.23585418090095275 -0.6019172719226603 0.02316321900588842 -0.11009976201141232 0.022450744362005757 -0.11230300286729868 -0.29547871643834994 -0.5686837020580038
759812500.0 -0.23810660358238442 -0.5969276103065525 0.020421930789289715 -0.11147422919512462 0.019241886235839806 -0.11354107477977822 -0.2969290422867461 -0.5618996844031325
760500000.0 -0.24022722530103607 -0.5920601574236379 0.017757975202484365 -0.11273186640455476 0.016115786145801236 -0.11467250951757232 -0.2982545448324855 -0.5547483209621815
761187500.0 -0.2423352812726778 -0.5872677002833981 0.014891644452215151 -0.11398681684338904 0.01291669618120225 -0.11560129939899311 -0.29971088138749574 -0.5474629739261414
761875000.0 -0.24426144569509034 -0.582417700855146 0.01201519360982473 -0.11529485308612104 0.009708021458580818 -0.11637359559278923 -0.3013975239614251 -0.5400546821929969
762562500.0 -0.24629479717597438 -0.5777522061948343 0.009117693238249068 -0.1165166846594581 0.0065386139632632855 -0.11712900085847851 -0.30263057378950486 -0.5326970881049231
763250000.0 -0.24843558814049127 -0.5731553179772321 0.006079242111968307 -0.11776501289764402 0.0033470911845150317 -0.11773561713794187 -0.3044403634457221 -0.5251084121910677
763937500.0 -0.2501419883414275 -0.568686636407714 0.0029730763741079346 -0.118855947257151 0.00026627914260742637 -0.11831098096580797 -0.30594457333284875 -0.5176523998071396
764625000.0 -0.25226405193078166 -0.5641967500672053 -0.00032813262575907685 -0.11988702921380215 -0.0028824932589906235 -0.11873374074599752 -0.30773974753454875 -0.5101864217576174
765312500.0 -0.2541632691223544 -0.5598743590230791 -0.0037405985731242884 -0.1209369763164723 -0.006017699018386602 -0.11924870726332694 -0.30940608334536857 -0.5030728732721335
766000000.0 -0.25579029748297294 -0.5554700888118465 -0.007105863282270863 -0.12184362190554586 -0.009046738789506853 -0.11965820532622459 -0.3112244098143915 -0.49572409986461463
766687500.0 -0.25765206881946345 -0.551394100434432 -0.010722279719087256 -0.12261228263243003 -0.012172505391972415 -0.12014318141434388 -0.3130371965023127 -0.4886797410109897
767375000.0 -0.25954923632372257 -0.5474427285118935 -0.01437913433565851 -0.12325487044626293 -0.01529843216452356 -0.12060838788666511 -0.31466243712512637 -0.4818603668134226
768062500.0 -0.2611187733779228 -0.5436112528143764 -0.018111866125152653 -0.12381338939607096 -0.0184403298057083 -0.12103057270695386 -0.31616038664663226 -0.4750666338604515
768750000.0 -0.26261432351894953 -0.5398606075021847 -0.021905209817248698 -0.12425480169319666 -0.021620695031534833 -0.12141732364326978 -0.31771988761636577 -0.4685673908693343
769437500.0 -0.2643537419075491 -0.5360226758303055 -0.025751916075143284 -0.12443410713525728 -0.02498707184352101 -0.12188063999914778 -0.31909119975533157 -0.4623364391399102
770125000.0 -0.2660508243306109 -0.5324972643254846 -0.029743563434027107 -0.12443824549945687 -0.028389131601589252 -0.12221518406550559 -0.3204297147659777 -0.45635423749465776
770812500.0 -0.2676220562494912 -0.5289221291923806 -0.033620093584573664 -0.12435249884581177 -0.03188839900726389 -0.12248965882954878 -0.3214931330089848 -0.45063052077448257
771500000.0 -0.2691585387775382 -0.5253584167828409 -0.037651367507499645 -0.12394975365503026 -0.03558706681880382 -0.1225768402418524 -0.32223585141974903 -0.44463030784102275
772187500.0 -0.2705677290410271 -0.5220590236290031 -0.041621327918182 -0.1234669871612728 -0.039310643582706556 -0.12261636287470146 -0.322811803519729 -0.4390516475935291
772875000.0 -0.27207647418263997 -0.5186548890058574 -0.04555221139137988 -0.1227594467103647 -0.04316030443924526 -0.12253150141114402 -0.3229961164398871 -0.4338006820428464
773562500.0 -0.27369016132667273 -0.5152864831349008 -0.04942783055062879 -0.1219114399552459 -0.04716628135322213 -0.1222367834970107 -0.32300462763031007 -0.42860243026744776
774250000.0 -0.27514739042517605 -0.511890729377128 -0.05325961915588136 -0.12084461151015774 -0.05114077299744272 -0.12172990781914926 -0.3226647009148292 -0.4232960756993371
774937500.0 -0.27654829030682965 -0.5083733141549833 -0.05707352836021691 -0.1197387059908286 -0.055244767036234536 -0.12099485297648682 -0.32197690029042625 -0.4182355663052127
775625000.0 -0.2777955866227152 -0.5049814082545675 -0.0608075606604177 -0.11851175013131007 -0.059362420127010526 -0.1200339764902333 -0.32116915564044646 -0.4131115690888122
776312500.0 -0.2790156834508112 -0.5014201491454597 -0.06445280997615391 -0.11713577752621201 -0.06341043220917979 -0.11886961315397147 -0.3200389922515156 -0.40789940865072344
777000000.0 -0.2801874553913743 -0.4980858772874936 -0.06789555372097351 -0.11563950427239891 -0.06732725703633267 -0.11754837014930108 -0.3182773541812765 -0.40290072975343316
777687500.0 -0.28122222214725145 -0.49442144965869667 -0.0713308725293117 -0.11407604568486494 -0.07128678066325896 -0.1159831795445312 -0.31678883882372355 -0.397786831265146
778375000.0 -0.281831995978439 -0.49068546356479936 -0.07465490638877943 -0.11240976350507491 -0.0750213227181762 -0.1143284026097937 -0.31476811711822955 -0.3926799740168238
779062500.0 -0.2825820329824589 -0.487082777380928 -0.07794877974987204 -0.11080859852205097 -0.07865923136895756 -0.11248169548009355 -0.31259424020890564 -0.38739648409901273
779750000.0 -0.28346349424728035 -0.48322063134867677 -0.08120545737943571 -0.10914485762559455 -0.08223632547165405 -0.11056735901934218 -0.3102954681150378 -0.3822441033889662
780437500.0 -0.2838434907307539 -0.47958570553024515 -0.08427390794925255 -0.10750304793018856 -0.08564061107899636 -0.10861049933583301 -0.3078491804820987 -0.37682694065463274
781125000.0 -0.2844079026073287 -0.4757195184584157 -0.08748632431162702 -0.10571518691932369 -0.0889685001028374 -0.10653708467293445 -0.3053543215322386 -0.37134437081442834
781812500.0 -0.28466881671865085 -0.4718547862966622 -0.09079491928839695 -0.10394522835377959 -0.09225145517814086 -0.10447215253361082 -0.3028293589885943 -0.366302745481563
782500000.0 -0.28498098305729286 -0.46801058065305084 -0.09393759827166213 -0.10216105816921087 -0.09547572955591002 -0.10241368871333768 -0.3002487510471354 -0.36092464956819525
783187500.0 -0.28549592837330934 -0.46424857608685705 -0.09725433163132073 -0.10035744399169978 -0.09872179882414196 -0.10026131524536805 -0.2977001034598886 -0.35573878848965335
783875000.0 -0.2856067141394175 -0.4601853558310942 -0.10047169932025506 -0.09834597245300919 -0.101930589433641 -0.09808282129345704 -0.2953252994174102 -0.3502329664003457
784562500.0 -0.2858638729558732 -0.45611503226142797 -0.10382511028716426 -0.09630619148494125 -0.10520530609699398 -0.09581673494153556 -0.2930117472097378 -0.34513522379261474
785250000.0 -0.28618518902268003 -0.45229718228429344 -0.10726087544592146 -0.09420898721801124 -0.10848477707855753 -0.09349078406508081 -0.290594915803024 -0.3400785873533665
785937500.0 -0.28673219765945757 -0.4483583266433792 -0.11057135963297504 -0.09186536827474007 -0.11182837498606282 -0.0910758247551137 -0.288206626812744 -0.33523239842005853
786625000.0 -0.2871032024206164 -0.44401797795900394 -0.11404742123295637 -0.08936527642757196 -0.11511731547659228 -0.088421708885081 -0.2860878147614012 -0.3303374959216713
787312500.0 -0.2873654642556665 -0.44007575844581936 -0.1174741429867029 -0.0867391060336112 -0.11849908655573602 -0.08573219217863368 -0.28394939796856333 -0.3259686551783801
788000000.0 -0.2877793663271702 -0.43581626092991066 -0.12096208629782641 -0.08383147691280936 -0.12180234076352839 -0.08282651306714973 -0.2820241300145233 -0.32148211979029256
788687500.0 -0.28823284506364155 -0.4317115343045777 -0.12438344390069124 -0.0809748775662293 -0.12507121777658717 -0.07974694054245476 -0.27992260967441374 -0.3175482703818301
789375000.0 -0.28876966835849777 -0.427531712443423 -0.1278061303537169 -0.07772910439022833 -0.12836825143884006 -0.07637204695585058 -0.27802831285690693 -0.31367629594271745
790062500.0 -0.28923456619369503 -0.42321394903587456 -0.13103106628051453 -0.07424582458305237 -0.13141236581307153 -0.0728069307683679 -0.27594903312664065 -0.3098670286306468
790750000.0 -0.2896170690809039 -0.4190356979350612 -0.13418455207468918 -0.07057822291632268 -0.13444124986509406 -0.06907651005245234 -0.2738548138061061 -0.3065450209836014
791437500.0 -0.29011397598372346 -0.41477741903242255 -0.13712229317709923 -0.06669430308414506 -0.13716012774066463 -0.06516682270279904 -0.27164978160677417 -0.3034892564185071
792125000.0 -0.2903998017353097 -0.41051539285644084 -0.13995609548719273 -0.06275683456054179 -0.13969133484041926 -0.06104508743290316 -0.26959060238605276 -0.3006217078896251
792812500.0 -0.2908350850902385 -0.40628536840136986 -0.14256899627804348 -0.05853979025982837 -0.1420201044327111 -0.05687215945729355 -0.26727233690740704 -0.2982179590441877
793500000.0 -0.29111881047482985 -0.4021886152296012 -0.1450504054553473 -0.05417367454008861 -0.14409966084903214 -0.052493077433229056 -0.2648943498116115 -0.2957868791074754
794187500.0 -0.29136939969547976 -0.3980640854326567 -0.14714893038182458 -0.049631831549041557 -0.14604922541184193 -0.04814821202290772 -0.26230944208481805 -0.29382306900906835
794875000.0 -0.29145183903679023 -0.39427649369729983 -0.14906258120306767 -0.0450917438583872 -0.14781605845199955 -0.043751313984067765 -0.2596309809778838 -0.2918162720296269
795562500.0 -0.29160997137470285 -0.390361148979847 -0.15088175528629427 -0.04032545311931058 -0.1492221135919624 -0.03922240535955568 -0.2568551152566881 -0.29021498496304693
796250000.0 -0.29168516560528385 -0.3866942939501936 -0.15244390028216495 -0.035704279288654266 -0.15053464398093583 -0.03493455422231209 -0.2540614010666543 -0.28870578653939
796937500.0 -0.29176369294538296 -0.38315947420397795 -0.1537592911675562 -0.030885390298475972 -0.15165775484860358 -0.030470081418558812 -0.25092736117649866 -0.2876113724070392
797625000.0 -0.2917951032255068 -0.3796893533252807 -0.15482062583597928 -0.026155004767539094 -0.15268387627397828 -0.026214173976006998 -0.24776433836363704 -0.286516142883881
798312500.0 -0.2919104620569859 -0.3762618141624644 -0.1556452644082039 -0.021407314911315114 -0.1535555720537664 -0.0219763758825607 -0.24431711899906805 -0.28542472508187205
799000000.0 -0.2919978464583711 -0.3731367610627106 -0.1563138217631679 -0.016680516509099786 -0.1544084720982885 -0.01772160831133949 -0.24108267113456153 -0.2844241940351721
799687500.0 -0.2921968237270433 -0.3697997429968333 -0.15676196409773108 -0.011975852697779834 -0.1552481972903289 -0.013511105679359004 -0.23753531836233446 -0.28353357889398784
800375000.0 -0.292360453085143 -0.3665757755916975 -0.15712780268810098 -0.00741456689402346 -0.1559055858028287 -0.009355786056042153 -0.2341396775807013 -0.2828696019096322
801062500.0 -0.29256473529063126 -0.3634660466470812 -0.15731405030784457 -0.0028683846720311055 -0.15667233017498322 -0.00513610348886855 -0.23065354459345289 -0.28204125862552876
801750000.0 -0.292679933560323 -0.36036499477551054 -0.157343873781121 0.001592812900280074 -0.15729488316984522 -0.000762003007958228 -0.22710399388608968 -0.28124093802419886
802437500.0 -0.2927285584808597 -0.35718031965382724 -0.15739947465527596 0.005933936457399188 -0.15785354843158567 0.0035734600430896994 -0.22391522903268415 -0.2804849638754295
803125000.0 -0.2926095163928307 -0.353919115152145 -0.15726595643890418 0.010328854795290183 -0.1582493050061355 0.00804824816676147 -0.220649135521521 -0.2794214207073612
803812500.0 -0.292638812130567 -0.3507365866098943 -0.15704179112112496 0.014693855862536772 -0.15864854280876345 0.012708051679558843 -0.21763243257732667 -0.2784458001330769
804500000.0 -0.29242763303603914 -0.3475950306003072 -0.15686123277415595 0.018902879064273532 -0.15880481823556017 0.01740692789832653 -0.21457071771773195 -0.2776808080532097
805187500.0 -0.2921406626986655 -0.34440674884513706 -0.15661088432255837 0.023197135766246414 -0.15884407240735976 0.02220918668036516 -0.21185857371753114 -0.2763285702011329
805875000.0 -0.29161779673326704 -0.3410363083718644 -0.15618679959227838 0.027412484202831836 -0.15868831836328534 0.026997058745005634 -0.2092246379715558 -0.2754541397170167
806562500.0 -0.29107078600559394 -0.3378533333993279 -0.15580497158162754 0.03173381718920136 -0.1583580512688066 0.031963119233937826 -0.20666565108636714 -0.27393172801607557
807250000.0 -0.2902719862637759 -0.3346593886955059 -0.15528149021310966 0.03604745670151526 -0.15769889907410756 0.036890809483990344 -0.20426543899408114 -0.2725790833898827
807937500.0 -0.28948967714317025 -0.3313746979073203 -0.15470856910145245 0.0404649930148863 -0.156926911917435 0.041954317945226215 -0.20235346604073884 -0.2714547643208366
808625000.0 -0.2884310081235138 -0.32804066999684084 -0.1540086139634058 0.04487864770993442 -0.1558062921220712 0.04686454825484562 -0.2003959895326275 -0.26995977098882284
809312500.0 -0.2873623665994886 -0.3248361840948824 -0.15309020604442564 0.04934136083261181 -0.1546543525447029 0.05175637361291517 -0.19855097758445553 -0.2685842997271141
810000000.0 -0.2862248881407854 -0.32152859198121136 -0.15208892051971462 0.05389728158146984 -0.15317050182930864 0.05647298367053994 -0.19699150090995088 -0.26723564489436186
810687500.0 -0.2848964476584853 -0.31829955259318476 -0.15099142555394363 0.058383781513486464 -0.15143090918215088 0.06114910373310823 -0.19528705245130573 -0.26606781362224086
811375000.0 -0.28352941987371283 -0.3151749824193401 -0.1495617663802959 0.06294556750361202 -0.14956061084554836 0.06575729244593023 -0.19407504193833525 -0.264747005737165
812062500.0 -0.2823413166140368 -0.3119768016785563 -0.14812071415209363 0.06749280932437987 -0.14760088169400945 0.07010613079512175 -0.19268846368881662 -0.26346502677545025
812750000.0 -0.2809027686881277 -0.3089253076193494 -0.1463471880766159 0.07198264270252341 -0.14536490512770098 0.07437809916992955 -0.1916455882583118 -0.26251180961431325
813437500.0 -0.2796776801411056 -0.3055876617678248 -0.14456291142033606 0.07648954670580037 -0.14299852622489453 0.07848172279953847 -0.19060114877426917 -0.26161804776310965
814125000.0 -0.2783588350823114 -0.3023483231288653 -0.1425554631205153 0.08085967189469215 -0.14052963897688392 0.08251968642778579 -0.18963724935542076 -0.26105861492891885
814812500.0 -0.2771337933787685 -0.2990246500374242 -0.14030510189107234 0.08516764691735709 -0.13804835281274835 0.08635810777343096 -0.1885952537929377 -0.2603779380576562
815500000.0 -0.2758185537139724 -0.29580786331982484 -0.13796310797540973 0.0893812873338798 -0.13545090416686473 0.09010825902253031 -0.18782744490224756 -0.2599989766339563
816187500.0 -0.27451096661832464 -0.2924020952437295 -0.13534097946685683 0.09356759918530402 -0.1328064358451893 0.09364590270384512 -0.18697882841761318 -0.2597003506514281
816875000.0 -0.27348376547486486 -0.28893758860819246 -0.13265073312643808 0.09748805885106679 -0.13010702098341909 0.09725378486889247 -0.1859896440980508 -0.2595831376989396
817562500.0 -0.2723767857618891 -0.2855677763389901 -0.12980887418069564 0.10150290794375123 -0.12740624121218197 0.10072759612256042 -0.18533436668669734 -0.25953370385882335
818250000.0 -0.27111273974129674 -0.2819242569171649 -0.12686956976066643 0.10521739780124728 -0.12474328985720431 0.10407542020526642 -0.18457986255528547 -0.25974493575153174
818937500.0 -0.26997433645162616 -0.2784943777920729 -0.12375868251897369 0.10892617137727371 -0.12197095942490949 0.10748216684102709 -0.18387331880157487 -0.25991984647452715
819625000.0 -0.2685876927761648 -0.2750839074218684 -0.12060462982094992 0.1122868995579048 -0.11927452646742437 0.11066371827489913 -0.18313248859163297 -0.2604371148362349
820312500.0 -0.26734874949376547 -0.271617802340523 -0.1173110356273717 0.11584673813602389 -0.11638835037484292 0.11390678105688982 -0.18231230664607406 -0.2607493642962275
821000000.0 -0.26599670888392435 -0.268222134808131 -0.11390635577040405 0.1189799232879937 -0.11351222462632421 0.11714438157376363 -0.18154494301375224 -0.26115556126474565
821687500.0 -0.2646322842146674 -0.26494246921913844 -0.11036896131831651 0.12203039190612915 -0.11051977004364412 0.12036186120574491 -0.18080941024616407 -0.26156971214123315
822375000.0 -0.2633225890090303 -0.2618464952347392 -0.10678961011836206 0.12503441438887555 -0.10742756306822855 0.12351732991500078 -0.18002767909633244 -0.2618856275198026
823062500.0 -0.2618465922149465 -0.25868134852512326 -0.10324273827750925 0.1278788155230223 -0.10415228240298315 0.12659763550198536 -0.17919088818244872 -0.26221587035372523
823750000.0 -0.2605648653254019 -0.2557429435325079 -0.09950211243833118 0.13059454654504205 -0.10074347580156956 0.1296929644203311 -0.1783811523183406 -0.2624448391279195
824437500.0 -0.25894717671519046 -0.25304526657409954 -0.09585271160699176 0.13313195099351877 -0.09727666762084455 0.13248924166573856 -0.1776032299860617 -0.26274742979663523
825125000.0 -0.257606652332785 -0.2503227567727214 -0.09215690560186204 0.13559026709126754 -0.09357193412083273 0.13530802955527832 -0.17670856217349243 -0.2626730789802075
825812500.0 -0.256135531011363 -0.24780923959194112 -0.08829192623315048 0.13797098392064833 -0.08982749188038876 0.13811335480279635 -0.17607236010691207 -0.26274932476906687
826500000.0 -0.2547528806966071 -0.245460705354632 -0.08446214328497413 0.14028541073105885 -0.08583189093436586 0.1406761909558609 -0.17524328447516355 -0.2625635608217173
827187500.0 -0.2533163951107266 -0.24332475243474205 -0.08075829559014011 0.1425086260569018 -0.08185483172562542 0.14313706933955053 -0.17466900739246374 -0.26253104910953967
827875000.0 -0.25183684552800734 -0.2410882891681245 -0.07683355314426642 0.1445487136696695 -0.07778893126874663 0.14525995893489865 -0.17375601211858505 -0.2620059174718882
828562500.0 -0.250374956656184 -0.2391434220777957 -0.07289168491418471 0.1463664668533337 -0.07359058412456435 0.1474564257021181 -0.17319187221323015 -0.2614176704390412
829250000.0 -0.24895344381204662 -0.2371889268359825 -0.0689895820248592 0.14814117272664612 -0.0693485181579458 0.14929792204435396 -0.17250183334323124 -0.26098622996581894
829937500.0 -0.24742175576154243 -0.2352725081489293 -0.06498912295969177 0.14990863040203464 -0.06502543047701498 0.15098064882577367 -0.17187974896003635 -0.26014418890492463
830625000.0 -0.2460431416432564 -0.23363935185950307 -0.06100664669549035 0.15151388538953853 -0.060783066316579766 0.152559336584912 -0.17136502754818164 -0.2591873217255401
831312500.0 -0.24441526551145495 -0.23188964822341385 -0.05700383442296644 0.1529265445451999 -0.05656479418710047 0.1540412517791456 -0.17087365304369606 -0.2584496474590949
832000000.0 -0.24289972959352182 -0.2302743549198716 -0.052946543314579916 0.15436531605110504 -0.052325690952194165 0.15540074090691977 -0.17067368369886354 -0.2575278116535876
832687500.0 -0.2412807491125425 -0.2287349750215054 -0.048894351892772914 0.1556884988558732 -0.048039626367528517 0.15651573660928758 -0.17039821981784947 -0.2564890069542639
833375000.0 -0.2396905881213667 -0.2272708655305769 -0.0447092740152118 0.15684362082032566 -0.04389614894889411 0.15757327513486702 -0.17035928860807142 -0.25555547542043905
834062500.0 -0.23796350621960627 -0.22579575138711877 -0.0406292932501679 0.15793435000126865 -0.03975677994643329 0.15847584225802364 -0.17038381482554346 -0.2547038970161932
834750000.0 -0.2362236492677072 -0.22438290512471323 -0.03645067481383433 0.1588069486289853 -0.035593981577319314 0.15926605438052333 -0.17033257758860892 -0.2534860809110332
835437500.0 -0.234479436563721 -0.22307541197468034 -0.03221731574986292 0.15972428681923034 -0.031497079426232165 0.16000087288178336 -0.1706108334832012 -0.25283453267966316
836125000.0 -0.23256476932909717 -0.22178627548350524 -0.028072826648895106 0.16039128105850506 -0.027240240969089082 0.16058357547563737 -0.17089094998299723 -0.25214405720371286
836812500.0 -0.23074322091343988 -0.22046274135938515 -0.02394547825615026 0.16109772317711277 -0.023130404192486867 0.1611279617172834 -0.1712069803238588 -0.25149773760363936
837500000.0 -0.2288701878647997 -0.2192598899813527 -0.01970531928080181 0.16162581015940797 -0.018984812309109925 0.16157909113944724 -0.17173289363334612 -0.25100793161113
838187500.0 -0.2269780436787536 -0.21806861560488747 -0.015530759285082369 0.16212601951901828 -0.014907960172832658 0.1619867213206915 -0.17197771020973981 -0.25075358698334105
838875000.0 -0.22502691488562915 -0.21687668956089734 -0.011314068583527842 0.1624426832939372 -0.010722311800869215 0.16220627097557344 -0.17261669336877752 -0.2503707877259996
839562500.0 -0.2230218056079256 -0.21575577844110758 -0.007216981577063457 0.16267566597553398 -0.006595955801892766 0.16239685650263577 -0.17281732517441972 -0.2504108483994356
840250000.0 -0.2211053178058191 -0.21457340935702152 -0.0030180354157505218 0.16273196876682788 -0.0024847886046337722 0.162490905644306 -0.17337789626369918 -0.2504391320265834
840937500.0 -0.21923723399139072 -0.21343993287354662 0.0010059655121236642 0.16280989702279974 0.001612755663877578 0.1624800199885094 -0.17360424133595426 -0.2506037476678271
841625000.0 -0.21734016114499433 -0.21238080440485085 0.005208033078164872 0.16271616983044615 0.005728613334230612 0.16233086828178278 -0.17399482523880114 -0.2508161413816584
842312500.0 -0.2155426794201287 -0.21123138788540763 0.00937584396611361 0.16251263539058697 0.009908534065528834 0.16211335075077726 -0.17418880487031294 -0.2511237282124022
843000000.0 -0.21373056211019076 -0.21019549526494305 0.01348234764481691 0.16215916969927857 0.013938103252095404 0.16175827868707937 -0.17422136151521966 -0.25156655183751037
843687500.0 -0.21215782356749643 -0.20897208559530236 0.01765371457759637 0.1617914931985232 0.018110786196314475 0.16134753124812906 -0.17440374804848546 -0.25212570822626995
844375000.0 -0.2104366828384837 -0.20787678200468468 0.021841336702978283 0.16116416663277042 0.022127570793937065 0.16083057509928886 -0.17426318969455568 -0.2524498421676919
845062500.0 -0.20896531893421608 -0.2066979265404428 0.026000318886436183 0.16052936777800372 0.026234817885312463 0.160199157908097 -0.17424912398321496 -0.25304860654140743
845750000.0 -0.20757027563654626 -0.2055352230182274 0.030142427086988204 0.15989516369054782 0.03036646697144862 0.15953263902037557 -0.17405961286727903 -0.2536897277117617
846437500.0 -0.2060643851550378 -0.2041726530444076 0.03418331971758996 0.15898931969597507 0.03440985049309272 0.15867450622732046 -0.17376655177414982 -0.2541225834501891
847125000.0 -0.20470243574040217 -0.2029758909671631 0.03827679192672426 0.157955726837577 0.03845228302551933 0.15774274631866145 -0.17327930641591865 -0.25468930651912647
847812500.0 -0.20352259502852504 -0.20173249937311277 0.04225381381522978 0.15693425192188226 0.042484897002589915 0.15675595998567066 -0.17280830430351546 -0.2549812152462088
848500000.0 -0.20226157274601278 -0.20039573789834966 0.04627288107747337 0.15576974425614093 0.04640378443065075 0.15552818831826912 -0.17213169098750358 -0.25525033978470696
849187500.0 -0.20122768745392075 -0.199140327415902 0.05021798791986607 0.1545725871284069 0.05032599852422776 0.1543233195669408 -0.17138639463182648 -0.25553575085125685
849875000.0 -0.20015103753363642 -0.19772174803602222 0.054164398149891164 0.15317268830086986 0.05423715799001042 0.15288181316077806 -0.17048740373917756 -0.2555033011916002
850562500.0 -0.19904433476434444 -0.1962935936848417 0.05809146771906173 0.15166569213626155 0.05814936159345024 0.1513999137699159 -0.16966655043666082 -0.2554149284183143
851250000.0 -0.19804664269854383 -0.19493107281687916 0.06195871408932013 0.1500216116320049 0.06201824618449758 0.14972016741875532 -0.16876200492689683 -0.25511732846053103
851937500.0 -0.19699644121311535 -0.1936030444024621 0.06578214282606219 0.14840173611634427 0.06585296595588706 0.1480516689952746 -0.16797454477281554 -0.25464565179920456
852625000.0 -0.19575313707429037 -0.19230151970097653 0.06956518892519524 0.14656077522357402 0.06949080253048347 0.14626369348484444 -0.1669256629684378 -0.25416391806169275
853312500.0 -0.19457914316189648 -0.19095653376333777 0.0732357926709052 0.1446658945636502 0.07325402557331306 0.14425288037214853 -0.16596942248704621 -0.25348535467746236
854000000.0 -0.19343558608040157 -0.18987596373419496 0.07694756156546163 0.1426199509366527 0.07687764629242796 0.14228013093162806 -0.16529135064503336 -0.25268855266727563
854687500.0 -0.192114068598179 -0.18896447281734535 0.08049367771711939 0.14042668869585243 0.08045665183681026 0.14007500348315352 -0.16479505161461236 -0.2517244602085248
855375000.0 -0.1907908929698241 -0.1879045479621907 0.08394653009973081 0.1381314076980551 0.08385507432058927 0.13785292243213132 -0.1640507365034522 -0.2508796205780178
856062500.0 -0.18943920269442227 -0.1872911132815561 0.08738911558270271 0.13573118091438868 0.08713806897206997 0.13555061714302494 -0.16357797362785517 -0.24990549914919974
856750000.0 -0.18803974744899418 -0.18657857629335992 0.09072342019703038 0.1332241534287521 0.09042897964625754 0.13310136001073844 -0.1634192877910246 -0.24890260362623823
857437500.0 -0.18674192043444554 -0.18600791431366379 0.09391604499311398 0.13065734091921838 0.09353446715058238 0.1306452077296479 -0.16327501111715728 -0.24806200539095358
858125000.0 -0.1852448097716591 -0.18595469971626089 0.09696021804786656 0.12815220432448174 0.09660272286767922 0.1281617612296138 -0.16324984871530954 -0.24708811059464728
858812500.0 -0.18391019831939226 -0.18570060090419294 0.09988942983888562 0.12546519134670003 0.0995519956611946 0.12574248816279726 -0.16342446876078134 -0.2463361711556414
859500000.0 -0.1825700795872667 -0.18563781127140003 0.10285900361504302 0.12282503012808361 0.10244899178625912 0.123212573707149 -0.1635752949955979 -0.24550986547447748
860187500.0 -0.181484244262953 -0.18569826084999827 0.10559022151564056 0.12032558846882359 0.10534995647339467 0.12063575230758197 -0.16380676998770982 -0.24499862966866312
860875000.0 -0.18023858457840097 -0.18568656699768332 0.10837923661008919 0.1174328767343941 0.10820479809680794 0.11802883729594574 -0.16417062319288045 -0.2443803271276809
861562500.0 -0.17896583307880534 -0.1859582024712953 0.11093554777929575 0.11470892640977814 0.11098628543613868 0.11547188003715869 -0.16459736591899168 -0.24410071851806486
862250000.0 -0.1778925053712726 -0.1861949959809864 0.11341965472199393 0.11193789690428284 0.11360098317809421 0.11281256774700667 -0.16502637332994377 -0.24372675972700084
862937500.0 -0.17660046342155833 -0.18621673612849596 0.11581972173071699 0.10923171820899008 0.1163288231274659 0.11012550957941863 -0.16544850445760187 -0.24351857271773356
863625000.0 -0.17547107062306724 -0.18645455768961947 0.11835794110854374 0.10644669254246877 0.11896909969608893 0.10723884052253783 -0.16591695817785146 -0.24362453951261026
864312500.0 -0.17440990722098393 -0.1866486333061531 0.12070120991287774 0.10372535529072928 0.12168948415829729 0.10447147969148728 -0.16624040082600325 -0.2437192644804852
865000000.0 -0.1733255305696693 -0.18668353974827248 0.12301719288955516 0.10080201080808639 0.12417542162564352 0.10143931604055292 -0.16678655398934955 -0.2437212866772095
865687500.0 -0.17218348964909688 -0.18674626023704133 0.12544003068127985 0.0978517077269293 0.12670233704266878 0.09836729066922333 -0.16742273836299684 -0.24401593964592233
866375000.0 -0.17102488627975854 -0.1865742569185328 0.12760479432176275 0.09495961206771016 0.12921419351093202 0.0950961300197612 -0.16747655698139954 -0.24408457372554876
867062500.0 -0.17004902882193496 -0.1864195376089313 0.12990510661921773 0.09198311143186767 0.13156731573302055 0.0918534065856763 -0.16791354759213556 -0.24439060686570832
867750000.0 -0.16881344628825623 -0.1863385539693587 0.13209364015294106 0.08888621369233915 0.13379323511304358 0.08842763345101222 -0.16801664271353658 -0.2446222707753094
868437500.0 -0.1674457955539416 -0.1860453063078942 0.13419299609484062 0.08581552547545918 0.13597807993227293 0.08502495855550386 -0.16830869376948826 -0.24479109988716463
869125000.0 -0.16638726512164762 -0.18575810067876256 0.13634652543183953 0.08253581156496105 0.1379278237378019 0.08142638035155464 -0.1682075635504111 -0.24484143997582275
869812500.0 -0.16501769913183234 -0.18543514688708676 0.13837112863936152 0.07921922093378227 0.13980480794800887 0.07775486431596837 -0.1682918126632122 -0.2445766455938824
870500000.0 -0.163518271696503 -0.18502741333058215 0.14031065241098825 0.07601331099271057 0.14150451721634486 0.07405140094096548 -0.16808060907406028 -0.24436231586444582
871187500.0 -0.16216061671775286 -0.18457974981846934 0.14228867533391507 0.07266040855441633 0.14304441845852675 0.0704234405144208 -0.16786608268839376 -0.24399019594654
871875000.0 -0.16077775126841598 -0.18420458006806872 0.14399262777346578 0.06901687914794877 0.14443018991095855 0.06664780215518062 -0.16767464339059546 -0.24307495642236945
872562500.0 -0.15942571315188453 -0.18369691563553167 0.1457967739287094 0.06543575171127718 0.14567963242068563 0.06298326405356681 -0.1673855754424762 -0.24240513685991177
873250000.0 -0.15807396883688202 -0.18334984492383508 0.1473980072618104 0.061786981423836145 0.14681079376432352 0.05940121655027611 -0.16703328874271875 -0.2413736561109589
873937500.0 -0.15670575144507354 -0.1829192634904208 0.14887062977349458 0.058023302448319325 0.14782814492008398 0.05588468680914042 -0.16684913617411756 -0.24016682211390586
874625000.0 -0.15548391380157003 -0.1825613050339995 0.1502676183123426 0.05426082980951981 0.14872943499404703 0.052440785389282235 -0.1665081551239818 -0.23868171945027067
875312500.0 -0.1543214171313732 -0.18226297290893975 0.15158206931142565 0.05040484496203351 0.14966249695087389 0.048967104368364524 -0.166304694213501 -0.23705187368615382
876000000.0 -0.15325520622418284 -0.18189165438443622 0.15267828456431826 0.046433728396682965 0.15049503972267472 0.04544531958409783 -0.1662905166589165 -0.23532167284497707
876687500.0 -0.15228251866705209 -0.1815092578287172 0.15369467224686667 0.042476785834157635 0.15134740375384226 0.042160891426231244 -0.16619635330372984 -0.2333853613262694
877375000.0 -0.15139510727872738 -0.18114506995826543 0.15459680408904913 0.03860636514721303 0.15224673738036248 0.03880615531709023 -0.16634278526862714 -0.23164935038634354
878062500.0 -0.15077543789552336 -0.18075592170864113 0.15528241045215355 0.03458570796900767 0.15310446958534793 0.03543147102846508 -0.16642414409435208 -0.22982380046067072
878750000.0 -0.1499900383164684 -0.1802778165402575 0.15594723740592573 0.030578701152141657 0.15401014062173313 0.03192660212633286 -0.1668131444333428 -0.2279344653447148
879437500.0 -0.14938614650650636 -0.17979953198970683 0.15638098452885585 0.02667331750156639 0.15481813561822252 0.028399627153057855 -0.16744565610821668 -0.22603515747441724
880125000.0 -0.14889321591583174 -0.17926759360351557 0.156737795243426 0.02280596624422474 0.1557308094549686 0.024837421239101876 -0.16800418746283846 -0.2242711265382409
880812500.0 -0.14838071887595197 -0.17892984995477862 0.15694090586692275 0.018957838234364862 0.1564874477733665 0.021173253305145922 -0.16870382229375383 -0.2227557335485508
881500000.0 -0.14777619409559523 -0.17832940961602659 0.1569892485696419 0.015207640615565926 0.15713133515680877 0.01736245922097895 -0.1695847042705906 -0.22116638003621192
882187500.0 -0.147242783199067 -0.17791364344097652 0.15695046331734314 0.01138775188157345 0.1577326229461818 0.01343220783106316 -0.17069110985687905 -0.21976116957346448
882875000.0 -0.14665940610650088 -0.17739795611612524 0.15684318192324923 0.0077117254438462774 0.15816843768149336 0.009500009498503114 -0.1717001091882476 -0.21852508302320112
883562500.0 -0.14613904002852143 -0.17714644671605792 0.15667690937746062 0.004117810037950631 0.15855842405705248 0.00549366575239122 -0.1728115084096562 -0.21748390383146468
884250000.0 -0.14535053268376705 -0.17684098966816575 0.15652530968724676 0.0005092196825235651 0.15856317544625706 0.0014495911787524957 -0.17409206511683753 -0.2165238954944039
884937500.0 -0.14457740318187914 -0.17668708273129569 0.1561449774850054 -0.00308848111612567 0.15855442591682514 -0.00268267232476318 -0.1753882986048552 -0.21572705464713193
885625000.0 -0.1437909104899509 -0.17662268517872903 0.15571138935821147 -0.006662054505734606 0.15822687917154313 -0.00681066297115996 -0.1767398255177421 -0.2151411848567645
886312500.0 -0.14307633995235586 -0.17668807359775393 0.15537486078497956 -0.010171315087871412 0.1577884071190954 -0.010841013655158127 -0.1781727022973746 -0.21472531928174032
887000000.0 -0.14211009019590826 -0.1768281825559869 0.15482036026269191 -0.013494107026089707 0.15715496587223865 -0.014785145861149174 -0.17941009234883573 -0.2142814429444052
887687500.0 -0.14122789571479516 -0.17713708639556847 0.15441437681986175 -0.016952716227242835 0.1563428216478729 -0.01868897706382812 -0.18069621433954272 -0.2138146502923358
888375000.0 -0.1402914200828926 -0.17764506600353994 0.15378538728277436 -0.0204542700898291 0.15529138816483964 -0.022520689733575374 -0.1816752478171574 -0.2135228949117934
889062500.0 -0.1394645270472732 -0.17820577422605005 0.15328041850683669 -0.02388672678973646 0.15425531108428642 -0.02621005957571237 -0.18287642208498997 -0.21329326294994885
889750000.0 -0.13856694144939186 -0.17873502559268187 0.15264693351766837 -0.027301012094509698 0.15310715921266646 -0.029720187149334245 -0.18374059510829288 -0.2129070588613746
890437500.0 -0.1377536160178209 -0.17952476457507793 0.15193132681775606 -0.030638530414093125 0.1518466529391565 -0.0330797530057418 -0.18437940513988535 -0.21250348607436534
891125000.0 -0.1368720831286459 -0.18022246002296288 0.15113890691503717 -0.03388612086073731 0.15052890294057675 -0.036416922932582765 -0.1849506650648857 -0.2122164408247963
891812500.0 -0.13606777770215467 -0.18122091792559064 0.15034350140254363 -0.037376032491974735 0.149242465626349 -0.03953637080297142 -0.18526195595763462 -0.21160223746241213
892500000.0 -0.13524265714150707 -0.18189216592368854 0.14960677544660775 -0.04072046662319093 0.14795827348691382 -0.0425769044019939 -0.18539038246984815 -0.21106689969736836
893187500.0 -0.1351578978209989 -0.1827705923900611 0.14882381844887474 -0.04442372795630143 0.14696549533367526 -0.04591606863032863 -0.1858608202671157 -0.21053724530146029
893875000.0 -0.1344071835347258 -0.18360828207367547 0.14763221996276446 -0.04774094539925466 0.14578219232234338 -0.04892568631388928 -0.18582329324191774 -0.20952455219961716
894562500.0 -0.13344873586965952 -0.18410981822603348 0.14663505124708498 -0.05130124729618394 0.14460984823644002 -0.05183119735577801 -0.18571659946696156 -0.20864171549806226
895250000.0 -0.13258582879710643 -0.18471236095098378 0.14538541968056967 -0.05465221283127197 0.14348873397129472 -0.05476496696491845 -0.1853517577251069 -0.20767561317753902
895937500.0 -0.13166364136127323 -0.18537001049883525 0.14414147431272128 -0.0580575660541815 0.14233877136079884 -0.05775610356064592 -0.18517183481887609 -0.2067284901624697
896625000.0 -0.13068448051352918 -0.1856060859439218 0.1427772356256578 -0.06147857906397124 0.14100712916514443 -0.06083302613235091 -0.18489791022101146 -0.20552548841857773
897312500.0 -0.1296542033823164 -0.18610179031537746 0.141204753976637 -0.06484606145467361 0.1398527541510122 -0.063972129434896 -0.18460066658761248 -0.20422813796414419
898000000.0 -0.1285535259980502 -0.186309433074095 0.13960502713026718 -0.06807394391795041 0.13858007342532044 -0.06717697438517975 -0.18417436110479532 -0.2031548613209665
898687500.0 -0.1274097987881806 -0.18683573304193393 0.13791248934166642 -0.07151649042896584 0.1372397749505232 -0.07036661130857111 -0.18405141424462862 -0.2019233557004238
899375000.0 -0.12621946807168927 -0.18706067080632316 0.13608828071956922 -0.07476489168535626 0.1356845153442043 -0.07366323285909922 -0.18414915879875024 -0.20059464737920535
900062500.0 -0.12491750828573925 -0.18737688707188557 0.13407066229079437 -0.0778527235517172 0.13400748307524718 -0.07684397447387659 -0.1841275481031153 -0.19946528010529987
900750000.0 -0.12378209860462211 -0.18775579437478626 0.13196679563573604 -0.08083279916107984 0.13221397623656514 -0.08006815490287456 -0.18429840223927924 -0.19800734475642007
901437500.0 -0.12264204609089759 -0.18817248777808412 0.12974505514711165 -0.08375492834810687 0.1302477668796531 -0.08319829222931174 -0.18472408451315886 -0.1967313905971854
902125000.0 -0.12146123946745147 -0.18847113187871528 0.12755169330556418 -0.08663414845870818 0.1281011713812025 -0.08626002740335595 -0.18514544299005095 -0.19519923892723326
902812500.0 -0.1204671689660011 -0.18899504552345817 0.12522336703932826 -0.08921227148855917 0.1257581545622149 -0.08916506733490112 -0.18562537134426818 -0.19391604265377813
903500000.0 -0.11944722247865873 -0.1894744232909198 0.12294378740707355 -0.09170918183779299 0.12337436741352248 -0.09197065589282648 -0.18627174987765577 -0.1926778470738622
904187500.0 -0.11873333524843192 -0.18992442625952263 0.12054332895813831 -0.0943734725888838 0.12096005883832064 -0.09468320277211721 -0.18693517283425265 -0.19143784129685842
904875000.0 -0.11808521980691787 -0.19041408418670777 0.11816882406663745 -0.0967920490532014 0.1184684716622078 -0.09717036326014643 -0.1877492733459366 -0.1904681418975942
905562500.0 -0.11748213804280412 -0.19083308315949427 0.11566374878236949 -0.09907228811381964 0.11591661986467358 -0.09956292589080522 -0.18839477329560086 -0.18939671283641646
906250000.0 -0.11730191454753124 -0.19135266818077967 0.11329196770337566 -0.10145257087322297 0.11330170675693123 -0.10178607531115443 -0.1892829562253514 -0.1885471057234091
906937500.0 -0.11704268441688473 -0.191826503783093 0.11079456554822914 -0.10349524228431392 0.1107485385120729 -0.10395632157188048 -0.190184325019331 -0.18752467516457755
907625000.0 -0.1169878962629644 -0.19204038564590695 0.10834584851467469 -0.10567931559159986 0.10822554408786629 -0.10591298149130635 -0.19096393060733097 -0.18691605782987006
908312500.0 -0.11704902572907751 -0.19237438165238094 0.10603101962669496 -0.10768847066021164 0.10574434361637715 -0.10784355451560039 -0.19162123853555854 -0.18619450538777735
909000000.0 -0.1172912601948821 -0.192498263285286 0.10354175966116894 -0.1096209387925585 0.10336299705977915 -0.1096835619830632 -0.19228350116992182 -0.18552773929779792
909687500.0 -0.11760105564055905 -0.19274699138110876 0.10112870648883988 -0.11159124145438018 0.10107821843845205 -0.11153195373648248 -0.1926112569997165 -0.1850612417898902
910375000.0 -0.11788315383560262 -0.19289108601859872 0.09875387488732441 -0.11344656530913204 0.09875271573758866 -0.11340479479216319 -0.19302963605405238 -0.18448413218979806
911062500.0 -0.11807540401076083 -0.19308929798830174 0.096489083729782 -0.11533414671430259 0.09657783116911425 -0.11526764136591451 -0.19307692317708947 -0.18403799712426436
911750000.0 -0.11843530087933156 -0.19331186286020327 0.09411385716026724 -0.11710962278167714 0.09432827366379355 -0.117101190440253 -0.1929441984049518 -0.18333326769939196
912437500.0 -0.11883544295747524 -0.19350830297461344 0.09187993415239405 -0.11885564768815236 0.09210529059395454 -0.11911018560284661 -0.1926250460900824 -0.18292199208459142
913125000.0 -0.11922698342601934 -0.19370409747205303 0.08957860685980364 -0.1205577878124198 0.08983598469852253 -0.12100007504278869 -0.1921216417886803 -0.1822573790443363
913812500.0 -0.11952156586831192 -0.19404747731996272 0.08714175381557719 -0.12246983916986004 0.08745242837825194 -0.12301395294783164 -0.19148638227443612 -0.18157474592847156
914500000.0 -0.11991075885404026 -0.1945345996042473 0.08467541854745056 -0.12422241267566866 0.08499715030272606 -0.12500337731334749 -0.19066515219012733 -0.1806968029095481
915187500.0 -0.12013978952236846 -0.19495454380389407 0.08218749004806673 -0.12611571441727296 0.08245823863932678 -0.12698656700549246 -0.18984052933881396 -0.17995195153398438
915875000.0 -0.12042950293893631 -0.19563484852819002 0.07968297465565337 -0.1278087397540446 0.07979377694429114 -0.12894307664203974 -0.1888504531847472 -0.17896809417074794
916562500.0 -0.1208380008848779 -0.1962833388450449 0.07721589662767826 -0.1297236540446647 0.076977507855731 -0.13079190430227242 -0.1878370199883167 -0.17809857316919503
917250000.0 -0.12119002873243277 -0.197035099615209 0.07459604229381156 -0.13145159294519226 0.07418052630407135 -0.13261767575796266 -0.1863646112067103 -0.17697742846339656
917937500.0 -0.12153868564490253 -0.19803341160533894 0.07185137373967777 -0.13322649801151484 0.07114105019462248 -0.1343853096763349 -0.18535592450781035 -0.17584100888327855
918625000.0 -0.12196860425051069 -0.19887336851848988 0.06917430306801432 -0.13494489905346146 0.06817859967939018 -0.13593941979542226 -0.18403749391524854 -0.1748166269297184
919312500.0 -0.12239025861723524 -0.1999244308060289 0.06619888274779644 -0.13650122420656227 0.06506991686479106 -0.13742817227008083 -0.18273204939559798 -0.17355103157752658
920000000.0 -0.12294952515100875 -0.20089761631277106 0.06321224702412573 -0.13817167565887928 0.06198180856175902 -0.13874965275820328 -0.1815043307192577 -0.17230911855214534
920687500.0 -0.12351045492927867 -0.20200628245896798 0.06039169741357975 -0.13966018879263606 0.058886842878127406 -0.13990929790710976 -0.18032757369900668 -0.17102329834845728
921375000.0 -0.123961568902663 -0.20288876425888064 0.057372490373694615 -0.14107607127854954 0.05579651521877092 -0.14099404369201526 -0.17901512519925467 -0.16956839809870788
922062500.0 -0.12458382342481154 -0.20390829308908298 0.05422693541667283 -0.14237860638240096 0.05274947255561647 -0.14206513140725838 -0.1779298955829813 -0.1681287902256698
922750000.0 -0.12501571648718368 -0.2047049253468253 0.051115173450264784 -0.14357404809350802 0.04969747756623015 -0.14294652078874823 -0.1769984967308077 -0.16643063262238292
923437500.0 -0.1256950018738587 -0.2055927333463687 0.04801627695752942 -0.14462345148754946 0.04673587577842521 -0.1438107208634047 -0.17609277011970031 -0.1649232071224215
924125000.0 -0.12604507950861846 -0.2062247143309067 0.04493262545846413 -0.14565337320733046 0.04389805206221088 -0.14468394713422641 -0.1751773507558827 -0.1633796840407255
924812500.0 -0.12640664140988236 -0.20700611771163327 0.04185817200242247 -0.14650910815399376 0.04098469428821209 -0.1454366645943583 -0.17448822956474885 -0.16163347965728572
925500000.0 -0.12691425379465926 -0.20753194433950792 0.03866204144440358 -0.14736977861284598 0.03806951419205556 -0.1462929719278343 -0.17395958584044213 -0.15987739730602052
926187500.0 -0.1271422526990179 -0.20797371508943657 0.03558110856949169 -0.1480819181824458 0.03521478372040475 -0.147003031436218 -0.17351953841947856 -0.15843000976767196
926875000.0 -0.12737948281384068 -0.2083168801494424 0.03246825140577062 -0.14889780444344383 0.03238224784937798 -0.14776267628712697 -0.17309162206445736 -0.15686039241905397
927562500.0 -0.1275345617364991 -0.208620433912703 0.02927833917051535 -0.14960371537433978 0.029569360132648867 -0.14851959592778122 -0.1725833758451111 -0.15529756922219304
928250000.0 -0.12773026548196748 -0.20887893735574556 0.026131625541982794 -0.15013247242224842 0.026678842098825255 -0.14938942016775522 -0.17229461344109812 -0.15391346899291675
928937500.0 -0.1277639557393469 -0.20901989684468303 0.023137738022716965 -0.15084165165026675 0.02372406341195891 -0.1501960903001708 -0.17209158341996733 -0.1525199466787927
929625000.0 -0.12779163782143738 -0.20911435199775402 0.019960281605508945 -0.1513457650744469 0.020844477202392932 -0.15093440429667218 -0.17150684250517936 -0.15123526752680205
930312500.0 -0.12790313373330173 -0.20936500636456953 0.01695812730238927 -0.1519994244646251 0.0177932976220604 -0.1517500087583608 -0.17129319198050957 -0.1499675490053498
931000000.0 -0.1279284260802574 -0.20936019652531399 0.013776907719464007 -0.15249800101368247 0.01464576576984884 -0.15245797231452624 -0.17057171754968248 -0.14885986251731814
931687500.0 -0.1281430298288424 -0.20943889378741637 0.010693113072830931 -0.15288830774739337 0.011454060632709115 -0.15330976047169365 -0.17008903243327525 -0.14802695266325927
932375000.0 -0.128157040593721 -0.20929825476562836 0.007504967141339643 -0.15327433860821602 0.008201818947632793 -0.15375076234659793 -0.16942600992238666 -0.14706300810032502
933062500.0 -0.12839819892163273 -0.20926756305760538 0.004241778441409556 -0.15355770192167806 0.004808613894267532 -0.1543696869626771 -0.16862542994435548 -0.1462463372832356
933750000.0 -0.1287684872127612 -0.20906547719131335 0.0011564520526374236 -0.15387959832557538 0.0014133570595657998 -0.15486826788841113 -0.16756706937796131 -0.14550882336368162
934437500.0 -0.12917700901278423 -0.20895904223936507 -0.002173285726325547 -0.15416430770061573 -0.0020731917649140855 -0.1551500655125847 -0.16672468604045773 -0.14477481191749403
935125000.0 -0.12971818430508825 -0.20867343088117934 -0.005352023353780825 -0.1543362761107098 -0.005466179265436231 -0.15533735624539502 -0.16534495658074388 -0.14430738771797447
935812500.0 -0.13016835018650413 -0.20839403962648895 -0.008523147315907958 -0.15457626178230538 -0.00907503943760509 -0.1554813292534736 -0.1643139588771444 -0.1434561027036354
936500000.0 -0.13097067619912983 -0.20823439011510192 -0.011835577963842369 -0.15469034806667753 -0.012572735735579302 -0.15557293407714967 -0.16288828580788065 -0.143095312002739
937187500.0 -0.13172469431575903 -0.20787091332520338 -0.015242882164338287 -0.15481956544002087 -0.01606700491599092 -0.15550658906815867 -0.16164614606701327 -0.14250554069168106
937875000.0 -0.13266158611714862 -0.20745308034323104 -0.018536254011348754 -0.1547040776164974 -0.01961155407214523 -0.1553040467490793 -0.15998458488758618 -0.14210340740324595
938562500.0 -0.1333624071418599 -0.2069525220724914 -0.021843813629661424 -0.15456323526646373 -0.022985361444601306 -0.15497817087362628 -0.1583966010532313 -0.14182381820457454
939250000.0 -0.13422118046757783 -0.20648353614553783 -0.025218304695674706 -0.15440279293995965 -0.026450982792802127 -0.15461698072166405 -0.1569465689177126 -0.14145354366619692
939937500.0 -0.13505217426962662 -0.20619499034949185 -0.028568074285901576 -0.15416202887980818 -0.029758886152186293 -0.1542012488960173 -0.15518872188786212 -0.14104596925777452
940625000.0 -0.13602158723871596 -0.2056724071303513 -0.03196816054211474 -0.15376595938685006 -0.03309623197076267 -0.15369899286291994 -0.15353064882564896 -0.14078707185168218
941312500.0 -0.13692437835488216 -0.20521673899555573 -0.035336190624073935 -0.1534438696239644 -0.03645502109356378 -0.1530758172565798 -0.15187403466927432 -0.14041342530369333
942000000.0 -0.13778947076520429 -0.20487108550578012 -0.038765816826827795 -0.15295254114510196 -0.03965943217182781 -0.15248302133339897 -0.15015187669219654 -0.14022131581145084
942687500.0 -0.1387149745723787 -0.20458294120940976 -0.04211494693388759 -0.15240940220031152 -0.04290417203605172 -0.15189766866397336 -0.14857264711625603 -0.13988336725805597
943375000.0 -0.13974314135884022 -0.20421790369194792 -0.045542508411836664 -0.15182948153019873 -0.046196377897264905 -0.15116814126173125 -0.1469362108025923 -0.13957047742165668
944062500.0 -0.14052743003493295 -0.20399196577673603 -0.04890329789806274 -0.15106275493272434 -0.04944816694657603 -0.1503757313315617 -0.14554307140576578 -0.1390192152353332
944750000.0 -0.14136714391079036 -0.20390017233194344 -0.05232690898033194 -0.15023852153894465 -0.05265999195298924 -0.14961316425837737 -0.14397744159598178 -0.13896003223022388
945437500.0 -0.14232440665121554 -0.20391266834617552 -0.055671142866121036 -0.14929635620172152 -0.055991818314954894 -0.14868034544745284 -0.14266008488926898 -0.13854147532717045
946125000.0 -0.14306477114498156 -0.20380986844531707 -0.05904762453767841 -0.14837235888981085 -0.05923240844359782 -0.1477276741215012 -0.14152643370131845 -0.13803956637480927
946812500.0 -0.14406532610767755 -0.20363589124838366 -0.06251824653250834 -0.14738199464769056 -0.06261057389063193 -0.14681590780012313 -0.14017405192028648 -0.13749428098441674
947500000.0 -0.1447923869757715 -0.2037055398690479 -0.06586520987374737 -0.1463411841874949 -0.06591858681583634 -0.14576025240337115 -0.13918968420721176 -0.13724703695715787
948187500.0 -0.1459886958934303 -0.20385073157875827 -0.06927543023396944 -0.14505124739974037 -0.06924729694406365 -0.14473276745907576 -0.13829463379438936 -0.13690663888308535
948875000.0 -0.1464805879854152 -0.2040828780372588 -0.07243845321623701 -0.1438536683168495 -0.07258214396676498 -0.1434336699895811 -0.1375018951180889 -0.13680354025963928
949562500.0 -0.14741889131163016 -0.20430494104995123 -0.07583586876614327 -0.14247611079737232 -0.0759113694660069 -0.14218023643937786 -0.1369051671080338 -0.13667301929045772
950250000.0 -0.14825130220139654 -0.2043799190668327 -0.07912944863766125 -0.14110198984142566 -0.07918660752407014 -0.14078735618192795 -0.13636818891752417 -0.13661166339296177
950937500.0 -0.14900378876318882 -0.20448256295088563 -0.08241557078773433 -0.1395202571274323 -0.08255299227840682 -0.13933511346009927 -0.13583719870890296 -0.13667888621933164
951625000.0 -0.14966735770391723 -0.20463610900891513 -0.08566060073513157 -0.13789894998355706 -0.08580626668708322 -0.1377965069229743 -0.1355477211101326 -0.13694292717784584
952312500.0 -0.15016981638854185 -0.2049727846817535 -0.08883738334907676 -0.13635836706097068 -0.08906137824112847 -0.13611890898959017 -0.13511807247618016 -0.13737776498607163
953000000.0 -0.15087884194850956 -0.20513433319129587 -0.09212597510045739 -0.13454433186793227 -0.09234798470865799 -0.1344209714155635 -0.1348752921465555 -0.1379223054086072
953687500.0 -0.15130784021232055 -0.2052800740448784 -0.09527248018335385 -0.13275388900834656 -0.09551847694400291 -0.13257536374858642 -0.13460508860455678 -0.13849244501761548
954375000.0 -0.151690483037401 -0.20558075848331278 -0.09847688451907312 -0.13099274340975323 -0.09867493048928107 -0.13067454125099848 -0.1344988484924565 -0.13926531836106842
955062500.0 -0.15205668327935487 -0.20563069203661025 -0.10146940284244445 -0.12895000269887874 -0.1017723328861895 -0.12876489855931345 -0.1342337191025058 -0.140055751014997
955750000.0 -0.15245797899509214 -0.20542211889440984 -0.10463628006820648 -0.12688790682479353 -0.10490442761584727 -0.12660925389147834 -0.13435015948502504 -0.14095699936781217
956437500.0 -0.1526728044181184 -0.2057387016485836 -0.10779096490490743 -0.12485732016305491 -0.1078982062170219 -0.12459146713905293 -0.13398548029176488 -0.14211753973033117
957125000.0 -0.15302682886184735 -0.20582471736186186 -0.1107199460385309 -0.12266330376514703 -0.11091528580386859 -0.12233108649982719 -0.13386472717327372 -0.14320076117748937
957812500.0 -0.15315924587601124 -0.2058253219993607 -0.11367716356916799 -0.12044742445801389 -0.11389425669954366 -0.12021730312142033 -0.1335790775074795 -0.14446915568321192
958500000.0 -0.15332378163499147 -0.20568717779515036 -0.11673749823178771 -0.1180620541462432 -0.1167662474047699 -0.11776560302267812 -0.13334308447667856 -0.14567278578544057
959187500.0 -0.15344846774750664 -0.2056569464284031 -0.11955824517332803 -0.11581238835747712 -0.11970982579931515 -0.11545808163582973 -0.1328546615055692 -0.14695809218281342
959875000.0 -0.15367296551084142 -0.20542682387044298 -0.12242400838416755 -0.11337712063546053 -0.1225610794819587 -0.11300674081718538 -0.13254415495719368 -0.14849293486926524
960562500.0 -0.1539230347746382 -0.20546597216260912 -0.12532458163274282 -0.11076283422492385 -0.1254038389454542 -0.11052903266096206 -0.13191527326733318 -0.14973675580732385
961250000.0 -0.15415255144750453 -0.2050909204473963 -0.12807753748789624 -0.10820208182614276 -0.12820947249161016 -0.10791280300858694 -0.13123110488622491 -0.15130104060830452
961937500.0 -0.15415361582853174 -0.20477880991348804 -0.13076931304987396 -0.10555392768541061 -0.13080698640913635 -0.1052597122504174 -0.1307369147251639 -0.15262695844207108
962625000.0 -0.15450710308982307 -0.2044959931190002 -0.13348419443250514 -0.102757530038735 -0.133502439280438 -0.10249420589847642 -0.12999895806359543 -0.1539292919095543
963312500.0 -0.15474739641983104 -0.20417501042240424 -0.13606116153322972 -0.1000216099873849 -0.1360821706039483 -0.09968762677640852 -0.12925409419399153 -0.15522338972632943
964000000.0 -0.1551478170735701 -0.20371588291272202 -0.13859865481164566 -0.09708275669038506 -0.13865935346149785 -0.09676908288849187 -0.12856585761600237 -0.15646291108883476
964687500.0 -0.15534741073728944 -0.20334749882469766 -0.140950615034745 -0.09400646231602565 -0.14113978233342628 -0.09376557218279989 -0.12754641100365907 -0.1575152902235936
965375000.0 -0.15568039688710508 -0.20302174978614781 -0.1434088663191514 -0.0909348465765885 -0.1434618627073358 -0.09079287592170833 -0.12657375374328003 -0.15842027686058577
966062500.0 -0.1560902750247163 -0.2026702019008918 -0.1457942820140262 -0.08780651052238847 -0.14588633431591236 -0.08762621900513115 -0.1257798460773202 -0.15953606952360128
966750000.0 -0.15654191402776269 -0.20236286269174752 -0.14802192309022416 -0.08466011978768548 -0.14820387684644054 -0.08445001875579745 -0.12493652393521991 -0.16032538694453272
967437500.0 -0.1570835576727558 -0.20195657190377825 -0.1501772755797476 -0.08128316849683138 -0.15035178620968231 -0.08121924784552692 -0.12425376396905852 -0.16104458847441605
968125000.0 -0.15763865683502531 -0.20173720363467257 -0.1521585070538615 -0.07806169588391094 -0.1524693173516108 -0.07799596102589572 -0.123580477311271 -0.1617529568442489
968812500.0 -0.15837409325779914 -0.20153849834627446 -0.1542437051595084 -0.07477217666252733 -0.154538439234888 -0.07468513311732154 -0.12316233837107332 -0.16223577791855173
969500000.0 -0.1591325544117159 -0.2012804398778868 -0.15622832147592244 -0.07124553867135844 -0.15662363789030476 -0.07127559936642773 -0.12290228896858334 -0.16294224796875836
970187500.0 -0.15991659267915984 -0.20130779172146526 -0.15820316697527406 -0.06788775744542022 -0.158511719296037 -0.06792811871549369 -0.12248838380974789 -0.16322384013621896
970875000.0 -0.16084505941965663 -0.2013132338756819 -0.1600746269602974 -0.06445654764196479 -0.16045887820371102 -0.06460587717717955 -0.12258312988239681 -0.16371041283536222
971562500.0 -0.16193823462427187 -0.2012420852035546 -0.16187557327802987 -0.061099611638171104 -0.16229941692368308 -0.06097926222328212 -0.12256128311336931 -0.164100816816948
972250000.0 -0.16292957520628717 -0.201432091854309 -0.16363601508493056 -0.05758714168876659 -0.16412701742568497 -0.057468684424561364 -0.12283659683178624 -0.16440563148249182
972937500.0 -0.16412135710882955 -0.20149336438716406 -0.16530055635570884 -0.05405044937510754 -0.16581346426420002 -0.05397600653443853 -0.12313964485421601 -0.16489889684852624
973625000.0 -0.16541028962833695 -0.20156464217420875 -0.1668996668698575 -0.050496040729589436 -0.16750984785271358 -0.050184997583616935 -0.12382347115232983 -0.16525092027917404
974312500.0 -0.16665904968331077 -0.2017658076372665 -0.16850764137011245 -0.04687973648943646 -0.16913643997910016 -0.04644756269815398 -0.124477316214672 -0.1656285422090275
975000000.0 -0.16794195763794495 -0.20197665115468594 -0.17010823682490453 -0.04318727364534938 -0.17072532397317292 -0.042590401136382766 -0.12532704400974098 -0.16598856486058358
975687500.0 -0.16931642479556802 -0.20179966334125518 -0.1717035775916273 -0.03935278262701836 -0.1723180179136416 -0.03856192406627792 -0.12624074447080225 -0.16646593507242602
976375000.0 -0.17053671015055968 -0.20198770726400403 -0.1730506852360642 -0.03546975993183294 -0.17374315304953203 -0.03454617208799837 -0.12702716962233396 -0.16682355495087545
977062500.0 -0.17184214926828165 -0.20210666381732392 -0.174393744678873 -0.03150849316951681 -0.17512191868938107 -0.03043756337340941 -0.1279816908202767 -0.16721418996166487
977750000.0 -0.17321646957879144 -0.2022383037560709 -0.17565803663973373 -0.027487715585003104 -0.17640307685433718 -0.026240343061606875 -0.12901212227119582 -0.16774123552651896
978437500.0 -0.17437958425531766 -0.20231336210224177 -0.17696938049569214 -0.023232540477307308 -0.17739644558183634 -0.02187666933111131 -0.12987976709863563 -0.1682634403093696
979125000.0 -0.17558973687449006 -0.2024935506516883 -0.17793188505384233 -0.018974947417880677 -0.17830398018220023 -0.01752947111599235 -0.13064161289476575 -0.16876417444963573
979812500.0 -0.17659513405751762 -0.20243307067520927 -0.17896533259491398 -0.014700265503740265 -0.17907263559408032 -0.013042014024443577 -0.13145187384037924 -0.16953268358290713
980500000.0 -0.17775302900625628 -0.20265533564136107 -0.17995454994525778 -0.01017012444882583 -0.1796592111297192 -0.008485865269921957 -0.13202221121646557 -0.1701059503242059
981187500.0 -0.1787833581745312 -0.20283290461827055 -0.1806509054723426 -0.005548851610892905 -0.18008296984976138 -0.0040729683549016096 -0.13236118177328404 -0.17081407329854464
981875000.0 -0.17969448680258948 -0.20291653268281445 -0.18132645709085998 -0.001051670073498892 -0.18026211665950642 0.0004397851613991369 -0.13264813847480159 -0.1716238335917375
982562500.0 -0.18109449699451988 -0.20294687467120137 -0.18159033496374744 0.0036431156504059823 -0.18049833720198868 0.004931230706348718 -0.1328827807377374 -0.17235616998743275
983250000.0 -0.1818920879631926 -0.2031016086557559 -0.18200955560586546 0.008425381175784098 -0.18038268757585135 0.009335710418611674 -0.13272346868664495 -0.17304558455531455
983937500.0 -0.18286665848222877 -0.20314678945230896 -0.18196936697151284 0.013209561321238671 -0.1802748476314668 0.0137380517267527 -0.13267219297877375 -0.1737476159774191
984625000.0 -0.18426568287108122 -0.20329566164784893 -0.1817796375857995 0.01805952310667744 -0.17985411325298495 0.018195238468205203 -0.13233675992428517 -0.17443293755181416
985312500.0 -0.1854638133837481 -0.2030678648628107 -0.1813225998622807 0.022748352661965742 -0.17941209359002075 0.0225051039406877 -0.13189405777823782 -0.17508379389414008
986000000.0 -0.18642064829884464 -0.20275695025810136 -0.18075191300037993 0.027514896174814712 -0.17886392150071045 0.02679756151968932 -0.13144234046568967 -0.17543938919169907
986687500.0 -0.18776698559636332 -0.2024371216737463 -0.17996599654842854 0.032185260869141565 -0.17828601357400628 0.031051211124875792 -0.13087361448572157 -0.175882744417371
987375000.0 -0.18899530677471915 -0.20187526351906188 -0.17894751344022858 0.03670237515673528 -0.17761330094856806 0.03525484039905653 -0.13024248152782583 -0.17615755233092645
988062500.0 -0.1901249527335157 -0.2013015584401913 -0.1778002136575798 0.041201092241794086 -0.17696089874611742 0.039488579779886436 -0.12979336933883207 -0.17654613604528227
988750000.0 -0.19154824298355727 -0.20047056674372565 -0.17657821534435608 0.04573224180878492 -0.17630697187631694 0.043694937379277814 -0.1294711668103236 -0.1764505969410985
989437500.0 -0.19278751325692844 -0.19943681518033088 -0.17519091477158072 0.04997554805139132 -0.17549331943138413 0.04794562490789742 -0.12917889677609634 -0.1763539779032976
990125000.0 -0.19411783116281878 -0.19810798058387255 -0.1737525470654817 0.054189145936237304 -0.17463328362957767 0.052277360593522657 -0.1291161106119096 -0.17617337589305798
990812500.0 -0.1949941014535318 -0.19688093093510037 -0.1722986415769995 0.05829480876784373 -0.17361689523972593 0.05656035405940392 -0.12917348189509353 -0.17583089589540082
991500000.0 -0.19616597483267809 -0.19540966330178686 -0.17058492212756507 0.062170379004317315 -0.1726073091554634 0.06100750245709947 -0.12925044945756028 -0.17539149626515682
992187500.0 -0.19699635340118474 -0.19381153848445082 -0.16888584117384497 0.06606238640415775 -0.17138743506602108 0.06537107663860071 -0.12967029542891845 -0.17491226811895236
992875000.0 -0.19794543106029042 -0.19212389477473174 -0.1673319172537846 0.06995917293552893 -0.17005547878877317 0.06995148286973638 -0.13033707730809221 -0.17433349887814406
993562500.0 -0.19868737946013953 -0.19033069661740482 -0.16571762379839283 0.07382345917165108 -0.16840248490382465 0.07425400417399826 -0.1309068633429745 -0.17371287993146275
994250000.0 -0.19950480227233638 -0.1886560215613387 -0.16402183509265936 0.07755774730046613 -0.1667023858773663 0.07870800184832596 -0.13177226888477583 -0.17289338973022958
994937500.0 -0.20020154241110383 -0.18694325458486305 -0.16235677416072306 0.08134934837986771 -0.16471320486624222 0.08308834721826008 -0.13287349929715678 -0.17215627566481587
995625000.0 -0.20083249378980053 -0.18529528638871104 -0.16055738794300364 0.08516297615314593 -0.16254885053889806 0.08745320208567946 -0.13403918074144677 -0.17146191202013758
996312500.0 -0.20149502555708276 -0.18367729442363012 -0.15874357154633714 0.08890462231747492 -0.16011319623082368 0.09164450717960963 -0.13530323231558877 -0.17063297230890692
997000000.0 -0.2022813051548141 -0.18204337989475344 -0.15684204905327218 0.09268433139005872 -0.1575383714281321 0.09575827084025881 -0.13666577503250815 -0.17012637513025045
997687500.0 -0.20294508853768964 -0.18063467044825443 -0.15471446441609765 0.09639652845506502 -0.15478434967741048 0.0997692924924738 -0.13786424243494919 -0.16952697037958453
998375000.0 -0.20385191850118678 -0.1791121926649013 -0.15250015879083048 0.10021360597557659 -0.1518965792119381 0.10358563066840817 -0.13922865963680017 -0.169121767368371
999062500.0 -0.2047429089739267 -0.17778360399562151 -0.15035823833610354 0.10405016419268902 -0.14891841581557877 0.10725351253210094 -0.14050619024614325 -0.16893226059326083
999750000.0 -0.20558493232010627 -0.1764276938271763 -0.14792149423582657 0.10771463702799156 -0.14582889811600536 0.11064027295926744 -0.14164996833458213 -0.16879538374810768
1000438000.0 -0.2066945486702561 -0.17518151245996533 -0.14543920599294646 0.11153563602955918 -0.14266894288545262 0.11392637123761058 -0.142850210314358 -0.16883634932087122
1001125000.0 -0.20785751421713003 -0.17360576403756203 -0.14262534058629797 0.11529552327495202 -0.13963184669039894 0.11711990642156091 -0.14387159549774625 -0.16923090714668346
1001812000.0 -0.2089462682878311 -0.17222084936454682 -0.13988075836005381 0.11894617728019861 -0.13654901266902575 0.12010528920724621 -0.14479349176112452 -0.16966756728981097
1002500000.0 -0.21002938767462 -0.17076594113658455 -0.13689653904130944 0.12257111273291262 -0.13339951974954725 0.12295872244222901 -0.14549880116030425 -0.1702099737897205
1003188000.0 -0.21100639487748812 -0.1692700533769267 -0.13367721429998758 0.12597195972600642 -0.1303067518091962 0.12566332742761893 -0.14605666943271592 -0.1710566259343236
1003875000.0 -0.21212674630152462 -0.1678208667318713 -0.13034538521736694 0.12937424868788386 -0.12728677310941236 0.1284226549452183 -0.14662438447397969 -0.171898364238375
1004562000.0 -0.21274512810705098 -0.16617747399676386 -0.127011568627405 0.13270908278675325 -0.12421948360781894 0.13097200512558518 -0.14704702407149603 -0.172954527595925
1005250000.0 -0.21357853833652315 -0.1647298504678857 -0.12348604471789172 0.13576249242836916 -0.1213756911734328 0.1335074156729882 -0.147205342721179 -0.173869179351236
1005938000.0 -0.21425968302862783 -0.16312703877257165 -0.11977251175799776 0.1386666959409218 -0.11826753300682023 0.13614270439733747 -0.14741820580055226 -0.17496251622849177
1006625000.0 -0.21457446992479692 -0.16161050091802162 -0.11611470328094117 0.14145456105430934 -0.11520450895185612 0.13868142921984714 -0.14748473825862465 -0.17576934274825573
1007312000.0 -0.2148620793379459 -0.1601371895002592 -0.1122456628834639 0.1440451904123621 -0.11212291669201215 0.141237999241228 -0.1475455391592787 -0.17657140354949774
1008000000.0 -0.21504141655695508 -0.15865551512254256 -0.10840324510031343 0.14657702247651253 -0.10892620305095624 0.14383519191955552 -0.1475142511680905 -0.17728147666778507
1008688000.0 -0.21502836008298998 -0.1571998294605341 -0.10445815607134873 0.14894037432591578 -0.10563564994877629 0.14642271234405554 -0.1477033845467869 -0.17795090207329362
1009375000.0 -0.2148179477818769 -0.15591662592618039 -0.10048423423883594 0.15104396893502242 -0.10217371769132999 0.14901699168047589 -0.14789205458681598 -0.17824967717657286
1010062000.0 -0.2145132837646229 -0.15480410251943552 -0.09646380098696553 0.15291812071108093 -0.09870658409636039 0.1515939870096413 -0.14782715150865805 -0.17857100353724015
1010750000.0 -0.21413794186832857 -0.15371413173458157 -0.09257403673752145 0.15471636189182508 -0.0950011391425257 0.15409392849895923 -0.14820681102276242 -0.17872236512393244
1011438000.0 -0.21386464643764497 -0.1527706738168614 -0.08866581404529017 0.15650552877736332 -0.0911246810164491 0.15636092211026886 -0.1485493683788553 -0.1786215299988423
1012125000.0 -0.21332386982045043 -0.15183646439910173 -0.08485385198213981 0.15800946800670965 -0.08715263642794943 0.1586786595211927 -0.14905726411158568 -0.1783430140210679
1012812000.0 -0.21292965201314326 -0.15089198130152123 -0.08096089680273524 0.15944040917184168 -0.08305889334722309 0.1607187527432262 -0.1495186746802176 -0.1778490262610963
1013500000.0 -0.21248591074977088 -0.14999248033612606 -0.0772590892919494 0.1608256928453618 -0.07881874616660445 0.16253762355939028 -0.14995945278523704 -0.17721650146454698
1014188000.0 -0.2121392264189499 -0.14906893113038727 -0.0734271072434251 0.1620934740785526 -0.07461651117904565 0.1642970406053444 -0.15082739608440757 -0.17659187023366088
1014875000.0 -0.21177830561274177 -0.148078221861126 -0.06964844136207483 0.16330622617515925 -0.07030004535112853 0.16570001546727608 -0.15175150474928498 -0.17577536407231098
1015562000.0 -0.21149595427547088 -0.1468650424578177 -0.06583990409591173 0.16437559793586548 -0.06592715003599797 0.16697368249060895 -0.1526716525563178 -0.17493913239880313
1016250000.0 -0.21124391402057885 -0.14572458548998857 -0.06207559569807303 0.1654825648088202 -0.06173628453017909 0.1680032468179969 -0.15382061180512313 -0.17400778525635183
1016938000.0 -0.21094441389870439 -0.1444459071261327 -0.05837656291042359 0.16660914008569888 -0.057482493163684686 0.1688338520285328 -0.15502479729796453 -0.17326300811668316
1017625000.0 -0.210532102560243 -0.14295609989038977 -0.054653659624747074 0.16757457299133327 -0.05330926753886338 0.16954206029812413 -0.15616160625960904 -0.17246752658906178
1018312000.0 -0.21017765567263139 -0.14157343081827517 -0.05081722164634428 0.16853598132727665 -0.049311158861775596 0.17005316773569953 -0.15731047594322228 -0.17176362526035377
1019000000.0 -0.20983171406245943 -0.13985277729441903 -0.04712548339263055 0.169362811248328 -0.04527302301119287 0.17070439723921582 -0.15871637939924546 -0.17138309641938215
1019688000.0 -0.20941815241182554 -0.1383408131614419 -0.04344689877921287 0.1703219707019949 -0.0414610400839402 0.1710965906204722 -0.1598345169489035 -0.17105071725139068
1020375000.0 -0.20885605532424104 -0.1364580856453119 -0.03966004922413842 0.17096807301366151 -0.03769989739250246 0.1714225715845134 -0.1608612548229861 -0.1709512402393895
1021062000.0 -0.2082036805748612 -0.13455486922759552 -0.0357879192609429 0.17166036104135157 -0.033936349311002874 0.17167004670905567 -0.16214558726816014 -0.17088585223827463
1021750000.0 -0.20758547390087487 -0.13285518284001546 -0.032016767328552485 0.17243978770347662 -0.030186862397924584 0.17219467007304323 -0.16325493912110603 -0.17139035426365384
1022438000.0 -0.20683688554874555 -0.13105534507474847 -0.028202912914486813 0.17301795817909654 -0.02657871151929594 0.17243828483112467 -0.16412631477986653 -0.17192575383110567
1023125000.0 -0.20610772928618432 -0.12940829529307127 -0.02438656093829492 0.1735912430705419 -0.022960856492582622 0.17279655081104703 -0.16509753940040234 -0.17244477373862183
1023812000.0 -0.20527015004812216 -0.12775547352393776 -0.020333835246436345 0.1739560344876156 -0.019218745673599755 0.1731131712728001 -0.16567241495853802 -0.17305250838294103
1024500000.0 -0.20455970949969074 -0.12627483078091675 -0.016500250167388396 0.17430437245474478 -0.015619666185376899 0.17341464499962803 -0.1662892194953278 -0.174200456348078
1025188000.0 -0.2038016652849953 -0.12495739524982682 -0.012568384156559762 0.1745949663429928 -0.011817592198950226 0.17378276470582357 -0.16681095817276984 -0.1750283800343045
1025875000.0 -0.2031621561340941 -0.1235006138536243 -0.00859095843658844 0.17477143832941017 -0.008046274601945737 0.17387888637215398 -0.16710608570690894 -0.17597811615979514
1026562000.0 -0.2025086972797135 -0.12240199234292255 -0.00462189094552694 0.1748254026539897 -0.004162399470670009 0.17399829826038568 -0.16753128131135853 -0.17690267042201324
1027250000.0 -0.20209069799869495 -0.12129612748183698 -0.0004846051622038855 0.17476531392480782 -0.0002115486025248506 0.17409248475952885 -0.167720557789586 -0.1776592818867632
1027938000.0 -0.20159252285635892 -0.12032150089299173 0.0035140148859803574 0.1746702768306635 0.00370435555607183 0.17403242636638733 -0.16778855793712943 -0.1785168128320149
1028625000.0 -0.20131613572400137 -0.11935558563163215 0.0076365164432288 0.17435488686780312 0.007672609540317362 0.17384205386405888 -0.16770073724811685 -0.17910424284543977
1029312000.0 -0.20122393494557705 -0.11861344362051367 0.011664953289632192 0.1738940200026772 0.011730486849182199 0.17360304875993723 -0.16790673853707266 -0.179570543683905
1030000000.0 -0.20102443311489998 -0.11783612536036034 0.01570386640681734 0.17353221677448125 0.01571797117941196 0.17312112546085617 -0.16780600784497746 -0.17990828957546098
1030688000.0 -0.20096764657858546 -0.11698129965459111 0.019704056032222028 0.17279339678062305 0.019713738040237894 0.17248733041210856 -0.1677036244846558 -0.1801281377206955
1031375000.0 -0.20095038121700895 -0.11625025472015756 0.023742874739625833 0.17196144505030148 0.023742623765304283 0.17170031710454856 -0.16776131370974007 -0.17998129264661916
1032062000.0 -0.20103821713873699 -0.11566686550579039 0.02748187261294076 0.17099679918257857 0.02764466125951921 0.17090334876047517 -0.16763834269772995 -0.17961973614193844
1032750000.0 -0.20098565653853132 -0.11480049351072291 0.03139703038394047 0.16995520356788849 0.031404795556415246 0.1698833510055707 -0.16763286004687983 -0.17923863831015865
1033438000.0 -0.2009466608563024 -0.11413773163524771 0.03511477732603621 0.16895907534571014 0.03510721957151914 0.16863498909681 -0.16786674064004764 -0.17851260057024307
1034125000.0 -0.2007618829303857 -0.11341080863124108 0.038744222142957085 0.1675744138880153 0.038783526360627714 0.16747625776207664 -0.16787909211113403 -0.17776901893214467
1034812000.0 -0.20065671287959508 -0.1127013219884439 0.0423163479664871 0.16638424981846367 0.042328175992523046 0.1661700951031117 -0.16787968809609846 -0.17674133416465165
1035500000.0 -0.2004227840679071 -0.11225195420154759 0.04585247276687791 0.16502111087265264 0.04571588149346303 0.1647873300419849 -0.1684280590296414 -0.17576684439364515
1036188000.0 -0.20002907087523736 -0.11164534210430577 0.049333087580407095 0.16352926410541457 0.04913590856844793 0.16335615701472833 -0.1688245807547045 -0.1745008611767527
1036875000.0 -0.19946491143075012 -0.1112712516886319 0.052566797013831996 0.1619578820534315 0.05242510212742884 0.1619281168028918 -0.1691649762203721 -0.17350969030376123
1037562000.0 -0.19884082936088793 -0.11090199541425942 0.05587930031385538 0.1604912783015711 0.055663581161284455 0.16042728742804852 -0.1699271314013263 -0.17240643471204162
1038250000.0 -0.1983033237635143 -0.11066441338324934 0.05903682579478141 0.15886278220535202 0.05891046987496652 0.15903349854522322 -0.17064511217207104 -0.17100273970289498
1038938000.0 -0.1974612648860909 -0.11050540739370389 0.06225620226814713 0.1573025432065868 0.06201004849010314 0.15746298724309296 -0.17141749713971682 -0.1701385572106779
1039625000.0 -0.19678461760886634 -0.11039384392135546 0.06540785937815422 0.15570921030718454 0.06520868961134346 0.15604542659860685 -0.17246833432234268 -0.16916749442507276
1040312000.0 -0.19598058328848106 -0.11036797243787388 0.06849053962458271 0.15408657351675573 0.068365814680022 0.15457496632959283 -0.17348841990496325 -0.16844931243692984
1041000000.0 -0.1951449271710991 -0.11044916676565038 0.07154108297461353 0.15249809660504396 0.07158748731529221 0.15312986473381449 -0.17461985106462022 -0.16801668762775046
1041688000.0 -0.19439495084753008 -0.11056424067983243 0.07457460157234266 0.1508159575271211 0.07479565086408937 0.15156501021868912 -0.1754892118903362 -0.16755792919151397
1042375000.0 -0.19353555737855457 -0.11068560926673615 0.07767323228895562 0.14914814931677353 0.07792554662019582 0.14989334159785314 -0.17685443451040825 -0.16737938997229126
1043062000.0 -0.19270787444958917 -0.11080717024544955 0.08071283405372418 0.1473197937996588 0.08113072554615798 0.1481768913460289 -0.17783526722798362 -0.16727328075715445
1043750000.0 -0.19194879647551294 -0.11097397345596809 0.08360326343578313 0.14550885573904293 0.08442351514503145 0.14645856421340595 -0.17884906197620992 -0.1673875182155384
1044438000.0 -0.19125755109054374 -0.1110686489488958 0.08658337818566231 0.1436734672596849 0.08751995696637699 0.14443973341307384 -0.1798920034575678 -0.16735286542669228
1045125000.0 -0.190557229230997 -0.11106549394531896 0.0895279741783648 0.1418198349658887 0.09062041481179196 0.14244660181644012 -0.18079606752458777 -0.16775926444281547
1045812000.0 -0.18992365603003553 -0.1109467550781363 0.09243509065911297 0.13979262123754754 0.09377703345644324 0.1402405256995031 -0.181741367704704 -0.16812664288508491
1046500000.0 -0.18928003577263364 -0.11075734451041294 0.09541169093532112 0.13766824822664073 0.09682689773683383 0.13800932515674108 -0.18256640847468453 -0.1683340778807424
1047188000.0 -0.18865704434550254 -0.11048752271834551 0.09827796470237844 0.13563944088977659 0.09978129937606532 0.13557356841152907 -0.18339732214994617 -0.16873141069535352
1047875000.0 -0.18804026231956966 -0.1101035933065269 0.10118836111626862 0.13337252639747868 0.10269847382110135 0.13315613322471573 -0.18416981066778126 -0.1690267258736232
1048562000.0 -0.1875131908275073 -0.10973105917771958 0.10405861908898245 0.13124059193633575 0.10547873829269971 0.1306160606573153 -0.18463410256521606 -0.1693065101569079
1049250000.0 -0.18690122568977163 -0.1091048494785283 0.1068882028800452 0.12882510750704296 0.1083048716079217 0.12789130308978838 -0.18552477988251537 -0.1695036677044595
1049938000.0 -0.1863383498806752 -0.10840547617952717 0.1095460599921132 0.12626064231263537 0.11082469225083176 0.12512229714519477 -0.18595009769532336 -0.16963939725116695
1050625000.0 -0.18574415393223473 -0.10784056869588475 0.11230340230115846 0.12374882505008575 0.11337295544105945 0.12243941544697685 -0.1866267447919557 -0.16963768581263894
1051312000.0 -0.18516979596360367 -0.10710456272146286 0.11486994984075546 0.12113699481147917 0.11579013910873752 0.11975074422020825 -0.1871193797359623 -0.16960827767402128
1052000000.0 -0.18464958758622882 -0.10637774189509613 0.11750982107856706 0.11854866116545305 0.11807914463045387 0.11697748026560117 -0.18765239308508141 -0.16923882037399562
1052688000.0 -0.18414968399808554 -0.1056982978071176 0.1199865122956928 0.11588187411739488 0.12029981114131881 0.11426256265524294 -0.18823373223444306 -0.1689405369483223
1053375000.0 -0.1834902341125533 -0.10508214134549537 0.12235389160431781 0.1130959710422702 0.12245392471714675 0.11156278427819269 -0.1886540418028929 -0.1685222532152538
1054062000.0 -0.18313361602866127 -0.10438236652209455 0.12471244254158981 0.11017302329706985 0.12463273655703412 0.10881122226680554 -0.1893499409158224 -0.1678297769536394
1054750000.0 -0.18295087652042452 -0.10369167886158165 0.12700226598714087 0.10736479039590992 0.12655161556215364 0.10615511976676793 -0.18990087686711404 -0.16721012930574625
1055438000.0 -0.18248752142174426 -0.10303821256449908 0.12901884383858903 0.10446562773883661 0.12847219868251708 0.10343455982319984 -0.19042634313927206 -0.16632653129691463
1056125000.0 -0.18231777205650648 -0.1027109422642699 0.13113515466882245 0.10153053315012407 0.1303020187147968 0.10066654410698513 -0.19119987492608992 -0.16546947213996138
1056812000.0 -0.18224869063083352 -0.10215992658395497 0.13309213629624328 0.09852601402187543 0.13230240823114198 0.09800256890034052 -0.1921508419373854 -0.16455590297581618
1057500000.0 -0.18211416857443916 -0.10153216343680199 0.1349964603630486 0.09550675831600067 0.13403333941473963 0.09521433857669753 -0.1928912679020898 -0.16354269368756805
1058188000.0 -0.18204168958104774 -0.10118871240534126 0.13686025413456365 0.09244088719974632 0.13586804154474963 0.09244730874927959 -0.1939619114105474 -0.162595231538255
1058875000.0 -0.18219541171902928 -0.10071557703567863 0.13865599946197707 0.08932759909311709 0.13781122471348947 0.0894646638167488 -0.1951994117889621 -0.1615305024271047
1059562000.0 -0.1823729904409027 -0.1005262144642393 0.14034682438880372 0.08630312980945863 0.1395361114661183 0.0865359615071197 -0.19628416311963998 -0.16062396999314954
1060250000.0 -0.18253651296830134 -0.10024993235976186 0.14191417854065785 0.08306947953777112 0.14139344162717668 0.0836066475953827 -0.19767004202099983 -0.15958147578748033
1060938000.0 -0.18272923994070311 -0.10003838063318715 0.14362553925203458 0.08003562479755713 0.1430776349601185 0.08059778306569093 -0.1990795339908918 -0.15891358317154594
1061625000.0 -0.18298307835987898 -0.09997740832016726 0.1449285071381707 0.07677709870326983 0.14478759255207874 0.07752366940355378 -0.20047168275727545 -0.15814985353972055
1062312000.0 -0.1833375103384419 -0.09984544033002565 0.1463543714094866 0.07363110741979358 0.14635801234820378 0.07431398747086718 -0.20203268553566553 -0.15746288153737006
1063000000.0 -0.18336025567414801 -0.0999125549658728 0.1477019581076207 0.07043083555295006 0.1479635154978467 0.07102619300244457 -0.20353207869670192 -0.15699319707526802
1063688000.0 -0.183524668052117 -0.09970259113220006 0.14897071695487915 0.06728988319190252 0.14941991405403354 0.06786430119582534 -0.20522986710946997 -0.15673827889247324
1064375000.0 -0.1834048376601801 -0.09984756635717175 0.1501132884612058 0.0641043104477785 0.15085063563107814 0.06456215365597683 -0.20678368302490047 -0.15645964313916946
1065062000.0 -0.18369499331988834 -0.1000046304712173 0.15124464501910265 0.06082643508909548 0.15211721230919692 0.06121009397544295 -0.20818346944977703 -0.15636365302103852
1065750000.0 -0.18375003853089208 -0.10005033416545216 0.15225397514703562 0.057561736632442184 0.15328921031142329 0.05782071926932499 -0.20970962764464804 -0.15639308623179374
1066438000.0 -0.18357694543132508 -0.10043158620463676 0.15325836066968515 0.054366598799585664 0.15446342105182234 0.0543845445205023 -0.21110653608524083 -0.15659173486517491
1067125000.0 -0.1836158911236749 -0.10060543356374207 0.15427482736154932 0.05106314614004494 0.15538095344356348 0.051041579790430947 -0.21245115135424877 -0.15669080077538977
1067812000.0 -0.18347922769374597 -0.10096195608059183 0.15503935783219022 0.04780463769365385 0.15625238761177368 0.047427392165150274 -0.21364609618163263 -0.15672590827600275
1068500000.0 -0.18303993589032808 -0.10141488048423182 0.1558036467141521 0.04448275993355805 0.15703175998037527 0.04405386026119113 -0.21515705905868682 -0.15704874081982287
1069188000.0 -0.18284975836215805 -0.10164416185320994 0.1566054273828224 0.04112390034335797 0.15766904259583658 0.04049925129438759 -0.21616764195947163 -0.1570364190350805
1069875000.0 -0.18243119046674006 -0.10222082028102661 0.1572719892367955 0.03787740539825591 0.15823193123487186 0.03710178315774994 -0.21725250029800094 -0.15728235735214138
1070562000.0 -0.18173725579806763 -0.10260648549235395 0.1578918632099426 0.03455001962745076 0.15871286165387602 0.033631236339321975 -0.21842132108481363 -0.15759403810072953
1071250000.0 -0.18137540672945507 -0.10321012927373194 0.15847044331734747 0.03130735224532155 0.15913311922989307 0.030155586405480963 -0.2193027311835604 -0.15782396005343877
1071938000.0 -0.1806525074913648 -0.10366482553036219 0.15906143013215396 0.027940352239408793 0.15937298662588967 0.026714966332658744 -0.22012516709573443 -0.15795906272252597
1072625000.0 -0.18004695996033462 -0.10416616398167354 0.15943098199658495 0.024651872527402616 0.15962045034241074 0.02338121736953468 -0.2208301041156996 -0.15799856125114303
1073312000.0 -0.17938773167307157 -0.10473760853554427 0.15983863609799934 0.021277363834356286 0.15984115544196734 0.019986493524984997 -0.22181423383095977 -0.15796724233979226
1074000000.0 -0.17850149856952952 -0.10513964226460545 0.160153061623261 0.018002333458307773 0.1599293871987095 0.0166571911371307 -0.2222947848372438 -0.15787417425801548
1074688000.0 -0.17769743638787175 -0.10567179988403341 0.16030649002272704 0.014603136532508054 0.1599920197109811 0.013326310866324782 -0.22344570593899782 -0.15763627966778568
1075375000.0 -0.1770953423676237 -0.10621882181189354 0.16042918481079577 0.011268224911192582 0.16003466697068944 0.010131789603450058 -0.2239748744587771 -0.1572521323123011
1076062000.0 -0.17637220777727358 -0.10673141646294296 0.16048245584256676 0.007920170612138865 0.15996683726189745 0.0069067340079419825 -0.224414140744888 -0.15686179306430587
1076750000.0 -0.1757214803601276 -0.10725302547412564 0.16040406788128536 0.004646409341602463 0.15986957902934767 0.0037667409433579735 -0.22496942135585973 -0.15636575769281766
1077438000.0 -0.17504716561104847 -0.10764793509732466 0.1603918818309978 0.0013506128713163803 0.15967778453632542 0.0006146797424745604 -0.22564009079050423 -0.15569218401898738
1078125000.0 -0.17434863721165306 -0.10809712734744883 0.16023635544492532 -0.0019233823058258438 0.1596059396347054 -0.00260318855820437 -0.22636782123157692 -0.1551163848491329
1078812000.0 -0.1738676695803702 -0.10847571811378108 0.16007414898196706 -0.005295546700468259 0.1593545634363527 -0.005690439294912574 -0.2267116502183907 -0.1542387000138284
1079500000.0 -0.17333388429246308 -0.10871964422061635 0.15972527213415616 -0.008617300014988631 0.1591281069128606 -0.00888558405153449 -0.22729737826496504 -0.1532496531267228
1080188000.0 -0.17283060007214543 -0.10913293434787495 0.15947894181112496 -0.011934465147201673 0.15895634372202957 -0.012081556039110026 -0.22795681736186513 -0.15247734162314827
1080875000.0 -0.17245665685265638 -0.10925784421013011 0.1590050124946092 -0.015355333934804441 0.15857572557096367 -0.015303245375540876 -0.22862861280126637 -0.15137567263990964
1081562000.0 -0.17205852841301034 -0.10946462607109872 0.1586281078883326 -0.018627579052471505 0.1582841399347698 -0.018448770157544682 -0.2290751430288205 -0.15042176397777418
1082250000.0 -0.17177807925493538 -0.10962711322092773 0.15803041132132822 -0.021995143425310754 0.15787275230006756 -0.02176814834253034 -0.22978022651708005 -0.1492128572807543
1082938000.0 -0.17153295998024418 -0.10983362718540239 0.15752545807905374 -0.025269810688643264 0.15739174172816442 -0.024981175908147153 -0.23043522252688492 -0.14830506239418506
1083625000.0 -0.17131665477606622 -0.10998753349179825 0.1568264889781687 -0.028520248976844083 0.15686545392184376 -0.028289748327962282 -0.2310175714323103 -0.14719129798504738
1084312000.0 -0.17125388931696497 -0.11012082996037212 0.15612163826606384 -0.03171172949374491 0.15623446814315442 -0.03155798112322046 -0.23158300560072753 -0.1461500670968493
1085000000.0 -0.17122647165029103 -0.11033495445408566 0.15531333975633144 -0.035064772322160556 0.15556883573680064 -0.034953117720351985 -0.23233298359718352 -0.14522006287086484
1085688000.0 -0.17135625197081678 -0.11055056421472637 0.15443930198382355 -0.03820015679817338 0.154679191046532 -0.03837073663331581 -0.23288683175703748 -0.14419059032431217
1086375000.0 -0.1713540692226789 -0.11067694813532498 0.15343519558886967 -0.041360602479565314 0.1537513758653879 -0.04168236187734899 -0.23344505746722394 -0.14321525543285915
1087062000.0 -0.171483613110681 -0.11098028984363846 0.1525540019704904 -0.04453489588485393 0.15276709344104214 -0.045043125655790994 -0.23412002813766145 -0.14226048128016597
1087750000.0 -0.1717864609334545 -0.11132592607426126 0.1514424236590556 -0.04773021584218111 0.15163507906197274 -0.0483657488270356 -0.23457417346391737 -0.14143929755608833
1088438000.0 -0.1720923551029844 -0.11172569583743548 0.15021296669754386 -0.05079724787972538 0.15033707299608912 -0.051578446357915676 -0.23506499340980094 -0.14065214662183345
1089125000.0 -0.17235251388754014 -0.11237743689403763 0.14894850856244166 -0.05389757584328286 0.14900732038449813 -0.05468675327480493 -0.23566967275750456 -0.13991638331957157
1089812000.0 -0.17281230530680544 -0.112944315398221 0.14765502518992435 -0.057010940629455095 0.14755777932628633 -0.05787255857448409 -0.23594921858788537 -0.1390710166949001
1090500000.0 -0.17320899957612013 -0.11376504559630118 0.1461531296145652 -0.06007210847340068 0.14605476304975495 -0.060819286885961554 -0.23663116290015623 -0.13824171110604605
1091188000.0 -0.1738104812893712 -0.11463503534681056 0.1447200958670677 -0.06302601765552787 0.14435140582600026 -0.06378267982214542 -0.23717713049335135 -0.13771869927604655
1091875000.0 -0.1745704404892809 -0.11570215592513622 0.14315240124558617 -0.0660535092672475 0.14274933902277295 -0.06660442837353947 -0.23770008802560355 -0.13673835390362588
1092562000.0 -0.1753566150440972 -0.11674820871614856 0.14151600178966706 -0.06876376063195881 0.14097515633034932 -0.06933651526678239 -0.2382138652382613 -0.13624384338352352
1093250000.0 -0.1764041354499101 -0.11792788437238295 0.1399537011917014 -0.07164369446163903 0.13934088186294738 -0.07191973815631032 -0.2388332694474594 -0.135595391406029
1093938000.0 -0.17739117258934797 -0.11893566195952547 0.1383130906372885 -0.07431505851410242 0.1376175699626444 -0.07437539791134888 -0.23924431930680265 -0.1348554868381351
1094625000.0 -0.1785725123715989 -0.11986358308573376 0.13647988310473616 -0.07693229395560049 0.13596590634979477 -0.07689374050920647 -0.23976271715714265 -0.13403650143693047
1095312000.0 -0.1797120756160835 -0.12094506231903687 0.1348502725855157 -0.07939609783767392 0.1343232755017173 -0.07927502244012967 -0.24029117440923325 -0.13320777347746965
1096000000.0 -0.18085369136512688 -0.12185027886508949 0.13307748712580286 -0.0820016948794303 0.13274126982698295 -0.08165348354616939 -0.24079474921436525 -0.13240803093822875
1096688000.0 -0.1820341387100501 -0.12281420251594241 0.1313323549272662 -0.08443726582567139 0.13111517997755628 -0.08407912628905612 -0.24113336602393376 -0.13142952940277344
1097375000.0 -0.18313086261224015 -0.12373187662442942 0.12945542047031078 -0.08675983760873246 0.12950510650697802 -0.08646533997086278 -0.2415525596027601 -0.13061901937705167
1098062000.0 -0.18414664195250902 -0.12469215987621904 0.12774783743767604 -0.08921213394039212 0.12792987891431137 -0.0888111158008886 -0.24191617887546574 -0.12945112202940692
1098750000.0 -0.18524414706009493 -0.12555251769913564 0.12598076117687776 -0.09150784304318108 0.126334523204732 -0.09141901068044121 -0.24213453720341346 -0.12825079085884444
1099438000.0 -0.1862083806651942 -0.1263009088482538 0.12410348988033813 -0.09388151544854537 0.12465981051335352 -0.09394358793290371 -0.242369215712088 -0.1270056659075544
1100125000.0 -0.18702386660001044 -0.12698797749777396 0.12218262940426884 -0.09612713553884936 0.12286740116293403 -0.096563950620451 -0.2425361246203188 -0.125749916321097
1100812000.0 -0.18778037831186045 -0.12782161270572145 0.12033981171781884 -0.0984499556392287 0.12106128934191424 -0.09912317643515012 -0.2426009555536734 -0.12429285888618011
1101500000.0 -0.1884746951796508 -0.12856619489845172 0.11847789243750584 -0.10078522184535053 0.1190999352576692 -0.10175165021904728 -0.24274608143952045 -0.12297259887649557
1102188000.0 -0.1891716139168467 -0.12932971162375495 0.11644295769791652 -0.10309560715329837 0.11697472873578801 -0.1043694474474583 -0.24278467486940464 -0.12136529804616819
1102875000.0 -0.1898522207509385 -0.12994173600788544 0.11443094724780295 -0.1053842165823386 0.1148011214871611 -0.10685569717614478 -0.24284555513972206 -0.11978499176447677
1103562000.0 -0.19055213535568444 -0.1307623240399235 0.11239517082380372 -0.10777241163886807 0.11256913793507616 -0.10933506351599444 -0.24311358901698948 -0.11805503414366066
1104250000.0 -0.1911950475326939 -0.13135660328827978 0.11036794370054775 -0.10999789299127677 0.11015581652841208 -0.11182272672442899 -0.24312111708487583 -0.11661600527424881
1104938000.0 -0.19188435622726038 -0.1319070595528645 0.10810724406638357 -0.1123350418312459 0.10757066486472418 -0.11404233257607221 -0.24324568151142872 -0.11496297779892692
1105625000.0 -0.19268850343935845 -0.1326216317378735 0.10601334013926624 -0.11461934934566563 0.1049987426261549 -0.11619636783018374 -0.24321150511486117 -0.11328858081657554
1106312000.0 -0.1934517553267917 -0.13316422204493353 0.10369550308875251 -0.11687828766600729 0.10241770924131742 -0.11828587193555923 -0.243492180865169 -0.11171999675164185
1107000000.0 -0.19431371385407428 -0.13367406506076474 0.10117110124861267 -0.11915459886776444 0.09969152307791823 -0.1202178548183651 -0.24374263796094986 -0.10986975001121872
1107688000.0 -0.19532588178444693 -0.13400642478814145 0.09875917706070807 -0.12123343782875642 0.09690683027971836 -0.12212029855289176 -0.243977185387098 -0.10830579277677534
1108375000.0 -0.19624457590272382 -0.13427949893966198 0.09623935037275051 -0.12335344250067438 0.09414608960141031 -0.1237371593792292 -0.2444015701775195 -0.10665522972155504
1109062000.0 -0.19743380326657994 -0.13447671433388508 0.09350576463439242 -0.12542008142414995 0.09147619134485674 -0.1253230959071033 -0.24494645483184455 -0.10504880114124414
1109750000.0 -0.1987200263738528 -0.13453803773503997 0.09088796931760701 -0.12730696676640882 0.08883835435457181 -0.1268647136062152 -0.24554359320073352 -0.1035973749655414
1110438000.0 -0.20000986894538186 -0.13458353512775587 0.08810949497867136 -0.12916449925905749 0.08626594650276814 -0.1284074421838599 -0.24640078562187354 -0.10213423901018463
1111125000.0 -0.20142008226236024 -0.13443814859716527 0.08523176187185837 -0.1309215877253859 0.08362691008699924 -0.1298546469099372 -0.24723117097018987 -0.10067646629058326
1111812000.0 -0.20280452143273858 -0.13414623977050208 0.08230150389115652 -0.13265068403109684 0.08108538967670349 -0.13123944686915326 -0.24830244784213862 -0.09951250615028559
1112500000.0 -0.20425655531581047 -0.13373793336641382 0.07946108312261242 -0.13432308439116905 0.07864462862742826 -0.13274149344502734 -0.2493462959817278 -0.09826660861633942
1113188000.0 -0.20579588051445533 -0.13325596147401075 0.07649511973018076 -0.13573542293283242 0.07615844525757925 -0.13414576689317795 -0.25052713050276265 -0.09708579340114405
1113875000.0 -0.20746674651946412 -0.13261677910005526 0.07350721563968637 -0.13718199304366327 0.07370972648519773 -0.13562779599332378 -0.25183889752798755 -0.09610907942489635
1114562000.0 -0.20902876192722436 -0.13221363452663343 0.0707030119683286 -0.13851177929773045 0.07131872257284103 -0.13699341443152255 -0.25308510830436703 -0.0952098016815203
1115250000.0 -0.21054705710379085 -0.13146110921675663 0.06775655326131785 -0.13957361638718163 0.06874296598619094 -0.1384947890585103 -0.25436691922093735 -0.09449466780010128
1115938000.0 -0.21215638004205523 -0.13083309173591337 0.06479508499375172 -0.14081513196115705 0.06620505139060602 -0.13997307602339726 -0.2557211788703373 -0.09367231371315682
1116625000.0 -0.21385338365964576 -0.13012260830819058 0.06200875365139301 -0.14188013671242422 0.06353980994265304 -0.14144447437790605 -0.2568960106083175 -0.09298761787959335
1117312000.0 -0.21553063841745493 -0.12945913860704017 0.059211530026268784 -0.14287728059858903 0.06091235755048251 -0.1429652448798448 -0.25794287691017953 -0.09244193373373145
1118000000.0 -0.21714564836258207 -0.12880541185016858 0.056251623285811896 -0.14382405336683746 0.05803426789705345 -0.14440790164545472 -0.25899999068276197 -0.09175650419686945
1118688000.0 -0.2189402202221743 -0.12816694975259715 0.053576467341996795 -0.14479039340312327 0.055170149165795004 -0.1458017854363804 -0.2599309846776716 -0.09120728740444772
1119375000.0 -0.22066870120612736 -0.1276636352159806 0.05077371595924637 -0.1456195091275542 0.05209456727156556 -0.14716951210080506 -0.26090606495032925 -0.0905769971521997
1120062000.0 -0.22247580716558835 -0.12709312560897623 0.04800714779937046 -0.14661572358112424 0.04895273307084301 -0.14836226746504286 -0.26163003436503735 -0.08992960180599505
1120750000.0 -0.22440820998043254 -0.12648427187920605 0.04525571804881305 -0.14744451712221365 0.04566944235533668 -0.1494212864070621 -0.26202500453748523 -0.08921363877826809
1121438000.0 -0.22632440881773389 -0.1260494250145453 0.04251482314002712 -0.14830013445078685 0.04246734807273912 -0.15041820485966925 -0.2623322997705196 -0.0885609761949831
1122125000.0 -0.22827713080570264 -0.12551110727404385 0.03978619087086203 -0.14910385493371453 0.03911859833454612 -0.15127395346921566 -0.2626081837744509 -0.087770823711684
1122812000.0 -0.23004618182378495 -0.12505703836569002 0.03692005947468888 -0.14982208431970764 0.03579286075159737 -0.1519466571107044 -0.2628023539609907 -0.0868491368406463
1123500000.0 -0.23230091527222832 -0.12457869068469465 0.034040803513388576 -0.15074734908646834 0.03246148502254553 -0.1525275090910156 -0.2626282328079584 -0.08581328580656498
1124188000.0 -0.23415256928023734 -0.12408584558235493 0.0311386212917415 -0.1514804696775892 0.029273704126873617 -0.15295547440378154 -0.2625882882029249 -0.08482445549196109
1124875000.0 -0.23617611794923443 -0.12336629788582915 0.028159587035617335 -0.15217282264340512 0.025968863421365108 -0.15333062682284487 -0.2625501125225767 -0.0836642824920757
1125562000.0 -0.23823072555347227 -0.12271528718925753 0.0252046083967952 -0.15285893880415358 0.02282029602004605 -0.15359581490116336 -0.2620858883953446 -0.0824199154565446
1126250000.0 -0.23990607401039726 -0.1219857452910066 0.022121350993522842 -0.153482090013173 0.019764739038892074 -0.1536731121178266 -0.2619455953661759 -0.08097461285064075
1126938000.0 -0.2420936356934876 -0.12121067104588071 0.019027415108332408 -0.15406215988486074 0.01676741519918955 -0.1538248024429832 -0.26172569805645735 -0.0794388501071793
1127625000.0 -0.24364119132628873 -0.12010977687732804 0.01586203021322414 -0.15452866928958423 0.013737813111895486 -0.15388775265050597 -0.261386998431413 -0.07794454991422674
1128312000.0 -0.2454246844755986 -0.11919330539596787 0.012664831273087344 -0.1549219563037916 0.010812833641044003 -0.15398834000542552 -0.2614695003526191 -0.07632543262721862
1129000000.0 -0.2470295278511384 -0.11823616008187066 0.009527470281542216 -0.15527615198617825 0.008073181787571257 -0.15404276592475183 -0.2610955511846823 -0.07473124009024294
1129688000.0 -0.2485310766675969 -0.11713865349376314 0.0061930639887628255 -0.15554910744145467 0.005170990573376451 -0.15409183644494034 -0.26133392431607844 -0.07307463308258234
1130375000.0 -0.2497848520468536 -0.11585932175160808 0.0030929119808928538 -0.15575540499134707 0.002225042886944411 -0.15424135647191617 -0.26134013477426987 -0.07137463391810649
1131062000.0 -0.25112138335092254 -0.11461119363120068 -0.00023781367453511903 -0.155837649639703 -0.0006618525490069845 -0.1543587500150894 -0.2616264369343952 -0.06972646687219478
1131750000.0 -0.25230781557056636 -0.11349886029313708 -0.003444305601861043 -0.15589179193763364 -0.0034664847117968915 -0.15444529916218303 -0.2619156601753285 -0.06799842517162695
1132438000.0 -0.25347017578372133 -0.11206842463206634 -0.006668902649197982 -0.15582023673195713 -0.00646811630570568 -0.15464859597802416 -0.26243713197690666 -0.06643032555670832
1133125000.0 -0.2545239375360316 -0.11057401508368533 -0.010006755846144822 -0.15573300372119078 -0.009498374878444184 -0.15473661656431761 -0.26299334421392423 -0.06500776333763579
1133812000.0 -0.25551587944344417 -0.1091605742296582 -0.013227283462197743 -0.1555570332656824 -0.012603309700317583 -0.15482838711972377 -0.2634195606517656 -0.06326790395039292
1134500000.0 -0.25644258389051067 -0.10781567418896575 -0.016391882711274734 -0.15535186578108465 -0.015813023603977117 -0.15484830064039212 -0.2643549552745567 -0.0620537670617647
1135188000.0 -0.25746438757860646 -0.10618825717474237 -0.019738460780125037 -0.15505661858998587 -0.01903745266948528 -0.15484148654022734 -0.2649436304548409 -0.060770689028694556
1135875000.0 -0.2583636799096997 -0.1045679597327862 -0.022865250574979616 -0.15448799482926426 -0.022353105091574513 -0.15460834980830415 -0.26557679860344385 -0.0594181116903561
1136562000.0 -0.2592776966949607 -0.10287423558521151 -0.02609260606576481 -0.15400222575961642 -0.025653639407125516 -0.15431502677764777 -0.2661602270197932 -0.05859128271563805
1137250000.0 -0.2602110715550332 -0.10107374355762701 -0.029277296067586216 -0.15338089849466027 -0.029000171092115175 -0.1539442512431058 -0.2666042627717751 -0.05750142750553441
1137938000.0 -0.2611940110720829 -0.09924785830316499 -0.0324444325644615 -0.15284340302720256 -0.03231592977661966 -0.15338680962694787 -0.26709950784670294 -0.05679656685410879
1138625000.0 -0.26218515515933244 -0.09734652955589225 -0.03555265484423626 -0.1521435956643225 -0.03565456553490549 -0.1527599131776906 -0.2674327798073257 -0.0559406551901823
1139312000.0 -0.2631150323384732 -0.09541036032510133 -0.03857815438685291 -0.15127344069513188 -0.038927248081910275 -0.15202549250728756 -0.2676756959508855 -0.05530136121764104
1140000000.0 -0.26399203278811545 -0.0931291066293034 -0.0416456656197422 -0.15040135390314308 -0.04221359016692688 -0.15103965269306904 -0.2675346411630985 -0.054570222297942006
1140688000.0 -0.2651322787417878 -0.09097919000188917 -0.044750769604609636 -0.14963684971336258 -0.045328401436056126 -0.15014834087790851 -0.267322228064265 -0.054205195391255505
1141375000.0 -0.26607111875252926 -0.08863818600955914 -0.047735929862982245 -0.14861197328416895 -0.048423773326712015 -0.14907433643005635 -0.2668585115313456 -0.05370340960191643
1142062000.0 -0.26699914221283355 -0.08633557566227507 -0.050677498071132254 -0.1476805937570645 -0.05141268395387438 -0.14799063625220624 -0.2660307050069325 -0.05321199408041001
1142750000.0 -0.26770287356401595 -0.0838343692229645 -0.05353573154644042 -0.14663628226938483 -0.05437457720689741 -0.14675599436609388 -0.2652215334038416 -0.05249613497510877
1143438000.0 -0.2684582705379775 -0.08136725135428789 -0.056425975268269805 -0.14563106294843187 -0.057270009930656465 -0.14556361141066748 -0.2640002037750475 -0.05205261844433777
1144125000.0 -0.26926739727796095 -0.0790073184948678 -0.05934634115179764 -0.14449777639995595 -0.060124052693722306 -0.1443396376914968 -0.2627955423560038 -0.05133443205981255
1144812000.0 -0.2698794495673901 -0.07670652311183593 -0.06212478403500187 -0.14344624012826776 -0.06287331750594524 -0.14313155701899655 -0.2612217002304169 -0.050779177292417176
1145500000.0 -0.27062419713450925 -0.07444372202605282 -0.06504283142178648 -0.14233081831234973 -0.06574876035298129 -0.14191857968843785 -0.25958359410117515 -0.04988146897964583
1146188000.0 -0.27115312789697954 -0.07220635621392237 -0.06797845071314716 -0.14115041484958638 -0.06845986366891768 -0.1406378715626263 -0.2579672869687456 -0.04881717704268473
1146875000.0 -0.2717110264950524 -0.07007314354980519 -0.07076550768177249 -0.13986057233020488 -0.07124334790726769 -0.139442921709045 -0.25623737686728315 -0.04776726288715202
1147562000.0 -0.27220261975372134 -0.06803653009305528 -0.07355965247207191 -0.1385725830301826 -0.07390762081549866 -0.13809967795632447 -0.25452293095046313 -0.046387487509849334
1148250000.0 -0.27266141294283314 -0.0662192203739737 -0.07635461367026386 -0.13734219376033036 -0.07663483780511733 -0.13681197259491784 -0.2528641799937649 -0.045252199709958155
1148938000.0 -0.2731697944788549 -0.06441129593957445 -0.07912101986658898 -0.13588388440102475 -0.07933004468012356 -0.1353472063548184 -0.25112579879747926 -0.043651747723124856
1149625000.0 -0.27361098347814705 -0.06271377300352901 -0.08191669641502726 -0.134339381888498 -0.08213655375508112 -0.1340784042316581 -0.24988579474301284 -0.04221964169001241
1150312000.0 -0.274151632950966 -0.061018649370129456 -0.08461640288426275 -0.1328782011302781 -0.08481162710478128 -0.13256233261366268 -0.24840685213468353 -0.040538234784150876
1151000000.0 -0.2746580593898574 -0.05960514321191954 -0.08738130512748966 -0.13126428910000773 -0.0876093795734197 -0.13111967552823917 -0.24726685796967518 -0.038726946000258285
1151688000.0 -0.2750651771498456 -0.05803648539543361 -0.09011345319053683 -0.1296539861945465 -0.09046511205884798 -0.1295314409951243 -0.24623307322119864 -0.03676079916340136
1152375000.0 -0.2755047760420072 -0.05662652304494232 -0.0928789531542414 -0.12786396477460404 -0.09322537353288357 -0.12791235130210427 -0.24555450723892813 -0.034865268380552907
1153062000.0 -0.2759748400994277 -0.0551825076404186 -0.09549254789031661 -0.1261228278443201 -0.09605648318160882 -0.12616325896740357 -0.2449054609240303 -0.0329864832172573
1153750000.0 -0.27632776151898564 -0.053938098104954806 -0.09823804110613152 -0.12428011301512952 -0.0987853590676541 -0.12432014332382485 -0.2445126349625527 -0.03131036557331899
1154438000.0 -0.2766593345337295 -0.05258648907602365 -0.10079658779883768 -0.12240959801181561 -0.10154835554385604 -0.12237443831129385 -0.2441818194105062 -0.029601904537936503
1155125000.0 -0.27698894679643765 -0.051305064119915374 -0.10352435309798959 -0.12033853892481135 -0.10433346539643862 -0.12030845410417625 -0.24408003840465445 -0.027984219797568894
1155812000.0 -0.27715213391343885 -0.04999375750684267 -0.10618972050598859 -0.11827686497194531 -0.10703100923722919 -0.11807593206851547 -0.24405054784762265 -0.026327422237108215
1156500000.0 -0.27740698246193635 -0.048803083987675876 -0.10887174611301619 -0.11622666323877859 -0.10963098076533224 -0.11592537299388785 -0.2442041045734861 -0.0248400243078308
1157188000.0 -0.27757430894435403 -0.04750787494600985 -0.11149901701790493 -0.11402437474914835 -0.11229130254216109 -0.11366380610670018 -0.24456400207969944 -0.023795239072347603
1157875000.0 -0.2775109297116979 -0.046123755847237664 -0.11404295084215212 -0.11172826696670107 -0.11476293637657924 -0.11123251019105339 -0.2445513107558141 -0.02263391984598543
1158562000.0 -0.27738610164771726 -0.04483395675039783 -0.11654038154777148 -0.10948060195343129 -0.11731352582922226 -0.10870908609416856 -0.24470786899201835 -0.021693069833191414
1159250000.0 -0.2773771747187624 -0.04348850206368238 -0.11911419980185826 -0.10702690896100961 -0.11976684593446703 -0.10620218065130729 -0.24506705012797372 -0.02085428475905184
1159938000.0 -0.2772600740495676 -0.04208271334857425 -0.12150886619277519 -0.10451877400735274 -0.12202835027609311 -0.10363418406369597 -0.24519194706078276 -0.020275402410908975
1160625000.0 -0.2767966151334557 -0.04086484921993948 -0.12385221698499047 -0.10191868623073067 -0.12425472300003602 -0.10095009008203554 -0.245093549162037 -0.01994159954921472
1161312000.0 -0.2764475775283121 -0.0394440209872403 -0.12617857718825523 -0.09931352588628846 -0.12647290520074433 -0.09817985904535252 -0.24498641048386902 -0.01948730716824232
1162000000.0 -0.27584843705297357 -0.03784007158005694 -0.12842188075577424 -0.0965147272039953 -0.12855467966863227 -0.09536617843596548 -0.24489051229168268 -0.019098413931849335
1162688000.0 -0.2753811296877861 -0.0364887424412036 -0.13050151585641834 -0.09373619982869712 -0.13050996173440446 -0.0926076327659256 -0.2444534490172469 -0.018871096183022573
1163375000.0 -0.2747358860616438 -0.03501584851182578 -0.1326161099240559 -0.09089567903136207 -0.13245760616457328 -0.08973768450812991 -0.24391895729794855 -0.018648744537064523
1164062000.0 -0.27415524270864966 -0.03356563590998794 -0.13463826681302352 -0.08787392127682488 -0.13437384083049458 -0.08688973588466277 -0.24333997795626455 -0.01837428384538067
1164750000.0 -0.2735810263783829 -0.032118240283786265 -0.13647051806881624 -0.08489850121329494 -0.13624183459614692 -0.0840625024350779 -0.2425049740348706 -0.018095613482955783
1165438000.0 -0.2730191212298346 -0.030551288514581536 -0.13846685983234983 -0.08184592074781254 -0.13799114786344943 -0.08118924438629366 -0.24173303047550143 -0.0177582116730419
1166125000.0 -0.2724300770050475 -0.029091251348652647 -0.14021133522158183 -0.07883937151894972 -0.1396427112758152 -0.07829382700806642 -0.24064220041180395 -0.017444570544950678
1166812000.0 -0.2718231090797848 -0.027581978026354828 -0.1418825808388945 -0.07571106625278319 -0.14134650156918163 -0.07528627009835673 -0.239677424395614 -0.016868257184742337
1167500000.0 -0.27117845060734946 -0.026087004302808966 -0.14350314097718792 -0.07250395143327996 -0.14290389512148652 -0.07239485720486497 -0.23842032866843613 -0.016295383043620305
1168188000.0 -0.2706977664776257 -0.02459505315880732 -0.14493992635039765 -0.06944499520173288 -0.14439118865236356 -0.06943849303193961 -0.23717007167845888 -0.01576446342450974
1168875000.0 -0.27006803896675513 -0.023098580918670803 -0.14646161800794982 -0.06621771384875404 -0.1459113066348 -0.06640050965004159 -0.23588236121806885 -0.01494456935460612
1169562000.0 -0.26988225556669193 -0.02164384436878949 -0.14776068361103672 -0.06298712401391142 -0.1472934304722729 -0.06335751002686103 -0.2348263526197203 -0.013909773057014662
1170250000.0 -0.2694422521217229 -0.020165958704024066 -0.14905839530531834 -0.05984645353822535 -0.14866429585996763 -0.06025353778186822 -0.23366974762785037 -0.012917453397534211
1170938000.0 -0.26925012729453984 -0.018693378084269116 -0.15014238583620365 -0.05650009877617404 -0.15003969642751488 -0.057165608416158066 -0.23267698496288386 -0.011847329821554068
1171625000.0 -0.268954168733169 -0.017214732791091265 -0.15124366957958632 -0.053336690889863626 -0.1512128049035053 -0.054028182044972325 -0.23172967947109316 -0.010652431053454892
1172312000.0 -0.2685508949941424 -0.015767921698823618 -0.15214783396026968 -0.05015854880633441 -0.15240824199374656 -0.05079984960142552 -0.23106441501758837 -0.009453184469389598
1173000000.0 -0.2685127588103953 -0.014480298861987704 -0.15313615209123163 -0.04692008289980782 -0.15353534047740536 -0.0474804365631589 -0.2305969674944612 -0.008277373272830789
1173688000.0 -0.2685995224520501 -0.01299902755745071 -0.153898626092856 -0.043659222648730844 -0.15461428799592916 -0.04415640907835066 -0.23014172573057912 -0.007194174316726196
1174375000.0 -0.2685251596518961 -0.011752493712158614 -0.15463343000781807 -0.04051784426003419 -0.15563364778795694 -0.040806805015387915 -0.22998455685656471 -0.00612816661528928
1175062000.0 -0.2685232942948008 -0.010399479364743378 -0.15537974042629718 -0.037274247020331566 -0.15649981688662912 -0.037411916777323174 -0.23004144602486057 -0.005189808834857333
1175750000.0 -0.26873473378315277 -0.009199748710117882 -0.15599926131638647 -0.03409579146566119 -0.15737580433450846 -0.03404509396374937 -0.2301659291273691 -0.004321187993842377
1176438000.0 -0.26876548938725614 -0.007956391880056037 -0.1565538441573604 -0.03087225642844474 -0.1580926683425101 -0.0306175728915412 -0.23048191152873693 -0.003566924584401907
1177125000.0 -0.2689442512335028 -0.006884199256934731 -0.15719261312366611 -0.027707287697495815 -0.158686575684356 -0.02708782298206385 -0.23094126173901294 -0.0030158891277720728
1177812000.0 -0.26905066234352726 -0.005705493594228624 -0.15767645993999124 -0.024532559478226336 -0.15922440509231225 -0.023628265950268717 -0.23155507781471243 -0.0026278412533918124
1178500000.0 -0.2693682028672596 -0.004749271471611797 -0.15816257077126875 -0.02129510111067826 -0.15970904807926614 -0.020054822852197743 -0.23211450882069773 -0.002364696145565902
1179188000.0 -0.2695228312841919 -0.0036590028431486574 -0.15871513023818942 -0.017983519907011122 -0.1599062110598407 -0.016620894178343 -0.2328147431489798 -0.0023375376135209604
1179875000.0 -0.2696631356631445 -0.002818995386925445 -0.15897034057234022 -0.014686452383102677 -0.16011704567587373 -0.013105007330507871 -0.23369057595855183 -0.0024290286010413293
1180562000.0 -0.2696949598937746 -0.0019271832802658629 -0.15935386670475396 -0.01146769075953556 -0.160133668707458 -0.009606463577142815 -0.23412586968156812 -0.0026996159325451403
1181250000.0 -0.26984350142990654 -0.0013649570609487096 -0.15959166230968475 -0.00818975915699379 -0.16007674569553898 -0.006107217727931685 -0.23487165446494923 -0.0032065510704958533
1181938000.0 -0.26990750096555877 -0.0004994386915845041 -0.1598729199262662 -0.0047490297777868845 -0.15982980962811646 -0.002678053914495945 -0.235350386036815 -0.0036887332428438818
1182625000.0 -0.26994194131819044 -4.075915994470072e-05 -0.16002643410711426 -0.0012603045148237993 -0.1595987879231389 0.0006549183355610709 -0.23594878565262475 -0.004352263169303478
1183312000.0 -0.27001642268402726 0.0006213483134060296 -0.16015769731678045 0.002190679403176197 -0.15932711359598153 0.004027532861538432 -0.23617773498122827 -0.005034343681623616
1184000000.0 -0.26999001702659353 0.0009509090791903443 -0.16008518807732935 0.005544151316606387 -0.1589480808477939 0.007261468777735957 -0.23639483770514053 -0.005715822823379294
1184688000.0 -0.26991265430552414 0.001442670664883941 -0.15994158392622207 0.009104905186444334 -0.15849852002645357 0.010651503987729552 -0.23653987177045743 -0.006517004302408301
1185375000.0 -0.2698776094948133 0.0018826190828523145 -0.15962104621915796 0.012606322508693835 -0.15807989490762256 0.013854358245870205 -0.23649970987149826 -0.007344049817314792
1186062000.0 -0.2697801873052996 0.00228629465549699 -0.15934746688102 0.016069307501740963 -0.15763410730336255 0.017036353634367053 -0.23638626019583223 -0.008002637359574915
1186750000.0 -0.26972918352483083 0.0025098539001362397 -0.15884765590642824 0.0196795574656776 -0.15705951893073278 0.020176281768710887 -0.23586226113901781 -0.008650721219536093
1187438000.0 -0.26957117506250916 0.0028766693836469607 -0.15829977939608733 0.023162360973127814 -0.15655895598790762 0.023297183789465818 -0.23540155414281672 -0.009366780312500949
1188125000.0 -0.2693180415815745 0.0032465811001073054 -0.1576438105325051 0.026647274058748952 -0.1560204923877311 0.026521319565503385 -0.23483073095684098 -0.0097810251116285
1188812000.0 -0.26910684245388844 0.0036483260803256068 -0.15684887750948692 0.03012959136488506 -0.15542164072081247 0.029557964466896822 -0.23405888069589226 -0.010213529831128415
1189500000.0 -0.26884896154166615 0.004281627669293787 -0.15588178872175357 0.0335482856801223 -0.1548322272194658 0.03276538092492534 -0.2331600650473691 -0.010470361396559269
1190188000.0 -0.26873280139872685 0.004747293338289301 -0.15482405076797967 0.036944082710098525 -0.15419045916832877 0.03592024588121802 -0.23234951348104785 -0.010707049522682843
1190875000.0 -0.2684787110906315 0.005522827461844734 -0.15385504370447095 0.040214494079559036 -0.1534339358551277 0.039082527065148615 -0.23142949378703834 -0.010697158781999202
1191562000.0 -0.26812000389241997 0.0062325439834579974 -0.1526263221167227 0.04342754454129426 -0.15261897077211323 0.04224894541756113 -0.230558599391975 -0.010660811060355707
1192250000.0 -0.26757965399921574 0.007128527190530265 -0.15131761700371943 0.046685503963629735 -0.15170350275310973 0.04542675680564792 -0.2297460655399248 -0.010600606961053178
1192938000.0 -0.2672760226766368 0.008145470348637333 -0.15008329407921545 0.04982213667702511 -0.1506973798103672 0.048677622355501105 -0.22901414062756362 -0.01038864596542641
1193625000.0 -0.2667974955009191 0.009068670811251352 -0.1486113147073673 0.052765333771210544 -0.14960346097552848 0.05197974022472273 -0.2283900080692658 -0.010123962325596234
1194312000.0 -0.2662147610478012 0.010265182180445365 -0.14711377529279082 0.05570160067654737 -0.14837158778983103 0.055142063966522575 -0.2280152727709625 -0.009824425746280688
1195000000.0 -0.26566566643812406 0.011365399518558032 -0.14568705374359162 0.0586138818908948 -0.14706246360790362 0.05839847622787051 -0.2275302817411957 -0.009513654185258529
1195688000.0 -0.26503177464866684 0.01273674853936125 -0.14413082913172434 0.06141334441382358 -0.1455525883685691 0.0615839786451274 -0.2274061491654182 -0.009264080364539745
1196375000.0 -0.26449097964638696 0.013958450657531223 -0.14252506865656134 0.06416666667225798 -0.14397557385520707 0.06482964930143238 -0.22742603744590703 -0.008849687357251603
1197062000.0 -0.26386480482444985 0.015199226938365989 -0.14101876690980142 0.06680355976813208 -0.14225399090776922 0.06778468462650737 -0.2274472736573755 -0.008373091924875951
1197750000.0 -0.26338200893953406 0.016474709907383513 -0.13940339987865188 0.06940860159915926 -0.1404890684881726 0.07077522969363344 -0.22775993794215732 -0.00817566412124063
1198438000.0 -0.2627877095415835 0.01781739312431993 -0.13774748177472557 0.07197130537288639 -0.13858317255581404 0.07368572496607036 -0.22821079866594043 -0.008008384843888751
1199125000.0 -0.26226486041103647 0.01900766737554227 -0.13619982016190443 0.07454267802568369 -0.1366065091036375 0.07638930217075436 -0.2289146855131183 -0.007653222355890911
1199812000.0 -0.2619172895605438 0.020408373871184837 -0.13447865329720768 0.07706304460554811 -0.1345821706022748 0.07910049599909606 -0.22952143312633796 -0.007391478333060308
1200500000.0 -0.26171855156155266 0.021632462750512324 -0.1328607393972594 0.07955403954988681 -0.13256323674647785 0.08153992834460334 -0.2301513060789298 -0.007335122439696641
1201188000.0 -0.26151545322929737 0.022993363397517362 -0.13112199604819122 0.08211064760913124 -0.13054552270416345 0.08393682919274284 -0.23117593447505794 -0.007049761006923823
1201875000.0 -0.26147450702726305 0.024306974213835535 -0.1294011662639374 0.08458631230777533 -0.12856735966852492 0.0861917176889537 -0.23177774377013927 -0.007081544735694293
1202562000.0 -0.26152569079713445 0.025653521015511705 -0.12760055181558974 0.08710115801633145 -0.12661270689862364 0.08841400159747725 -0.23275733090890688 -0.006869039392809211
1203250000.0 -0.2616837922890554 0.027108821179963598 -0.12581029546148773 0.08950105464263754 -0.12455619725089537 0.0905744055954654 -0.2334384496380415 -0.006675752588640257
1203938000.0 -0.2618551947069376 0.028369819168074278 -0.1240362975301281 0.09196225211471956 -0.12267933306662232 0.09265848739822836 -0.23426495010061865 -0.006677007292413142
1204625000.0 -0.2621703880475984 0.02978948066483677 -0.12208982020902281 0.0943708458394703 -0.1207842358047913 0.09483956179304646 -0.23498210475856718 -0.006680758156662399
1205312000.0 -0.26254807997326796 0.031111850650611252 -0.12016608904804782 0.09672158137708055 -0.11894864584715141 0.09692081116669403 -0.23570857999212586 -0.006452245277545278
1206000000.0 -0.2629590603492666 0.03265787173968528 -0.11827500279394221 0.09909693477965367 -0.11703158112698993 0.09903680448598294 -0.2360026566583321 -0.006293243804502579
1206688000.0 -0.2633451545571067 0.03413612818824737 -0.1162736231944985 0.10141802819043538 -0.11521861478211418 0.10109811403810998 -0.23642801627943513 -0.006169706478648451
1207375000.0 -0.26382594031807705 0.03555551922504158 -0.11424873214227671 0.10374734530571696 -0.11333898218272746 0.10330681157692054 -0.2366980462007161 -0.006100088210402234
1208062000.0 -0.26428313164485123 0.03711194276661767 -0.11211173625043533 0.106033723809853 -0.11151736432418277 0.1056256354882188 -0.23686751989413965 -0.005713597428615605
1208750000.0 -0.26454669728222385 0.038641116558083645 -0.10993130228972248 0.10820396286160036 -0.1094613516301905 0.10780206576636003 -0.23694660834735456 -0.005167502021322633
1209438000.0 -0.26489270153970756 0.04001923258704792 -0.10774779234756746 0.1103141958576388 -0.10748582958434412 0.11004652775114093 -0.23695919545632121 -0.004984317898775705
1210125000.0 -0.2649837150777817 0.04134395047050017 -0.10553186001454111 0.1125403270368877 -0.10534970084943907 0.11232884695647939 -0.23690344243822634 -0.004259345609898425
1210812000.0 -0.26520558597924226 0.04258552238220889 -0.10329015605905909 0.11450984758209568 -0.10309374588843562 0.1145383149735232 -0.23672271623661167 -0.0037723592126493936
1211500000.0 -0.2652406941490352 0.04381267839034203 -0.10093091259071836 0.11647349194778377 -0.10084000967584962 0.11678314186265558 -0.23650295952623926 -0.0030455126381907158
1212188000.0 -0.2653027631083793 0.04506133607820286 -0.09855508084897763 0.1185294414739687 -0.09833837365682281 0.11891957628264778 -0.23627186433567618 -0.0023178478746703622
1212875000.0 -0.2652286785463768 0.04597405541564712 -0.09606085005872213 0.12036498076415968 -0.09582300049152208 0.1209813696279262 -0.23603594456260912 -0.0016832501304195494
1213562000.0 -0.26506094888998444 0.046955664412239806 -0.09345472248730981 0.1223150515557199 -0.0931811428387586 0.12293247968875955 -0.23594594359685062 -0.0008213040015019494
1214250000.0 -0.2649244663145222 0.04788415494946121 -0.09099100852170981 0.1241230420911899 -0.09055800034596265 0.12478738565277028 -0.23576336259619549 -1.945216823493536e-05
1214938000.0 -0.2648256798559246 0.04862050491060386 -0.08833615476818252 0.1258026739582926 -0.08779998159166959 0.12645859965065442 -0.23554299865092498 0.0010378509683675377
1215625000.0 -0.2645378442457712 0.04952568158843275 -0.08567634177897328 0.12752626824402896 -0.08498062114431967 0.12809727358008033 -0.2356387345902007 0.0020898823993948826
1216312000.0 -0.264236211934113 0.05034750616731123 -0.08296318637639344 0.12903973677826436 -0.08217129541435723 0.12948341685769846 -0.2355667377229345 0.0031354526834791395
1217000000.0 -0.2638823824940212 0.05110499324744206 -0.08029637449053362 0.13055050401740617 -0.079357485906844 0.1309416465466591 -0.2358544418364172 0.004000028036680972
1217688000.0 -0.2635619274648004 0.05194274195519729 -0.07742371727945763 0.13215840527164635 -0.07663307767595728 0.1321002145538147 -0.23612035889826763 0.0052731180326997884
1218375000.0 -0.26315554744529124 0.05276062097853201 -0.07472029203132334 0.13346000447004133 -0.07384950632146405 0.13318772248363095 -0.23626747847099985 0.006469896477115173
1219062000.0 -0.26285621762669026 0.053793778310704005 -0.07196181915126731 0.13473274060093346 -0.07116959637888905 0.13429231112474826 -0.2367630013849571 0.007660625991693437
1219750000.0 -0.2622779950544205 0.05490730209969007 -0.06917918866978467 0.13585724691018675 -0.06852495985495793 0.13522075117097584 -0.23724788173988695 0.0090249621005805
1220438000.0 -0.26177830032990346 0.05616593228090057 -0.06631692385067038 0.13697469413901528 -0.06605423564279254 0.13623397823208214 -0.2377942556878218 0.010111652321909645
1221125000.0 -0.26108421474629717 0.05743497634657601 -0.06358224301268936 0.13788664439672285 -0.06348470908254762 0.1371120185734275 -0.2383263994226297 0.011573807568927723
1221812000.0 -0.2604576697848148 0.058756329911540575 -0.060883845585096144 0.1388076181663979 -0.0609421054035606 0.13809223848539698 -0.2390499639110259 0.012799777334373064
1222500000.0 -0.2594382955251668 0.060205998299119684 -0.058175107016455466 0.1396637648725388 -0.058471413771959246 0.1390383292944897 -0.23975914461506667 0.014319894352707151
1223188000.0 -0.2585077695659769 0.06190232509111133 -0.055393242365859005 0.1405156062055785 -0.05599763428038456 0.14011443809927118 -0.24054159509278786 0.015741953233248025
1223875000.0 -0.25743792502013224 0.06360364295303876 -0.05279982391363148 0.14125260219964902 -0.053463073579089436 0.1412009518644544 -0.24140260587405077 0.01707165163015723
1224562000.0 -0.256316968060107 0.06523429185406053 -0.05019042374993773 0.1421317077291229 -0.05098748607795302 0.1422256864548788 -0.2423050083039807 0.018361402256144504
1225250000.0 -0.2552092569320377 0.0670589617346548 -0.04753048841935947 0.1428470314939165 -0.04834946896314775 0.14337267387586144 -0.24298693173604152 0.01981079152293468
1225938000.0 -0.2540074904970715 0.06882674538841578 -0.04498570779590756 0.14363910244337946 -0.04577123170982238 0.14451534914575545 -0.2438613828971649 0.021253000993108992
1226625000.0 -0.25273292938170816 0.07051417476159727 -0.04239491638542429 0.14440830239295768 -0.04303956328700383 0.14564018960335093 -0.2445654581437937 0.022286711639293074
1227312000.0 -0.2514726839381298 0.07231251595033306 -0.039747713902653074 0.145189874068197 -0.04022284159535374 0.14673896992195545 -0.2454286481441139 0.023732283351291857
1228000000.0 -0.25016048109292993 0.07404418397029491 -0.03714937191548008 0.1459743592996049 -0.0372617952357141 0.1477328774630304 -0.2460216610119743 0.024818880126230444
1228688000.0 -0.24896041554114154 0.07570584677764208 -0.034563131710213926 0.14676540378723735 -0.03432678881109148 0.14858331656902662 -0.24679469679051497 0.025888604723613165
1229375000.0 -0.24768732638390228 0.07733583791957077 -0.03189644813712772 0.14749134219638235 -0.03118569235488567 0.14941549747361924 -0.24721347173311636 0.026896340579405643
1230062000.0 -0.24663594088865323 0.07905378471797325 -0.02920462189055133 0.14829780228664155 -0.027999800291354744 0.15008321056788237 -0.24794203097804102 0.027664074344616846
1230750000.0 -0.24549284301291374 0.08048289914745513 -0.026546822102317038 0.14901252912349797 -0.02487454510680259 0.1506289220525528 -0.24845704904155874 0.028442472432387338
1231438000.0 -0.2446065208727362 0.08211670820846956 -0.023768768940300614 0.1497602894179578 -0.02172059764833799 0.1510254733397696 -0.24869972981703406 0.029355363504915532
1232125000.0 -0.24375514570173548 0.08373564291438915 -0.020841151278693897 0.1504559511561732 -0.018451392814243517 0.15133775787360967 -0.24918497607866041 0.029994531309600555
1232812000.0 -0.24301174384468135 0.08516001263554002 -0.01802819052245009 0.1510358882898453 -0.01539258978191517 0.1514568996212457 -0.2494324465329831 0.03069723872063524
1233500000.0 -0.24223949822246807 0.08667414045277043 -0.014884712272425901 0.15159938612758483 -0.012281132442310147 0.15147774848242243 -0.24973647545366195 0.031336987437659204
1234188000.0 -0.24168731039282212 0.08825314055987868 -0.011844634838727702 0.15215404195088997 -0.009284015421913575 0.15144200464317958 -0.2500142976618882 0.031642138180398696
1234875000.0 -0.2412747241339088 0.08987368296417289 -0.008789949285648732 0.15255150826660874 -0.006372840483146749 0.15142936210838243 -0.25017676868756084 0.03210568361693747
1235562000.0 -0.24062202446709904 0.09128935206761457 -0.005629686354703924 0.15289534034494642 -0.0034699973737309167 0.15127452490447763 -0.25032464546690586 0.03253352557972287
1236250000.0 -0.24023704404343316 0.0928459496891764 -0.002271237693366163 0.153157794498242 -0.0007905825123458137 0.151337436904344 -0.2504277745920174 0.03290764293519422
1236938000.0 -0.23960968671802635 0.0942373069996396 0.0008109390191351302 0.153284848788374 0.0020209538518271373 0.15109824783777015 -0.2504838051072866 0.03327990811506875
1237625000.0 -0.23912652629459785 0.09566036486283148 0.00400802274613067 0.15320518138354694 0.004615147785527183 0.1510862176045982 -0.2505005546253642 0.03386794920239076
1238312000.0 -0.2384714641681818 0.0970756946676908 0.007188861638705545 0.15304843398910734 0.0072607050016745295 0.15090760208753173 -0.25045552700836066 0.034256281442300564
1239000000.0 -0.2379489866819786 0.09840465859941594 0.010432211372478134 0.15279446352159587 0.009944096316086715 0.1509259957041194 -0.2504892864966364 0.034748432128006705
1239688000.0 -0.23725097310855947 0.09956159017888568 0.01353075913828321 0.15252001513201383 0.012641830044385951 0.15095644350985166 -0.2503257156522453 0.03545726316656805
1240375000.0 -0.23643271761201892 0.1007685475852921 0.016703995195689384 0.15215505767940288 0.015301479785325698 0.15088949819665454 -0.25021227617692665 0.03619818330576873
1241062000.0 -0.23561584001912686 0.10181674784973561 0.01962189466212142 0.15163380990493464 0.018145080709418168 0.15085086808142206 -0.2501960191602411 0.03691503933297878
1241750000.0 -0.23484360887565306 0.10272917707081451 0.022623129686564696 0.15113421125148999 0.020971091161145414 0.15083451816959034 -0.2499371839103449 0.0377337784939862
1242438000.0 -0.23394525539295694 0.10350720408304222 0.025597502627622573 0.15045974053639266 0.023921273551016985 0.1507321591761667 -0.24975609378435337 0.03869472980957112
1243125000.0 -0.2330051926576752 0.10412038405748249 0.028481414554101196 0.14989591561631452 0.026923655296180828 0.15052352236467384 -0.2497117571022571 0.03976199783825744
1243812000.0 -0.23219550402596015 0.10477712979627905 0.031359798691727836 0.14931947616280955 0.030043043925878653 0.15034577763906087 -0.24973917752006333 0.0411217894340419
1244500000.0 -0.23118743652117807 0.10531176376037357 0.03408112402952401 0.148660842622626 0.03325647104907717 0.14991761809464518 -0.24972194043133952 0.04234061592592339
1245188000.0 -0.2301530196812137 0.10573767932215722 0.036936795886762255 0.14790089720661842 0.036529376937689394 0.1495142784719807 -0.2497003783035753 0.043694264651320584
1245875000.0 -0.2292186215129497 0.10608019926297298 0.03978321024963679 0.14734060592287104 0.039707077216696536 0.1489445125274225 -0.24987267359223245 0.045088842215527995
1246562000.0 -0.22829301480736286 0.1064274007156472 0.04257716948459526 0.146538270024783 0.04307881147253277 0.1482531028913094 -0.25004568526372817 0.04660483571417475
1247250000.0 -0.22723590475419925 0.10677832899107938 0.045347514560398615 0.1458391109695388 0.0462366295703146 0.14736370935726814 -0.25027869352127285 0.04793911676942151
1247938000.0 -0.22621745094411655 0.10712826276063617 0.0481157108399118 0.1450532811872903 0.0494514931917929 0.14649835168285258 -0.25047307968828647 0.049269608090804946
1248625000.0 -0.2252450497372622 0.10750844464662347 0.05093992596925974 0.14419026324400375 0.0526243927546778 0.14542897563224683 -0.2507559117389749 0.05055569484899029
1249312000.0 -0.22429050671959333 0.10783370199791145 0.05367719646052881 0.143468787061329 0.055621507712183695 0.14434136273395481 -0.2511089524835855 0.05174273403082715
1250000000.0 -0.22318751680475307 0.10836842839593856 0.05649488849239037 0.1424993855143007 0.05859359936747856 0.1430636690531257 -0.25137047484167385 0.052816604357569526
1250688000.0 -0.2222082461820494 0.10879297198445809 0.05927610694667914 0.14160378779383445 0.06148035552581785 0.14177119057040863 -0.25174326634337546 0.05370352307220603
1251375000.0 -0.2210898924501031 0.1094438793653284 0.06225030936579223 0.14075519221967153 0.06431206820881566 0.14030797002007275 -0.2520555242335903 0.05478338249721032
1252062000.0 -0.21999460904459942 0.11011875795046148 0.0649648152492489 0.13961691211516905 0.06704235433937161 0.13890892867201654 -0.25239208389189915 0.0551821693034062
1252750000.0 -0.2188189390460775 0.11079534202933937 0.06789162277550999 0.13850836223974458 0.06973097637298997 0.13748284145404593 -0.2529117502977427 0.05591753788524591
1253438000.0 -0.21759449726220972 0.11169108106103315 0.07089149709028643 0.13730276245963052 0.07240367807879414 0.1360197827334772 -0.2529299999948638 0.0563429656347492
1254125000.0 -0.2165131429639311 0.11248162454151615 0.07381090500208025 0.1360618076629026 0.07493367799325878 0.1345327805936836 -0.2532491968829756 0.056827340096052795
1254812000.0 -0.2152814444352364 0.11337437044429945 0.07670327188821158 0.13475385585275132 0.07748473903292187 0.13313149482819614 -0.2533799234160457 0.05710330178585886
1255500000.0 -0.21409694868594004 0.11428398496341197 0.07952617116873568 0.13330367323808814 0.08019292351421989 0.13169757056161085 -0.2534296484061086 0.05743987744939373
1256188000.0 -0.21285700470034927 0.11513113153211417 0.08237333685361144 0.13174347170704573 0.08259890171078277 0.13015244695474334 -0.25337631162598717 0.057620998633317114
1256875000.0 -0.21164713993772163 0.11601199159420539 0.08522210513050237 0.1300897668113493 0.08510734198762378 0.12865316014257308 -0.25312200386748346 0.05777254672179426
1257562000.0 -0.2105835849108891 0.11688598736280925 0.08804911282696078 0.12840138525321756 0.08768688343172544 0.12717940527035634 -0.25278978546550157 0.05795028013226776
1258250000.0 -0.20947795069635566 0.11781546365723813 0.0907959268643534 0.1265920642536533 0.09025708469585612 0.12567047155329325 -0.2523592137996906 0.05829474581273064
1258938000.0 -0.20846198113905207 0.1187733444361266 0.09346832778872742 0.12472782003135459 0.09285763855151823 0.12398648398257942 -0.25180695203694203 0.05859493919736737
1259625000.0 -0.20756745410412625 0.11943779372051545 0.09612836159786128 0.12283582047676689 0.0954683130863378 0.12225525512801494 -0.25110121088126175 0.05906926393380046
1260312000.0 -0.20664660575769525 0.12040014950656976 0.09866210979229927 0.12079952723281304 0.09811608762988036 0.12056383133971764 -0.2502810468587937 0.05954549716424633
1261000000.0 -0.20593719440857772 0.12131156692560076 0.1011051620641644 0.11882687466972433 0.10070863653635498 0.11880537574558188 -0.24932634638132375 0.060325703444454606
1261688000.0 -0.20529338994647772 0.12196175341847487 0.10356991861396114 0.11681197483242796 0.1032375773035871 0.11683597359905469 -0.24831585850622506 0.06120909575302399
1262375000.0 -0.20461300382020176 0.12289034414876185 0.10592385508617172 0.11471937886159543 0.10584612158860902 0.11488163841445465 -0.2471638595558293 0.062159926393981005
1263062000.0 -0.20421554709091716 0.12352608873617742 0.10817928816306303 0.11244178174154892 0.10832774819273178 0.11270056291567683 -0.24603755223689625 0.06345795379720463
1263750000.0 -0.2037845996798108 0.1244943271629203 0.11057111205211657 0.11028831733344902 0.11076306758384165 0.11050286864866286 -0.24494156389170876 0.06482518205726795
1264438000.0 -0.2031589755741518 0.1251930680834242 0.11277752715616142 0.10802091281234391 0.11323134401790035 0.1082315943638349 -0.2440613670641062 0.06644986276376876
1265125000.0 -0.20278525136386397 0.1261697854189648 0.11502764451460473 0.10565569587578957 0.11561109557726688 0.10586099630713644 -0.24290136237811508 0.06818251739643057
1265812000.0 -0.20240554514743425 0.1267942680609778 0.1171404623471559 0.103298638361916 0.11787894817949073 0.10343431996252728 -0.2420445259855629 0.07015023948403794
1266500000.0 -0.20222964091141685 0.12765674102610286 0.11931837222673343 0.10087059927192474 0.12004433667154353 0.10099039659814597 -0.24122864084263065 0.07222480197267966
1267188000.0 -0.20163103850341169 0.12852820477778928 0.12140379979516512 0.0986000916541719 0.12202044077332719 0.09845590478446703 -0.24035033975088912 0.07430597305298385
1267875000.0 -0.20132336048386096 0.12921398776677823 0.12343025892312585 0.09616221225142141 0.12412428358285396 0.09584375940418786 -0.24000989215128213 0.0766702161938892
1268562000.0 -0.20102441286350733 0.12981024716491235 0.1254257187539343 0.09363987710897427 0.12602059854937625 0.09327391931456355 -0.23961153532536544 0.07867227894919573
1269250000.0 -0.20043834481665398 0.13046697179460856 0.12734383228471827 0.09110879983415057 0.12790908399945036 0.09060504228931929 -0.23926842252202735 0.08104934209272494
1269938000.0 -0.19996757717517788 0.13095293418411458 0.129235887824656 0.08850603084424283 0.12981740239560186 0.08788708694114944 -0.23921470121520966 0.08327056431910236
1270625000.0 -0.19945743972456176 0.13154610764239347 0.13111974399286405 0.08594243787858084 0.13158545635614316 0.08529945126084942 -0.23938157175933042 0.08516337440999955
1271312000.0 -0.19882974893625383 0.13202838559802646 0.13277563373908624 0.08317597566425855 0.13321830202999227 0.08252034102749882 -0.23961039847003535 0.08739850721269223
1272000000.0 -0.19822589338912272 0.1324413053662983 0.13447967443707434 0.08052797714660301 0.13489383065950075 0.07984385956284584 -0.2398339614093222 0.08927506721600167
1272688000.0 -0.19760786555227022 0.1328766254334764 0.13623845755454242 0.07777998617643204 0.1365168162673929 0.07706007216764839 -0.24036086738055784 0.09108863839342334
1273375000.0 -0.19686901194675735 0.13331731019455267 0.13782090121445412 0.07493783467301188 0.13804778802296558 0.0743480617402625 -0.24083042481701514 0.09271868107159068
1274062000.0 -0.19617704391084914 0.13365947197178085 0.13933557679982875 0.0721342810349048 0.1395236877175201 0.07146968670989727 -0.2413671939208166 0.0940934139509497
1274750000.0 -0.19529792026880902 0.13406480221952244 0.14088352763820808 0.06926490715462384 0.14102962136830258 0.0685914635134892 -0.24195877428800075 0.09538938791102027
1275438000.0 -0.19441795115629576 0.13438294038384155 0.14231649426086906 0.06628847850548811 0.142451508788755 0.06573532649047677 -0.2423135219941442 0.09656322686975502
1276125000.0 -0.19348875067058033 0.13467679353380624 0.14373551308082388 0.06329897442206403 0.1438383800914234 0.06280694297555486 -0.242737445150025 0.0975936488044073
1276812000.0 -0.19259113305970932 0.13505032691686647 0.14498983572301402 0.06034289731894281 0.1451100921801338 0.05994200760413203 -0.24289850604367658 0.09851601120889489
1277500000.0 -0.19149048050121328 0.13546304117937757 0.14627149525881325 0.05722316345155341 0.14637750931998347 0.05690756342626058 -0.24305791716919972 0.09931222806736584
1278188000.0 -0.19044038731813254 0.13598037031027324 0.14755848126806514 0.05426591254458315 0.14764747137681283 0.05390610921080013 -0.24282121971837803 0.10014791151749723
1278875000.0 -0.18941096367693513 0.13630529625928217 0.14868704321861204 0.05117935082631066 0.148750592341188 0.05091624650453252 -0.24285747899583093 0.10083457417451185
1279562000.0 -0.1882119669631711 0.13678891286228884 0.14971942240245434 0.04808910161577449 0.14976888206603825 0.04776262897916621 -0.24250811953566317 0.10150375994111285
1280250000.0 -0.18689490665681735 0.13740898985244643 0.15079999910525374 0.044938148640074865 0.15082124188509485 0.04473051001849053 -0.2420557645154588 0.10232155120195303
1280938000.0 -0.18576905749706063 0.13798000031544272 0.15171059941106774 0.04182953131948053 0.15180418429209994 0.04160609159340887 -0.24115379708545412 0.10314635105613723
1281625000.0 -0.18444757223930175 0.1385648815252679 0.15254044490576893 0.03867298619395982 0.15282755331336215 0.038551325649612556 -0.2405966189327742 0.10403839884357322
1282312000.0 -0.18314004412755652 0.13921745775227853 0.15333961361932671 0.0355736269297007 0.15357542388287468 0.03529662769706531 -0.2394976213118422 0.10497690537166926
1283000000.0 -0.18180677437289594 0.13995858191521787 0.154089911383314 0.03238458271754839 0.15436254401416602 0.03212604705626188 -0.23851565036070177 0.1062124481585002
1283688000.0 -0.18056163016969556 0.14059855992972042 0.15474968112247123 0.029181855516553043 0.15507729887955735 0.028840435560486117 -0.23729488594978007 0.10752531471256672
1284375000.0 -0.17934198684106692 0.1414253301278975 0.1554194332677546 0.026068672180901028 0.15572064588619605 0.02557487726326246 -0.23618359760895988 0.1090200827713561
1285062000.0 -0.17802599091511315 0.1422502199718165 0.15583176122333295 0.022788577012184615 0.15638831971861364 0.022256223090825537 -0.23512763448164495 0.11085685498094074
1285750000.0 -0.17680195769786583 0.14306633401986055 0.1562795816095606 0.019564454150740134 0.1568285479439435 0.018950287686453772 -0.23407892294606863 0.11247066289714232
1286438000.0 -0.1755333878337129 0.14401478088184771 0.1567024236493797 0.01633451187348326 0.15726342270710114 0.015603384356076173 -0.2331321457950667 0.11475656532759052
1287125000.0 -0.17430738469582072 0.14483612978098095 0.1570097669439838 0.013111135274342368 0.15759924178784473 0.012194991935315098 -0.2322025219125502 0.11703544337821828
1287812000.0 -0.17310535009305958 0.14571976841251844 0.15732253773524857 0.009827040778087973 0.15785646054473748 0.008840014657169971 -0.23155678073231833 0.1191821236434228
1288500000.0 -0.17189519162179606 0.14666654564539613 0.15760054911027202 0.006603146353817333 0.15803533487273377 0.005512214510883635 -0.23115424209817964 0.1215440861297906
1289188000.0 -0.17078398004185916 0.14768272219504927 0.1578533250656111 0.003341943247619244 0.15801456567030134 0.002144210800712521 -0.23068978898581716 0.12406034254440976
1289875000.0 -0.16958028995038854 0.1484838501234039 0.15790143282913635 -7.975559217814444e-05 0.15801703516954885 -0.0011649459399331811 -0.2303381546649445 0.12660132001205388
1290562000.0 -0.16846977440675215 0.14939474813002782 0.157901316438934 -0.0032566016558021895 0.1578513582806587 -0.0045558591256275646 -0.23058204971730634 0.12901265504285805
1291250000.0 -0.16726294144406045 0.15015627645127028 0.15788358766245927 -0.006616114581444454 0.15760405922247386 -0.007872915896833478 -0.23064746212117018 0.1314218855889496
1291938000.0 -0.16606128747938734 0.15102726550005366 0.15774295929211113 -0.00987495841926402 0.15723962576263376 -0.01109156145059405 -0.23101621755668114 0.13354705790621293
1292625000.0 -0.16500098266860044 0.15177478415456688 0.1575381406133806 -0.013212746201434904 0.15679241437991848 -0.014310999363528473 -0.2314431171471293 0.13590897702757912
1293312000.0 -0.16388808209853833 0.15229555882238158 0.1572636197862059 -0.016554377489440757 0.15626230876505667 -0.01744305535288108 -0.23195567958407373 0.13793379198766484
1294000000.0 -0.16281173665348264 0.15281436852401026 0.15675920202731594 -0.019927477827483726 0.15574997337427304 -0.020573416912484974 -0.23252099397854117 0.1396760148785996
1294688000.0 -0.16173227390809283 0.15339234407636432 0.15637069238667775 -0.023201155196971197 0.1551529226495025 -0.02371864546327188 -0.23307992160252478 0.14138890612371607
1295375000.0 -0.16078524693086396 0.15354859455678402 0.1557901335463646 -0.026578720964676762 0.15456915182644443 -0.02675719128530538 -0.2335589170649513 0.14282389394367664
1296062000.0 -0.15959027651975602 0.15398566540936728 0.1551353260670051 -0.029966346875095036 0.15389070726730883 -0.029738946158384495 -0.23395543679170816 0.14408414670452532
1296750000.0 -0.15887689098248 0.1540642329756033 0.15435098495455135 -0.03308551274606604 0.15323528757552465 -0.03277581839488839 -0.2342593527183381 0.14502658996357262
1297438000.0 -0.15783294872576173 0.1541276406037715 0.1533569243762067 -0.03636727244757727 0.15249333730866818 -0.035770352697724106 -0.23450047094806098 0.14591126096162058
1298125000.0 -0.15667751002456137 0.15420630717846823 0.15240433679779858 -0.03956851644096436 0.15180054759758924 -0.038849396880608233 -0.23471776625479668 0.14650474401092697
1298812000.0 -0.15572197575549118 0.15428065539642394 0.15133708329105908 -0.04287819947086066 0.15103279859136007 -0.041963350612879396 -0.2343753718348369 0.14693090442877085
1299500000.0 -0.15474563506758973 0.1540643014398286 0.1501897711724407 -0.045998562955931556 0.1502979571599904 -0.04492181898277623 -0.23390061225486758 0.14718117939980813
1300188000.0 -0.15383160495839757 0.15409708696305152 0.14895936600540588 -0.04894744605132398 0.14946013823367488 -0.04821378936172652 -0.23320606198938992 0.14751280785160928
1300875000.0 -0.15252532856737075 0.15402328425197598 0.14763138877267568 -0.052021732785398796 0.14862675804755848 -0.05128976831242403 -0.2324703370898324 0.14758434230623432
1301562000.0 -0.15165466499123256 0.15382553263408907 0.1464525991792087 -0.05506703560531455 0.14767667661606915 -0.05444229972143031 -0.23123386659297868 0.14787358487076765
1302250000.0 -0.15036679884525644 0.15366792548502042 0.14512631212619112 -0.05786783656404211 0.14655093007600573 -0.05768218953531367 -0.22992983910422915 0.14784771314393294
1302938000.0 -0.14914018023334558 0.15348167322976225 0.14373146658835895 -0.06073620613243129 0.14527797334087136 -0.06085947411478489 -0.22843723649828704 0.14809297763280704
1303625000.0 -0.1477882141504138 0.15347976378511194 0.14219084352959235 -0.0634062963142253 0.1439003071266405 -0.06410709234368034 -0.22661667054561288 0.14825996425076535
1304312000.0 -0.14642450148324254 0.1531747118599856 0.14078311585364223 -0.06629655035237833 0.14239440312743762 -0.06724536734130068 -0.22479660208732657 0.14885386926264235
1305000000.0 -0.14504533472927278 0.15289311347039117 0.1392875595325511 -0.0689829940400432 0.1407560435308032 -0.0703834480325107 -0.22275957838555166 0.14955496905102264
1305688000.0 -0.14338611254262018 0.15278532285914656 0.13783222939390946 -0.0716721066663303 0.1389911707513258 -0.07349049508173916 -0.2207044749688125 0.15026879548742134
1306375000.0 -0.14166576627638852 0.15240157630195253 0.13624744139449216 -0.07430753284285378 0.1370124156150776 -0.07644490016793681 -0.21865938066709376 0.15128700726048877
1307062000.0 -0.13985095696439823 0.1520461123845093 0.13483351295395699 -0.0768160616050396 0.13500939579484258 -0.07926713352027727 -0.21665997764217954 0.15245787252182827
1307750000.0 -0.13823653944518893 0.15170996868756362 0.13315892843240884 -0.07964240646215401 0.13296620593176028 -0.08209096410621858 -0.21449463188747733 0.1538418686636786
1308438000.0 -0.13621922114162893 0.15154741830182367 0.13159839688848873 -0.08227773645714585 0.1308170446318855 -0.08476304261233128 -0.21277085980487997 0.1554902142854029
1309125000.0 -0.13465451614609206 0.15099347951051995 0.1298073141183695 -0.08488505252170218 0.1285813731804 -0.08723791145431359 -0.21077689255280319 0.15714321659907834
1309812000.0 -0.1327467145808794 0.15072118857829495 0.12816613343093383 -0.08749605797546911 0.12645338937403777 -0.08958129449481644 -0.2091423885490338 0.15897896451936894
1310500000.0 -0.13107141513328543 0.15029579575989496 0.1262938263426444 -0.0901797723521 0.12430701269186756 -0.09185113012391326 -0.20733502612158172 0.16117400679767688
1311188000.0 -0.12933496182399185 0.14998321965948389 0.1244526213213499 -0.09281518363268604 0.12219603810493553 -0.09408211781167637 -0.2059815883465251 0.16312867795617841
1311875000.0 -0.1278215896227727 0.14945507020131654 0.12250276092597977 -0.095373656424608 0.12006304452700206 -0.09615089484834423 -0.20474418205823194 0.1651701939149586
1312562000.0 -0.12614980580560087 0.14928258841718187 0.12033020943340855 -0.09802685688469005 0.11798959046761884 -0.09814822720510473 -0.20352815779201197 0.1670600178636978
1313250000.0 -0.12489105699653116 0.14904995878718497 0.1183090850166967 -0.10043408530552375 0.11596953604870303 -0.10011944419870233 -0.20237540008562208 0.16916590970479287
1313938000.0 -0.12350888978212404 0.1488209530085377 0.11602127732769334 -0.10288168383625433 0.11404055283580179 -0.10211057378734556 -0.20130374422860903 0.17094503323379237
1314625000.0 -0.12225850529778245 0.14882149688270152 0.11371319545837479 -0.10527314536615288 0.1121799794097844 -0.10416900424224951 -0.2001183257164782 0.17259378315510093
1315312000.0 -0.12108646689594102 0.14867814057663054 0.11129651328480707 -0.10753972424140985 0.11024947718106337 -0.10613102420608385 -0.1993305691261408 0.17439140997521455
1316000000.0 -0.1199275129777427 0.14886107247392624 0.10879483961994803 -0.10976852887765683 0.10820056722997519 -0.10824385931176363 -0.198321871213524 0.17578569078854342
1316688000.0 -0.11889415302154022 0.1489937065600672 0.10625817273713303 -0.111969788769827 0.1061261402096997 -0.11029466585106104 -0.19726423721315198 0.17695896214972423
1317375000.0 -0.11793000019279067 0.14904781249499577 0.10368007738723586 -0.113937164544305 0.10408839919032349 -0.11234669616101214 -0.19639158668701037 0.17802253426055295
1318062000.0 -0.11693410993337039 0.1493375989371039 0.10101224861259406 -0.11575219809280597 0.10175899657030955 -0.11450433608096088 -0.19511591889699717 0.17877355959307975
1318750000.0 -0.11616501673594605 0.1496447952909388 0.09841419418989125 -0.11761507330352723 0.0995541558760183 -0.11673136343222186 -0.19412040803046973 0.1796737303373625
1319438000.0 -0.11519933312115575 0.14977229109729065 0.09584697542906619 -0.1193046694735701 0.09707388221881838 -0.11885105050282907 -0.19288311256567664 0.1800086990113902
1320125000.0 -0.11435886838783979 0.1501091630821388 0.0931295603708917 -0.1210443959298321 0.09455437395752156 -0.12103526709565036 -0.19122851413700498 0.1803360948494253
1320812000.0 -0.11347251335563961 0.15034415719132607 0.0905553537356625 -0.12265049705387213 0.091713600007619 -0.12308271223046499 -0.1895775924051636 0.180699473431329
1321500000.0 -0.11271265779247228 0.15044456117282143 0.0878309822857256 -0.12404997863728359 0.0890618965872759 -0.12503026964423186 -0.1878413108377023 0.18060394774868224
1322188000.0 -0.11198006999924881 0.1504896670594761 0.08525044293231857 -0.1255843649966545 0.08621463352067756 -0.1268861021129066 -0.18591490873168817 0.1809374843270778
1322875000.0 -0.11127730602735783 0.15056234121667292 0.0826460516514699 -0.126979597271662 0.08323387974952344 -0.12855560230320542 -0.18376560477315365 0.18095579151013147
1323562000.0 -0.11067501730163054 0.15043983066110075 0.08009023736421084 -0.1284409120657157 0.08021166389370729 -0.13014427250346303 -0.1816287535268167 0.18089231225289648
1324250000.0 -0.11012333376489257 0.1502064451071408 0.0773837410677921 -0.12964167562992782 0.07733315818121726 -0.13160629577840285 -0.17913796761724682 0.1810692317073057
1324938000.0 -0.10967091255350282 0.14984334991973905 0.07482035713901052 -0.13086974481396216 0.07421477411293693 -0.13283953930308182 -0.17673198793204759 0.18149037871625348
1325625000.0 -0.10920140753363776 0.1494638955963878 0.07220779730126821 -0.13223217466730955 0.07131476664030995 -0.1338609103239023 -0.17415540640435856 0.18194586868288112
1326312000.0 -0.108927303639948 0.1489928454229825 0.06965541725835064 -0.13335394887558896 0.06840992020795017 -0.1349099252963458 -0.1714627485955728 0.18247013156396313
1327000000.0 -0.1085743716046144 0.1484991435743268 0.06700359262559907 -0.13452394977893056 0.06549076516019221 -0.1356783268067955 -0.16882672691084985 0.1832345646315459
1327688000.0 -0.10836760475411251 0.14785772027476218 0.0643746538611737 -0.13567758329788143 0.06278096932531863 -0.13642768085674448 -0.16630675047446683 0.18427129595566763
1328375000.0 -0.10815408496872239 0.14737205903270997 0.0616014060870917 -0.13671946292899234 0.06007266344679815 -0.13718770875054334 -0.16352747485126773 0.18552790626298865
1329062000.0 -0.10811589367605329 0.146835976858728 0.0590460907986168 -0.13784113248988195 0.05741910279736103 -0.1378710592168543 -0.1608326068377784 0.18687719246347875
1329750000.0 -0.10788790297941366 0.14624486101445167 0.05630180863805627 -0.13880780615305674 0.05482503058071701 -0.1385046885764464 -0.15832553076907568 0.18828370077729226
1330438000.0 -0.10771912409161745 0.14567641063104672 0.05356217843426468 -0.13982899176922683 0.05231528045492567 -0.13922921084326487 -0.1557238325456032 0.18995746937559418
1331125000.0 -0.107466488316826 0.14513015600327597 0.05077928852150584 -0.1406370043122333 0.04980772983538626 -0.13998478975130685 -0.15330576259426523 0.1917040619648179
1331812000.0 -0.10727541571931369 0.14469621507384342 0.04801074263494266 -0.14146851174275357 0.04725989600567859 -0.14071219167953977 -0.15097576607408839 0.19340247255805174
1332500000.0 -0.10690304390552295 0.14431251561866332 0.04515995074120262 -0.14224154598849337 0.04476271001923274 -0.14142640821328545 -0.1487598459352321 0.19519069355860286
1333188000.0 -0.10646448476415725 0.14393404429979037 0.04236654369320501 -0.14307262248182834 0.04212750398037679 -0.1423309555967613 -0.14668442750575006 0.19715030688078627
1333875000.0 -0.1058536275769163 0.14358904364278957 0.03953859537524815 -0.1437283571557104 0.03948487255352748 -0.1431505097402466 -0.14467109427411054 0.19895580346828315
1334562000.0 -0.1053382974733594 0.14326031959176272 0.036703456527212616 -0.1442897954700992 0.03682898604960176 -0.14398722441082273 -0.14288543980141954 0.20064898349477078
1335250000.0 -0.1044794298184684 0.14296442407726978 0.03382173122376296 -0.14479906454990638 0.034084598782820476 -0.1447760762403665 -0.14104003088777353 0.20231289413467526
1335938000.0 -0.10357791342929447 0.1426470144517696 0.03090772174980174 -0.1452255908014452 0.03117240364194823 -0.14545293078117075 -0.1393676488181953 0.203852993995517
1336625000.0 -0.1026158917292254 0.14236305206705235 0.028091007731149323 -0.14558576239003904 0.028232925720854854 -0.1460910916214999 -0.1377202795543853 0.20506711121480592
1337312000.0 -0.10165236678127532 0.14201050858762398 0.02524191077091409 -0.14589109272618347 0.02522916528888952 -0.1465842787486658 -0.13631413770701387 0.20608395820393088
1338000000.0 -0.10059679037466697 0.14175253640683907 0.02239403358432068 -0.1462484982184629 0.02212575248631765 -0.1469967446975013 -0.1346329968695516 0.20712113618238137
1338688000.0 -0.099427021076397 0.14141040303246044 0.01941337220825383 -0.14633794305167774 0.019029425182960972 -0.14722449773237026 -0.1331398558903506 0.20787363237868833
1339375000.0 -0.09842453845301129 0.14116208729822732 0.016615968775956558 -0.14658184621206385 0.01601209594426315 -0.14743208460520976 -0.13159541829052163 0.20855233220739608
1340062000.0 -0.09727246496916171 0.1407577364944543 0.013843406155003095 -0.1465862651417677 0.012940021433389045 -0.14746560203881798 -0.1300949384624925 0.20889339474030114
1340750000.0 -0.09633800982882801 0.14056081354096223 0.010950364330812663 -0.14669894084405677 0.009919081772043427 -0.14738786201433182 -0.12873590654077802 0.20909707061247826
1341438000.0 -0.09527671493563003 0.14033585830687295 0.008110740511506195 -0.14676608976913036 0.006915445013106936 -0.1471540962499239 -0.12708440366401677 0.20917343833640464
1342125000.0 -0.09428350517308084 0.14019967200766226 0.005300365295165346 -0.14668662056399082 0.0040482794932345965 -0.14694760161755366 -0.1256859821625905 0.20910875679963334
1342812000.0 -0.0933901609674516 0.1401084304786058 0.00243347401962896 -0.14673101876358918 0.0011790882697673467 -0.14664172431293804 -0.12381571521084574 0.20897830549337001
1343500000.0 -0.09255316103018724 0.1401509404681357 -0.0003036817441434277 -0.14662252724562927 -0.0016794430782974118 -0.14627848801105603 -0.12220442949927589 0.20867524307319013
1344188000.0 -0.09173257767803557 0.14029129023063877 -0.003138003168768994 -0.1464659111764876 -0.004310612811822976 -0.14578752015195195 -0.12056330095314823 0.20832287441639827
1344875000.0 -0.09102200292870888 0.1404967417717537 -0.006027990916681697 -0.1461867244692389 -0.006943642369588962 -0.14544140553732068 -0.11871576911212733 0.20817734676706287
1345562000.0 -0.09036947901329463 0.14076820325171344 -0.008759763169446034 -0.1458694423431045 -0.009518712712171399 -0.1449625849501117 -0.11691572441599295 0.2079380650259199
1346250000.0 -0.08976565907605465 0.14120395125584648 -0.011557082185205904 -0.1456050352317673 -0.012117792102930696 -0.14461442981571698 -0.11501809816835484 0.2075912941659581
1346938000.0 -0.08924487034994312 0.1415906484562796 -0.014288850254488904 -0.14528130518081958 -0.01460185161703834 -0.14424920107448969 -0.1133820330112357 0.2073796279255613
1347625000.0 -0.08857940761832159 0.14200390600261498 -0.017194806914217365 -0.14475569105072314 -0.01704589973974131 -0.14387452522028604 -0.11139153425350631 0.20715157549017613
1348312000.0 -0.0879664003020619 0.14257254871358907 -0.019830812885414953 -0.14417530127378844 -0.01963997248822146 -0.14354446292134074 -0.10930040260681947 0.20708483526766377
1349000000.0 -0.08739581083645641 0.14307039109609176 -0.022594059042079433 -0.14361475383212657 -0.022154480702165424 -0.14319300942080684 -0.10740147637933091 0.2067992955008171
1349688000.0 -0.08691110983914284 0.1435210786056293 -0.025199461640872032 -0.14301526781299118 -0.02471856594366016 -0.14278173403405625 -0.10571948204903182 0.20661203207429107
1350375000.0 -0.08623857404832459 0.14404243990863602 -0.02792877830310258 -0.14224128121808208 -0.0274384230684765 -0.14237633948698492 -0.1033476041700748 0.2067658188300088
1351062000.0 -0.08582112404110809 0.14436345907535575 -0.03046527023546829 -0.14147463237192026 -0.030029647832475977 -0.14185003716313335 -0.10128923964477214 0.20676517058204216
1351750000.0 -0.08524036835354777 0.14455592731061337 -0.0330899674824946 -0.1407058211132134 -0.0327149706144611 -0.14134140437692372 -0.09950922803515158 0.20689016946370928
1352438000.0 -0.08478611483857039 0.1448906856466775 -0.03567672688630095 -0.14002946211446246 -0.03550079934501105 -0.14078796633629118 -0.09746627216930542 0.20678331906250055
1353125000.0 -0.08448095953060455 0.14495834985257755 -0.03817046134483452 -0.13923646107333246 -0.03824346501670148 -0.14017587219444091 -0.09548324556688312 0.20684782642445984
1353812000.0 -0.08406037903232295 0.1448744791142973 -0.04051727365896426 -0.1384596867680029 -0.04103194967183795 -0.13933555763928077 -0.09342707002051477 0.2068984890290695
1354500000.0 -0.08368696120049952 0.14482985425435702 -0.043015693647872125 -0.13753085489990832 -0.0436970283953653 -0.13857453706521214 -0.09177152593062954 0.20702031766706128
1355188000.0 -0.083356597630763 0.14468937248373906 -0.045539748742149916 -0.13669292702191058 -0.0464289511039208 -0.13757065099062768 -0.08980167651078408 0.207132373745389
1355875000.0 -0.08324043255062903 0.14433752662388588 -0.047915523912640694 -0.13576734590717238 -0.04906629740787597 -0.13648605829461122 -0.08798312787445477 0.20683561102741216
1356562000.0 -0.08304106321713295 0.1439529841393142 -0.05035781362440421 -0.13482459501562394 -0.05167106844445436 -0.1353431335687371 -0.08611225916763664 0.20681493226620323
1357250000.0 -0.08285946997170332 0.14343126598788716 -0.0526574966997427 -0.1338474048899233 -0.05419241791149978 -0.13416524738926663 -0.08450067360339271 0.20674185616290713
1357938000.0 -0.08268378922078064 0.1429553918209458 -0.05517825443325866 -0.132882794304466 -0.05673329121489658 -0.1328889655782881 -0.0826759456228515 0.20629336247268384
1358625000.0 -0.08265060821015495 0.14239148092683726 -0.057486526656284294 -0.1319111926177552 -0.05919849658930542 -0.1315826391349462 -0.08084668916152155 0.2059880541121866
1359312000.0 -0.08252744128056361 0.14189462969645975 -0.05991471717186412 -0.13083243271749648 -0.061466880710441624 -0.13028218020304722 -0.07911948614213105 0.20542894674270348
1360000000.0 -0.08231998671627318 0.14119429408441944 -0.062330045578990544 -0.12965888660432087 -0.06377859886056476 -0.12898035579631215 -0.07739903782634582 0.20485862405778
1360688000.0 -0.08214741780935676 0.14061811128439985 -0.06477931494331861 -0.12867246204706978 -0.0660500560748858 -0.1276681992139397 -0.07578181136907504 0.20418652438147514
1361375000.0 -0.08189388826562857 0.13995351828579883 -0.0670598238813424 -0.1274614362822942 -0.06817596631046775 -0.12629375424512762 -0.07427363530919691 0.20335147217437244
1362062000.0 -0.08158072810989446 0.13927353910130988 -0.06952005257067402 -0.1261713373748676 -0.07032257528699916 -0.12495371169253068 -0.072543437963525 0.20240298504744597
1362750000.0 -0.08133332387563366 0.1386842511879031 -0.07185257657225931 -0.12498527290647622 -0.07246354749717286 -0.1237121448571089 -0.0709638882647655 0.20148672732034548
1363438000.0 -0.08078671503629607 0.13795813493952297 -0.07424072283675093 -0.12359728740774265 -0.07456624782025256 -0.12237586382211826 -0.0692830944317765 0.20048518085527867
1364125000.0 -0.08031943263886608 0.13733744194710698 -0.07663260826222504 -0.12222782345110644 -0.07673367788495093 -0.12100078426829344 -0.06767339256202795 0.19941513230084223
1364812000.0 -0.07974834948173722 0.13665232906614283 -0.0788882424674205 -0.12077986521130102 -0.07883452833989225 -0.11970438578654088 -0.06609401162472081 0.1981472517242247
1365500000.0 -0.07912260714937026 0.13592148134915186 -0.08118672211285727 -0.11925316575621761 -0.08095855647105224 -0.1184230352233877 -0.06422985014289453 0.19690221405888006
1366188000.0 -0.07833971069055291 0.1352518315679862 -0.0834758973182934 -0.11769021279685285 -0.08311577266960753 -0.11703674060841807 -0.06269168468705602 0.19578240982343695
1366875000.0 -0.07755137936929424 0.13459640926288935 -0.08584766731073476 -0.11612077403317729 -0.08525325483093518 -0.11562708930163464 -0.060848711397613144 0.19439251008675765
1367562000.0 -0.07679302552887533 0.13391064672150813 -0.08790335352808577 -0.11440671306429236 -0.08751576079669467 -0.11413609799133877 -0.05911957097787517 0.1930704031323312
1368250000.0 -0.07591986337202768 0.133207630794954 -0.09012335571644106 -0.11273135239068141 -0.08969942494056388 -0.11261489100126769 -0.05737782407688933 0.19178555073448805
1368938000.0 -0.07514895023618631 0.132573072124548 -0.09217080023282799 -0.1110252367001332 -0.09187118285163393 -0.11102295460573096 -0.05545912812140757 0.19062001195922096
1369625000.0 -0.07433388756503519 0.13191825351895076 -0.09415656567532965 -0.10923814849653422 -0.09404400135953513 -0.1094120682006707 -0.05379990674896993 0.18923900699533303
1370312000.0 -0.07348301896917554 0.13126235102626319 -0.09621062407403728 -0.10744778275024454 -0.0961712322389513 -0.10766876094165594 -0.051848880054970806 0.18771975349227488
1371000000.0 -0.07283598482634769 0.13062310322414974 -0.09814287917422435 -0.10548751738040027 -0.09828984779569651 -0.10590264221849709 -0.04983163527091266 0.1864940272082945
1371688000.0 -0.07211727352406899 0.1301363885819213 -0.1000820328254688 -0.10380618119419288 -0.10041866238653861 -0.10404594433679767 -0.04786648937081968 0.18516110642534298
1372375000.0 -0.07143763290906946 0.12964554642150833 -0.10186442323473673 -0.10197093749041515 -0.10245454575148787 -0.10210794308558772 -0.04597519180026418 0.18380854623573173
1373062000.0 -0.07085702650301334 0.12911695817519936 -0.10369215813882715 -0.10002180313733619 -0.10443344226868026 -0.10019530107189707 -0.043677558363006505 0.18253550973577473
1373750000.0 -0.07031237936146124 0.12880831423569733 -0.10553033158129174 -0.09812773605901139 -0.10624516193161872 -0.09818545356523971 -0.041726288810872494 0.18104724193948704
1374438000.0 -0.06987637784018573 0.12846562187501842 -0.10730708817093988 -0.09620336121917328 -0.1081628034741324 -0.09620303071581306 -0.039668050166879354 0.17978755575095792
1375125000.0 -0.0694705084372952 0.1282765173624663 -0.10906108805572234 -0.09430186557409961 -0.10995623229127499 -0.09411379742830836 -0.03760879798754408 0.17832982200061087
1375812000.0 -0.06914332428824041 0.12815752892437127 -0.11085961939914639 -0.0923739506070836 -0.11173756185635997 -0.092035872653307 -0.03534129236867976 0.17699590977912694
1376500000.0 -0.06875192162991543 0.1279069037589731 -0.11247937994265876 -0.0902896414064547 -0.11338711549904575 -0.08989960976714033 -0.03329565788963355 0.17564315667500138
1377188000.0 -0.06851833806757653 0.12793226759357992 -0.11418486934725468 -0.08833695634704489 -0.11507628461583227 -0.08778808493121838 -0.03097263647411903 0.17430066509350023
1377875000.0 -0.06829310069212854 0.12791208548958358 -0.11592370027865441 -0.08623072769309374 -0.11664736142594193 -0.08571825295669307 -0.028870226821523952 0.17314817578008787
1378562000.0 -0.06828684981308467 0.12785839950513658 -0.11761266967952508 -0.0841843289310069 -0.11818429658654474 -0.08359929220212067 -0.026739752618709513 0.17183800147316236
1379250000.0 -0.06809113925112974 0.12781276652928367 -0.11925413129711022 -0.0821652633172937 -0.11979006675717972 -0.08139669620174013 -0.024550073493769024 0.17055938185872963
1379938000.0 -0.0679957582447557 0.12782566289015557 -0.1208741671709043 -0.08004503936389164 -0.12129762089835718 -0.07926052554121431 -0.022542837525732842 0.1694772375598756
1380625000.0 -0.0679880997564924 0.12777607509519193 -0.12247744503328153 -0.07784228251778719 -0.12279857864718542 -0.07704339817812421 -0.020607565269625944 0.16837876331255466
1381312000.0 -0.06802589240313438 0.1275732816613973 -0.12398770312962108 -0.07575694955140161 -0.12429260279939572 -0.07485524351065705 -0.01863388573925526 0.16715429265918771
1382000000.0 -0.06802317591206129 0.12747355573662858 -0.12559751283294832 -0.07342865615117052 -0.12580818619568637 -0.07264335342298933 -0.016944057217871632 0.16610441905601675
1382688000.0 -0.06810830716991698 0.12742026248145324 -0.12710041589261192 -0.07113468868229089 -0.12727935104708427 -0.07039887848725185 -0.015169482075065892 0.16514907562255313
1383375000.0 -0.06821737128912028 0.1271604557115567 -0.12853132355559585 -0.06876209995505951 -0.12863395735428673 -0.06808697354303955 -0.013496813046479358 0.16420785592486964
1384062000.0 -0.06828015801575245 0.12690708609312135 -0.129985549846295 -0.06643033688079465 -0.1299567034681508 -0.06572725986807677 -0.012123544035466536 0.16312306081148503
1384750000.0 -0.06851158413896763 0.12657137252169334 -0.1314169899342505 -0.06400146863899649 -0.13138258674348544 -0.0634087096669552 -0.01068043643430167 0.1620561824595504
1385438000.0 -0.06862566264560944 0.12614935024698073 -0.13268247658373644 -0.061600445411488354 -0.13261993592582005 -0.060984722763300185 -0.009523140256853843 0.16093747307128148
1386125000.0 -0.06880915833718601 0.12570721028562926 -0.1339676861385963 -0.059082989264465945 -0.13399536964596986 -0.05852756896539267 -0.00840529613541999 0.15975385645634266
1386812000.0 -0.06889340764316841 0.12524349858616587 -0.1351551853430338 -0.056559343163204934 -0.13533856013017326 -0.056059536041302926 -0.007344997454192423 0.1587102034088895
1387500000.0 -0.06913310037229685 0.1246903473584183 -0.13639431440887878 -0.05397660680282278 -0.1365968424595384 -0.05357486084445092 -0.006526423548987121 0.15741171447160393
1388188000.0 -0.06936582605517932 0.12416542980245993 -0.13758674713654775 -0.05133823281896906 -0.13773062136716704 -0.05094547969031065 -0.005652354705106908 0.1562252138328507
1388875000.0 -0.06947510544374724 0.12355360033039153 -0.1386677605481078 -0.04868656888315216 -0.13883801530494294 -0.04848627520393146 -0.004977316866534141 0.15483091109965139
1389562000.0 -0.06955508735263743 0.12297502464158429 -0.13969693137569889 -0.04612495077657247 -0.13987670944176023 -0.04577164207955699 -0.00434174557594314 0.15319503471099746
1390250000.0 -0.06971651082512498 0.12235835406537049 -0.14069655693415634 -0.04346728472134466 -0.14090323693054702 -0.04299978199573066 -0.0037982527684784022 0.1517611433798765
1390938000.0 -0.0697383169923733 0.12167596884810866 -0.14163812542897367 -0.04068553336421709 -0.14187272781379648 -0.04035897442259322 -0.00319349122735125 0.150221976866916
1391625000.0 -0.06981491585574744 0.12108275485753732 -0.14248521234683054 -0.03804477069575131 -0.14275289614745346 -0.03758782916625711 -0.0026620068868089043 0.14853295019164578
1392312000.0 -0.06975892223920149 0.12043975816184935 -0.14336890712497954 -0.03525898265464945 -0.14365562902395965 -0.03482568045500619 -0.0021879567988676747 0.14666961277619198
1393000000.0 -0.0697622093877997 0.11988960781317574 -0.14411631655150217 -0.03247620077660945 -0.1444174679246023 -0.03202397902092192 -0.001545652338683962 0.14487527425484736
1393688000.0 -0.06968217763888844 0.11928515413539996 -0.14494316225510287 -0.029717024681778156 -0.14512107464023077 -0.02932453750534838 -0.001019538962694881 0.14296708078376733
1394375000.0 -0.06946530261571777 0.11873914127095293 -0.1456422817173703 -0.026947850722178462 -0.1457523064838172 -0.026348695581054075 -0.00043787527202763507 0.14093871929622384
1395062000.0 -0.06930722042553517 0.11830927273791116 -0.14626346200776935 -0.024162342603893237 -0.14637387835695378 -0.02356388150242047 0.00023331692481041088 0.1390881707254203
1395750000.0 -0.06906698262214285 0.1178739985886211 -0.14677749049259012 -0.02134841496558073 -0.14687212389507212 -0.020655281901755036 0.000890396417364313 0.13721695955106658
1396438000.0 -0.06873413046647298 0.11741988246803191 -0.14736256102889944 -0.018421632968346514 -0.14746807472716372 -0.017762440777787603 0.0017721783372015411 0.1352255330131694
1397125000.0 -0.06839347805718377 0.11713384999258498 -0.1477314395724986 -0.01566743944434614 -0.14785070012945226 -0.014939725002077056 0.0024017834718158947 0.13324947918125224
1397812000.0 -0.06806499555947058 0.11686122031356398 -0.1481759950118679 -0.01275841647535841 -0.14814979206012246 -0.012001841467696917 0.0032312243584553665 0.13137368438822075
1398500000.0 -0.0677024638984834 0.11661269927786179 -0.14847223792248507 -0.009899748889460045 -0.14858686460580076 -0.009171542752445045 0.004175572126268375 0.12956392926697227
1399188000.0 -0.06716745480862474 0.1164001374771438 -0.14889747982164597 -0.006995811304114522 -0.1488602614525965 -0.00622964069295237 0.005111920048406253 0.1279070812129262
1399875000.0 -0.06676260885189914 0.1162960342836901 -0.14906198973490803 -0.0041564577368333995 -0.1491147093332358 -0.003414725947345765 0.005701570146157839 0.12609907711921362
1400562000.0 -0.06632178838777011 0.11635339568649514 -0.14932647628631388 -0.0011824072630394486 -0.14928570642611297 -0.0004829688292659052 0.006780626941392257 0.12457193366723233
1401250000.0 -0.06594514574822023 0.11630246700376487 -0.14934673694551429 0.0017164832187615115 -0.1494523628463751 0.002353463996938453 0.007569771153786522 0.12317612192940727
1401938000.0 -0.06533239102518204 0.11635132950422296 -0.14957446988527676 0.004736311846944506 -0.14942715881152607 0.005239989196658183 0.008181753040540538 0.1219413612792781
1402625000.0 -0.06493114701471706 0.11647837668061989 -0.1496126631867464 0.007694683819826719 -0.14939984625190947 0.008208146182600164 0.008825998541702825 0.12064317531917111
1403312000.0 -0.06455136780840469 0.11653982424401109 -0.14949699963650115 0.010581637848291699 -0.14937497454386295 0.011072596249695019 0.009469009444578104 0.1192498798212685
1404000000.0 -0.06425487704905389 0.11667915659213349 -0.14941446516211723 0.013595794536990427 -0.14922299021255184 0.01391694348087836 0.009956207871331158 0.11833421700931038
1404688000.0 -0.06388940548684423 0.11690104990471459 -0.14917515067158746 0.016525390913934235 -0.14915453896841385 0.01689327990823118 0.010038904963711322 0.11712346864049138
1405375000.0 -0.0636682614861122 0.1169875812948991 -0.14912345170747704 0.019525447679657974 -0.14882745998360497 0.019701103459521117 0.010318938703085513 0.11592904347241609
1406062000.0 -0.0634124913195572 0.11731506342997138 -0.1487119063778734 0.022379325629549477 -0.14854694488213255 0.022749637115335654 0.010273614807361905 0.11484704341657846
1406750000.0 -0.06330063853456921 0.11749552918957878 -0.14837460860978274 0.025348846394627995 -0.14820040604397736 0.025688759263696972 0.010033037666161659 0.11362929636624036
1407438000.0 -0.06315108667609806 0.11772248840104294 -0.14790008338342425 0.028340763769819637 -0.14782786786389202 0.028591434146359285 0.00967954246943186 0.1126463150499615
1408125000.0 -0.06312099594195703 0.11808032795321144 -0.14743770064964357 0.03126493632591287 -0.14732708873229253 0.03155819214633678 0.009199987900502816 0.11100936185802471
1408812000.0 -0.0631038397072396 0.11830038444437115 -0.1468714486434019 0.03415818349906212 -0.1468307062257955 0.03458536759030684 0.00860667723391768 0.1097420774399859
1409500000.0 -0.06325183207630353 0.11867288094628292 -0.14614097478413293 0.03706898943430968 -0.14620926837237402 0.03739190085702698 0.007767760629574281 0.1082247319995291
1410188000.0 -0.06320168228555352 0.11900652357878588 -0.14544908209689514 0.040044762871521186 -0.14561956920422772 0.04049852709014543 0.007017098946227282 0.1066851298348306
1410875000.0 -0.06342153482307533 0.11931782876656374 -0.14463432763115425 0.04293288230916239 -0.14488859546076743 0.04351353543928993 0.005975692654975884 0.10484983354316356
1411562000.0 -0.06359544779235664 0.11968739057840203 -0.14387490935765895 0.0457180403249723 -0.14406596131799224 0.0463740931702303 0.005074235760223824 0.10291584242622834
1412250000.0 -0.06377772387766081 0.12005705024613708 -0.14306792869356852 0.04861877266090915 -0.14320282497834783 0.049303462846629315 0.004157231119990773 0.1007535097856227
1412938000.0 -0.06387491327569837 0.12036366143510965 -0.14212018494238413 0.05143505160178075 -0.14238026351809033 0.05217845120868586 0.00325468273460917 0.09872143809315886
1413625000.0 -0.06402137687760685 0.12074515475344408 -0.14116711592166023 0.05426956574046228 -0.14137441039589957 0.05510045761656024 0.002083073005659049 0.09646459775969549
1414312000.0 -0.06411702480558487 0.12108292113550592 -0.14014415531617347 0.05705022944013145 -0.14034292218083622 0.05790981988482735 0.0013268094042351679 0.09414700384725294
1415000000.0 -0.06413835276686881 0.12123778575650977 -0.1390515532340726 0.05973458391366638 -0.13914701923094008 0.06071910483562628 0.0007040035731493849 0.09171399933175686
1415688000.0 -0.06417019746049407 0.12160758845622403 -0.13801192645394408 0.06246436262135101 -0.13786631048971293 0.06350772297272984 -0.00016404933109096033 0.08945057351901785
1416375000.0 -0.06417992813173902 0.12173470154634719 -0.13678671580280355 0.06530921943756614 -0.1366637016699937 0.0661696173690927 -0.0006848825606772937 0.08719116782584764
1417062000.0 -0.06404122141684816 0.12187679558101083 -0.1355906168549718 0.06789173073378464 -0.13528048418669222 0.06889443339661905 -0.0010052834075858776 0.08487240670049778
1417750000.0 -0.06380793612372179 0.1220057737889983 -0.1344749362251223 0.07072052229186115 -0.13384906634632945 0.07162058651173103 -0.0012430560501627305 0.08273896509759625
1418438000.0 -0.06364440421075813 0.12198954317788692 -0.13313895183870186 0.07340754457976245 -0.13252397046644598 0.07428952376712089 -0.0014760035077205438 0.0804947608849713
1419125000.0 -0.06336359793668908 0.12196193840704428 -0.13180067664905543 0.07611657118226045 -0.13110453411507708 0.076950233189344 -0.001500277536552448 0.07851911369993725
1419812000.0 -0.06294305162694842 0.12188690302521836 -0.13039793483732334 0.07897076029483638 -0.1296971207979816 0.07962295870414325 -0.0013361329218074742 0.07668179460983815
1420500000.0 -0.0626624750675796 0.12170895099702282 -0.12896090549794012 0.08160055887548545 -0.12812334470859135 0.0822609226306909 -0.0012068071617294019 0.07514957182983134
1421188000.0 -0.06223072686358483 0.12172840760381169 -0.1274384889060902 0.08430104704142613 -0.1265546327097496 0.08484792258593754 -0.0009529619379326315 0.07348780295374456
1421875000.0 -0.06184028549890485 0.12156243634604297 -0.1258956940315076 0.08701505647863357 -0.12500385834614908 0.08734393169420285 -0.0007493808827563501 0.07218523033023308
1422562000.0 -0.06134173460461137 0.12154203184906599 -0.12425101277868844 0.08958630578836309 -0.12330078535921055 0.08991089983099085 -0.00047537316146935277 0.07095329279509761
1423250000.0 -0.06098169500579087 0.12143833941579847 -0.12249644583553604 0.09221579175914936 -0.12170983199480351 0.09237981906287636 -0.00021865440240158483 0.06990298092456637
1423938000.0 -0.06039074505992396 0.12142461496532372 -0.12061581256364448 0.09479891198392787 -0.1199714643699007 0.09492806846501267 0.00016644162031733556 0.06888684378360452
1424625000.0 -0.059841498471295995 0.12134907978882316 -0.11870980182729322 0.09729005347529864 -0.11809700903774997 0.09729271287855641 1.3708261759026585e-05 0.06819874202096163
1425312000.0 -0.05926020674140117 0.12158415331317324 -0.11689444534271685 0.09977254308956154 -0.11624722607854437 0.09977338599132092 0.00014205518838102262 0.06766599612942283
1426000000.0 -0.05861601349965878 0.12169601254253316 -0.11476182083910592 0.1021177529446255 -0.11444349689238902 0.10214028054977047 0.00012191980781641644 0.06707286574525496
1426688000.0 -0.057958130731456094 0.12193782503810437 -0.11258744386327019 0.10450448053040355 -0.11236824297719158 0.10440753902036136 -0.0003110787024930952 0.06654556460063255
1427375000.0 -0.057150791771112035 0.12234899017251816 -0.1103007576098543 0.10686467188025028 -0.11035342395180324 0.10670577783651451 -0.0007067309289684849 0.06611457158271104
1428062000.0 -0.05642533182330415 0.12272517329597067 -0.10818057480244245 0.10894163288797264 -0.10815015058662923 0.10892823611133681 -0.0013184752665236301 0.06554307190963754
1428750000.0 -0.05557548544616983 0.12323214715682979 -0.10579472517938285 0.11112884610231745 -0.1059673681822 0.11111201044777182 -0.0021659902182674154 0.06512662464336648
1429438000.0 -0.05477652733994007 0.12370450984098925 -0.10358736865060374 0.11314975158966102 -0.10376148603602442 0.11330760703500117 -0.003079666383580973 0.06473998833689788
1430125000.0 -0.05385823400086569 0.12432105484931535 -0.10120998371808701 0.11519097449405347 -0.10141074519809301 0.11538906523360527 -0.004014182921571955 0.06406140029706633
1430812000.0 -0.05282932870703781 0.12490353002832716 -0.09887219081041979 0.11716597615893352 -0.09899532371941946 0.11742729796634635 -0.005326696814317997 0.06346661803364702
1431500000.0 -0.05189683733297758 0.1254337659713364 -0.09663226215981967 0.11901458297554574 -0.09661837489058134 0.11952243354517281 -0.006556242987324561 0.06270730615511075
1432188000.0 -0.05080983769838181 0.12605474176923956 -0.09421411081817754 0.12083077639669892 -0.09415733737143946 0.12143805166005935 -0.007920235948265946 0.06208877837765899
1432875000.0 -0.04997392029183753 0.126654521219879 -0.09191706046409638 0.1225763897269906 -0.09175924257618649 0.12335085748552424 -0.009252783230275776 0.06120900182642347
1433562000.0 -0.04905230356108345 0.12716756429416323 -0.08957840574524738 0.1241708573971687 -0.08930013056635575 0.1251029422762883 -0.010672223617888416 0.060178613773229264
1434250000.0 -0.048121492892961214 0.1277332951739424 -0.08715704571641844 0.1258801274404478 -0.08681376843026484 0.1268246559546322 -0.012086823659889261 0.059284584680464346
1434938000.0 -0.04737767236224498 0.12824525949062945 -0.08482602423044326 0.1276317858460355 -0.08430915468779926 0.12854419458482 -0.013425746868528883 0.05823353134784558
1435625000.0 -0.04656822777747277 0.1286672714753694 -0.08238155171069038 0.1292712181421212 -0.08174732896190212 0.1302002754058141 -0.01456444028348899 0.05709683025917867
1436312000.0 -0.0458654478794347 0.12919913605019315 -0.0799082639718198 0.1308266049933702 -0.07917329132683461 0.13178653620976902 -0.015874404430341403 0.055937997708218626
1437000000.0 -0.04528935227933037 0.1295111718396681 -0.07734388473035354 0.13243038959092351 -0.07658008008002422 0.13330243487920726 -0.016612122497017153 0.054972924500889794
1437688000.0 -0.044743606791953904 0.12994855893986285 -0.07487397186374076 0.13415947080755988 -0.07399372102289332 0.13485145178475696 -0.017490672717899815 0.05390625578327732
1438375000.0 -0.044336627125741324 0.13017707823233196 -0.07218533120360728 0.13556753416158204 -0.07137212691474916 0.13619791311670784 -0.01817572814739168 0.053032388391464985
1439062000.0 -0.0439339127419296 0.13053163859546893 -0.06959865398752724 0.1372028539178012 -0.06862068059957187 0.13763635604883406 -0.018709199207577916 0.0522430164823305
1439750000.0 -0.043589603303665396 0.1308709278181656 -0.06695845873572004 0.13867142008287517 -0.06593590937153125 0.13894876278059934 -0.019097795017564912 0.0513519711511176
1440438000.0 -0.043323125065208724 0.13114848747902505 -0.06420026140257808 0.14017549688297187 -0.06311481581893176 0.1402588533209486 -0.019390177135142274 0.05076566432907362
1441125000.0 -0.043013727622589246 0.13132650200772436 -0.061372154721226715 0.1414480361977856 -0.06036292857603265 0.14148997829823778 -0.01950820600840341 0.05019015290039626
1441812000.0 -0.042820123642991155 0.13150074794234798 -0.05849418331649811 0.1428153831998926 -0.05753947165479809 0.14262327049597787 -0.019616689301967107 0.049806511076373655
1442500000.0 -0.04257507205421261 0.1317414480981769 -0.055547784198116894 0.14399030995756223 -0.0547077286171968 0.1438326940358021 -0.019698132440874067 0.04969428792777102
1443188000.0 -0.04230530542762437 0.1319168506233478 -0.05256283169236412 0.14524260148768398 -0.05187554640735945 0.14501055984725594 -0.01978854203630025 0.049575657505021
1443875000.0 -0.042006342343154285 0.1319198081036487 -0.049622255192722564 0.1461625307873839 -0.04903693582385242 0.14606101903637214 -0.01986314150956892 0.049450176516226546
1444562000.0 -0.041600526827509865 0.1319369666812585 -0.04666389840141529 0.14734331236920276 -0.04610070886904084 0.14700383642874096 -0.019945622561660353 0.04967381344900376
1445250000.0 -0.04126727245826141 0.13193180915457883 -0.043668005895069584 0.1481820493364783 -0.043171480005996195 0.1479118945956329 -0.020261932438476928 0.05004754381493433
1445938000.0 -0.040852628354271274 0.1317115468473642 -0.04074361549199912 0.14895029784581515 -0.0402659585210597 0.14878247779693846 -0.020503445544502716 0.05024380858378935
1446625000.0 -0.0402948436008457 0.13150518951242324 -0.03774500302437589 0.14978225020168218 -0.03731640732628742 0.1496040144681311 -0.02089069600839248 0.05058760654351395
1447312000.0 -0.03982248743153465 0.1312183976422774 -0.03470007735912528 0.15047062392750887 -0.034437083830465585 0.15032710629237497 -0.021494136691329657 0.05105790339290863
1448000000.0 -0.03913814820842579 0.13073245634039116 -0.031611441970415245 0.1509887190117878 -0.03139789631253775 0.15103001876950303 -0.02219767311380315 0.05135356672998014
1448688000.0 -0.038625573654640526 0.13016274728107963 -0.028731588119959465 0.15144708497029374 -0.028482754853010384 0.15159246226044545 -0.023149693602370864 0.051972295478545455
1449375000.0 -0.03790830756744048 0.129671316948227 -0.02578005914776189 0.15187647626035164 -0.0254259477815971 0.15218390592584075 -0.024171768588170068 0.052266592851094605
1450062000.0 -0.0372899471205007 0.12908232285326088 -0.022728579920949798 0.15226658260764578 -0.022496710497300225 0.15267192968928428 -0.025325134766257473 0.052581912818302726
1450750000.0 -0.03650900811570663 0.12821857500423534 -0.019716845954608788 0.15270036527400563 -0.019474249269376014 0.15291928845836258 -0.026692398371137974 0.05291839415361916
1451438000.0 -0.035790231040218695 0.1276115296749882 -0.016857269664639716 0.15292245711989816 -0.016446874109948013 0.15329632779518912 -0.028113043468387784 0.053066850651094934
1452125000.0 -0.03510127234195574 0.12694043545399794 -0.013915487610604656 0.1532079516793341 -0.013446491968709975 0.1535718249544931 -0.029621647019659747 0.05322486552644176
1452812000.0 -0.034338243627708445 0.12626716895057158 -0.011058331906056604 0.1535298005718304 -0.010434110638073356 0.15378529733792126 -0.031213894972393387 0.05323211382816204
1453500000.0 -0.03360091277028738 0.12562296426389216 -0.00812235817794417 0.15361351272325213 -0.007398535645298248 0.15393745907012868 -0.032804878562585106 0.05323348486548636
1454188000.0 -0.03276652462946731 0.12493460019110297 -0.005094675641904176 0.15383372833852016 -0.0043656449940359995 0.1540389287300752 -0.03446800251020694 0.05303512115643333
1454875000.0 -0.03205594869581311 0.12436636569205409 -0.0022008696900177064 0.1539612278409836 -0.0013828303680875629 0.15411899674426838 -0.036014874544559226 0.05282157918626323
1455562000.0 -0.03140048639145635 0.12381997538352182 0.0008352027635098253 0.15396501328170428 0.001549738553150524 0.1540686814811385 -0.037380756122151824 0.05261267099524151
1456250000.0 -0.03047369345902787 0.12341873680280202 0.0038466390546731052 0.15407606537812807 0.004606203335444442 0.15400018685379063 -0.038898149292992755 0.05228574965159157
1456938000.0 -0.029621533997414344 0.12311573505422874 0.0067280785510082505 0.15408112065549728 0.0076013820770218146 0.15383645668775928 -0.04008789617331852 0.05176792811161805
1457625000.0 -0.028736816148850458 0.12284562067872383 0.009778327208360103 0.15401090869823633 0.010552730602019103 0.15372545570217525 -0.04119322843158898 0.05148597849957305
1458312000.0 -0.02780838930434293 0.12263324529510648 0.01281496523356083 0.15385193935421249 0.013501200371512064 0.15360975532161272 -0.042318157305839536 0.05116655568087362
1459000000.0 -0.026871675791010786 0.12239816766649306 0.015938455903608456 0.15365679579203081 0.01653636298635577 0.15337862628225699 -0.04333821549633983 0.05083812312667172
1459688000.0 -0.025921262356934958 0.12223289422361291 0.018943450820029073 0.1534597156873412 0.01947746974209025 0.15307943594980186 -0.043864547807998165 0.0504512993197086
1460375000.0 -0.024933270987170467 0.12207557997440872 0.022040308427387197 0.15287426099388035 0.022408454292256273 0.15270200102549955 -0.04460661696735276 0.05016551900037001
1461062000.0 -0.024032057626603258 0.12194643403845334 0.02504829974777255 0.15254470339201948 0.025381772167402412 0.152322088067427 -0.04528321308619767 0.04990764849444767
1461750000.0 -0.023021575713968876 0.12178447206932634 0.028008858191191758 0.1519863555442332 0.028384061129173334 0.15185734635581832 -0.04561729870539689 0.049869222857038174
1462438000.0 -0.022186237767649584 0.12162933897657689 0.03105281091043003 0.15140564075049104 0.03136210209740332 0.15126602394098057 -0.046003588472270276 0.04977561979554906
1463125000.0 -0.021376717387536805 0.12145491882250896 0.03400277532677554 0.15079173694126471 0.03427639540550744 0.15071246241239616 -0.046325609164961735 0.049751656615575714
1463812000.0 -0.020547114528638943 0.1212529654934955 0.037033282939294726 0.1500740222753122 0.03732361326171166 0.1501543049664202 -0.046712442037335176 0.04973776622265335
1464500000.0 -0.01989583301738851 0.12101402380541126 0.03984777394276648 0.14932732803156443 0.04023221411654976 0.14955712110031416 -0.0470041242887707 0.05009955082988046
1465188000.0 -0.019227172034372443 0.12072031059715675 0.04272189510059863 0.14856001569071656 0.04310685500691323 0.14871398745607284 -0.04733127659974239 0.05012569873322088
1465875000.0 -0.01879087268974227 0.1204580735762242 0.045614492192849417 0.1478531032328278 0.046038275173933156 0.14795052508207793 -0.04767000353384412 0.05031411488425497
1466562000.0 -0.01840396200396806 0.12005605232903632 0.04839259725017899 0.14697300700953855 0.048932204667293415 0.14710258454870923 -0.04799553559824205 0.05072540642370444
1467250000.0 -0.018004325959245504 0.11967370075322592 0.05115031568358642 0.14603277963574657 0.05185727563034013 0.14617763865883937 -0.04837957808602917 0.05105180515950467
1467938000.0 -0.017756455965526625 0.1191404322792532 0.05401294310678936 0.14516535500568428 0.054706610348554396 0.14511717631523757 -0.04899543370024134 0.051422480592790316
1468625000.0 -0.017684553758419878 0.11860036751133607 0.056771194537493345 0.14413452144070457 0.05764034723927568 0.14406972722168823 -0.04939835641750011 0.05156993189585789
1469312000.0 -0.017774992689626522 0.1180659428313489 0.05964816641724253 0.14308575838764548 0.06049726875719347 0.14295763578662649 -0.05000974813650673 0.05185513635031827
1470000000.0 -0.017891956679656613 0.11743440469267527 0.06238797516482374 0.1419001367614725 0.06332172221244539 0.1417851845214371 -0.05078131405295848 0.05212772866552531
1470688000.0 -0.018105548326107244 0.11687229508434221 0.06521738048951005 0.14091349186615404 0.06608274298166861 0.14055732395672035 -0.05160342567652345 0.05241655084733592
1471375000.0 -0.018346330633057975 0.1163622815618759 0.06802066349960348 0.13970343340870708 0.0688233649961935 0.13919177894845874 -0.052315291285820006 0.05248106452375161
1472062000.0 -0.018746539276387312 0.11572601834517134 0.07070210033071157 0.13844688898062882 0.07160416216525356 0.13784369389674428 -0.052935696696429134 0.05263393274102238
1472750000.0 -0.018957941212647225 0.11501379214083648 0.07350411333841296 0.13703037005991928 0.07426535513756392 0.13642673251594323 -0.053872027342616764 0.05268753527378157
1473438000.0 -0.019209765244879017 0.11443855990356593 0.07621351835341 0.13566127291842617 0.07703937437918613 0.13509280583162223 -0.054563837014434874 0.05265920279457617
1474125000.0 -0.019465122739687056 0.11372313742400834 0.07908216904013927 0.1342638579924362 0.07965062662376292 0.1335963301504008 -0.05517155673276025 0.052538971405933624
1474812000.0 -0.01965307427638488 0.11303872854075922 0.08177386223883634 0.13275102028673944 0.08232413813239775 0.13204321156365328 -0.05561867846090466 0.05224184446558779
1475500000.0 -0.019892524369796674 0.11216180666367485 0.08446993361268015 0.1311710397742776 0.08488038377888767 0.13055390547560314 -0.056283253777114135 0.05204238367614997
1476188000.0 -0.020021365726391956 0.11141588805202136 0.08722801246618923 0.12964400089158473 0.08742214124702849 0.12891902242638434 -0.05668464155736569 0.051672626992190246
1476875000.0 -0.020089434870438974 0.11049014372498857 0.08982425727278043 0.12791652031565076 0.09009305110906772 0.12731330979222535 -0.056840556699841734 0.05113974814874149
1477562000.0 -0.020137039983221777 0.10950891606585983 0.09256744562825385 0.12619973132310477 0.0926227494137674 0.12558956994543108 -0.057086347612609896 0.05086541730551433
1478250000.0 -0.02007436962868114 0.10847870733289845 0.09515453033844433 0.12427486244057948 0.09513293612332868 0.1238349510353366 -0.05724352179553606 0.05046943498822944
1478938000.0 -0.019943650563275555 0.10748078769259742 0.09771952507267304 0.12233943896432584 0.09763470297755004 0.12194340405671777 -0.057209320224933566 0.050148640280031936
1479625000.0 -0.01979689433243384 0.10639362062664871 0.10014736979568123 0.1203917392483296 0.10010558672739593 0.12006762914540627 -0.05701563346661879 0.04975349967974115
1480312000.0 -0.019628806542532 0.10523470543664896 0.1025916470667112 0.11834257080616158 0.10258137496870827 0.11812202242444465 -0.05695676492557921 0.049532179676751345
1481000000.0 -0.019417067195907158 0.10417377610922489 0.10502562029341693 0.11625819124561862 0.10493710578516566 0.11606666069519297 -0.056670471404749005 0.04913365795137159
1481688000.0 -0.019093969677122746 0.10303343554488059 0.10726612100305895 0.11416437673076474 0.10732013793433379 0.11392841645870085 -0.05643430378165654 0.04921473287186616
1482375000.0 -0.018702868393937724 0.1019057129628618 0.10958390191785891 0.11193368876178846 0.1097208739047841 0.11189988790274226 -0.056153253609452315 0.048991254045297986
1483062000.0 -0.018298179119997607 0.10086597160152122 0.1117800525328742 0.1098195589394624 0.11198261240437815 0.10964141758705066 -0.055792173269000975 0.04881444052299193
1483750000.0 -0.017899291324761573 0.09975146480386099 0.11406338830268879 0.10753533079210201 0.11434336064175968 0.10748677152919692 -0.05561987334848867 0.04915358145642433
1484438000.0 -0.017520417469550277 0.09870202039220834 0.11619846153990278 0.10529381522715131 0.11648921504944607 0.10523571745523584 -0.055285499386371194 0.04878147232643378
1485125000.0 -0.01707291691969675 0.09773303255048518 0.11824274587027771 0.10295162742795766 0.11865040755373654 0.10292946962954208 -0.054814234466286554 0.04894658769919961
1485812000.0 -0.016565342381667087 0.09681646693248278 0.12009534309653508 0.10055823319337318 0.12068060964581907 0.10051244633476385 -0.05452734551524082 0.04895807710720064
1486500000.0 -0.016025844992235402 0.09586870189367891 0.12206700205568727 0.09827345275922729 0.12266876983352815 0.09822469732474982 -0.05442987070401978 0.0490687445739765
1487188000.0 -0.015547971866559969 0.09512205234981153 0.12405488184469757 0.09591346658390525 0.12463584480749186 0.0957274305044464 -0.054208233410043126 0.04927923061646234
1487875000.0 -0.01499276813895842 0.09448393888696643 0.12602590982172268 0.09343184810658282 0.12660834827234127 0.09331272628486646 -0.05409101624267245 0.04930615035526504
1488562000.0 -0.014445030015453645 0.09378188740297691 0.12779934993256062 0.09099487634073686 0.1284188372598798 0.0908018622157181 -0.05403713800232031 0.04960324275566085
1489250000.0 -0.01388333487292396 0.09314849939498442 0.12950769945682597 0.08857840630029479 0.13022961936471983 0.08826727268030189 -0.053941911279467486 0.04984232530677988
1489938000.0 -0.013399097637353636 0.0926219955339342 0.13121772259103587 0.08604581558192623 0.13209936913816603 0.08565939956282394 -0.0540268230401737 0.049808022938198276
1490625000.0 -0.012902632288256484 0.09204965743093403 0.13298977890632088 0.08346333757668234 0.13374464695694344 0.08299347416461324 -0.054075549861954626 0.04960086544442955
1491312000.0 -0.012475159541823329 0.09174952376030213 0.13466724896130539 0.08088443900527102 0.13538812937384961 0.08042707796861419 -0.054223524567114795 0.049552427856106744
1492000000.0 -0.012000421917406249 0.09123833497374301 0.1362533736835707 0.07826481901872347 0.13688950639371836 0.07764478245146417 -0.05414184598854096 0.04960937006917753
1492688000.0 -0.011537733757135247 0.09090943813103647 0.13784769739895858 0.07567100165691051 0.1384328841806471 0.07495470630642666 -0.05435576400767928 0.049462413636519126
1493375000.0 -0.011242516176571841 0.09054663787578397 0.1392624887176503 0.0729976776300163 0.13993941991465841 0.07222920094637282 -0.054357027313599926 0.049266624727468705
1494062000.0 -0.010888172745928277 0.09014837748242895 0.14081753897134272 0.07038415762459937 0.1413270807225795 0.06940803426162237 -0.05458295768376546 0.049187556485699516
1494750000.0 -0.010661278012224409 0.08984522290080932 0.14226262951256544 0.06760992820533084 0.14280301008211385 0.06663387090964312 -0.05476508916620572 0.048921656069293176
1495438000.0 -0.010465505802930092 0.08945520184904734 0.14366136300817828 0.064902926766844 0.1440696575995066 0.06376329311815822 -0.0551499436555717 0.04860831763465764
1496125000.0 -0.01025688270825277 0.08911786679731067 0.145099448584488 0.06199467228989704 0.145372771262646 0.06090977247178263 -0.055055738900083834 0.04835315072357212
1496812000.0 -0.010302456532279172 0.08869197049148221 0.14639073532224614 0.05915070340827515 0.1465668236290988 0.058055773863313384 -0.054905856906839995 0.04812409148501695
1497500000.0 -0.010241369895578615 0.08828925897033126 0.14761544683928057 0.05625224218108665 0.1477333503691841 0.0551421943984555 -0.05494277080976878 0.04774666087895677
1498188000.0 -0.010198689125990585 0.0878602263143049 0.14882573264588372 0.053301377379397906 0.14882847627119694 0.05222822959116081 -0.05497402649633312 0.04755633862160899
1498875000.0 -0.01036836379078054 0.08738688604377574 0.14993633794540148 0.05038844135010092 0.14986024064370906 0.04937348549513421 -0.05496158468547215 0.04747881021542045
1499562000.0 -0.010527978418665257 0.08686935981669638 0.15107435544954695 0.047286598617115316 0.15084046315489788 0.04641068544425085 -0.05498081365232757 0.04734823943270244
1500250000.0 -0.010728017177397763 0.08626526362399806 0.1520896721823677 0.044349805545951436 0.15183476554650693 0.04344151150339529 -0.054874113548804455 0.04739247947063191
1500938000.0 -0.01101997338208465 0.08561304714992252 0.15299709398672934 0.041120379631316685 0.15268728568386308 0.04052267105960227 -0.05483043883246241 0.04739026466468158
1501625000.0 -0.011319399582241029 0.0849244163305149 0.1539932229834526 0.03801227563378933 0.1536124680711359 0.03750475275022738 -0.054971492409317466 0.047496129729986514
1502312000.0 -0.011688863017238546 0.0842335391965038 0.15476892278630205 0.03493764439093777 0.1543593616051667 0.034454413486717635 -0.055145212280449496 0.047679754698156655
1503000000.0 -0.012114724446186055 0.08346028850853149 0.15558025369846004 0.03172327991400894 0.15517574358467964 0.03148984208233053 -0.05516012927982263 0.04778653198101399
1503688000.0 -0.012499884891822152 0.08263628138848612 0.15606184227813977 0.02844805124879244 0.15581150914286118 0.028402315305446176 -0.055390648827521975 0.04793477997424783
1504375000.0 -0.012821573688745851 0.08186078814720367 0.15662019657844917 0.025353882082587143 0.15648281120252236 0.02531239325800289 -0.055829374000046686 0.048212270803441024
1505062000.0 -0.013190254660615373 0.08098049976006415 0.1572220158397948 0.022122538948097407 0.1569323721924796 0.022249667755999358 -0.05624898220122389 0.04850911188623676
1505750000.0 -0.013481209130641924 0.08005744657036029 0.1576318551589468 0.018889492516538788 0.15753503510592567 0.01898047740743564 -0.05693647562668095 0.04869292338273569
1506438000.0 -0.013875000090118314 0.0791718301127399 0.15790180838486742 0.015799226455759336 0.1580268434839606 0.01573972144298418 -0.057412510065816574 0.0487681114954844
1507125000.0 -0.014047100558029574 0.07838746960408334 0.1582791814659309 0.012608096181412216 0.15831924009085105 0.012512096348750189 -0.05813242591427294 0.04882506063267186
1507812000.0 -0.014238274453216071 0.07737819785112843 0.15837168846697866 0.009492597679769421 0.1586662454568668 0.009270545240101844 -0.05893602355513261 0.049134557494183474
1508500000.0 -0.01432609024701663 0.07638267763433192 0.1584233871166344 0.006272602038098654 0.1588173063170341 0.00601984133149506 -0.05965612536384167 0.048876916612282405
1509188000.0 -0.014396804844280828 0.07548870562184377 0.1584131843499575 0.003159617680098395 0.1589285594375718 0.002791602003870064 -0.06053273444155344 0.0487837263078127
1509875000.0 -0.01447634697507945 0.07446192929994223 0.1584347938580471 1.8959976075664876e-06 0.1589831112883203 -0.000399776662269901 -0.061560088405735444 0.04863046124227872
1510562000.0 -0.01439658966659401 0.07347494314992914 0.15838385888257628 -0.0031186378450485178 0.15885502673301552 -0.0037226897626219733 -0.06236591377104331 0.048398066444739346
1511250000.0 -0.014180856231851917 0.07247479722345507 0.15815232840104204 -0.0062542499371083015 0.15874961718967318 -0.006937003192466644 -0.06317496279601181 0.04813500634859369
1511938000.0 -0.014016773580401924 0.0715554930794968 0.1579014141446577 -0.009294336982196384 0.158595338577764 -0.010152815115804646 -0.06395872045883229 0.04754242038811937
1512625000.0 -0.013787543849905888 0.07047413645192287 0.15765360591163505 -0.012334616197438138 0.15826167630318091 -0.01331794905599086 -0.06469670687906817 0.04697500768861957
1513312000.0 -0.01353622782644257 0.06946970494447305 0.1573574854785835 -0.01540929132903085 0.157912143137477 -0.01644914612802598 -0.06566555669449427 0.04644601155930221
1514000000.0 -0.013175460063294531 0.06846922948505241 0.15708826216599028 -0.01849542060040591 0.1573933510024776 -0.019468888622606085 -0.0664261296143246 0.04576735243069724
1514688000.0 -0.012840931418050979 0.06747770463665888 0.15670692663800515 -0.021440761087087694 0.1568535402224202 -0.022532473499355207 -0.06706585596420743 0.04509306892593901
1515375000.0 -0.012602604474117074 0.06650579949488422 0.1562420033138586 -0.024470317524212717 0.15631730124452478 -0.025572746415830613 -0.06775050702293722 0.04438930986307164
1516062000.0 -0.012355957377165182 0.06555198116253193 0.1559277883592778 -0.02755740976413489 0.15575700283183685 -0.02861978596600389 -0.06835836816327082 0.04373108525766793
1516750000.0 -0.012070962735233164 0.0647055801649091 0.15547359349067513 -0.03057962185353084 0.15514678846783456 -0.031666254698583605 -0.06902310668446036 0.043200344408489535
1517438000.0 -0.011892158316548756 0.06378457299232798 0.15497543975804465 -0.03352504267617564 0.15440376950798174 -0.0346598230845963 -0.06971200850735473 0.04267996289308111
1518125000.0 -0.011779845896557471 0.06304820157840427 0.1543066539749687 -0.036640275028441735 0.15372946479800675 -0.03761557438502385 -0.07025757290153738 0.04213367863941443
1518812000.0 -0.011658485807498148 0.062338818950555326 0.1536296427507471 -0.03973126434633577 0.15297231335412326 -0.040522180402549415 -0.07098160652586925 0.04155886562923254
1519500000.0 -0.011711358735682943 0.061707520153837195 0.15283144991358816 -0.042814116403988536 0.15222175453682135 -0.04354552876016429 -0.0713932815213795 0.04123802012528431
1520188000.0 -0.011645980952391966 0.06112753585137185 0.15202049252589386 -0.04583811758839776 0.15133503413571217 -0.046474541630743854 -0.07212516519844725 0.040940971170086264
1520875000.0 -0.011874622440856028 0.06065033488586426 0.151145191992202 -0.048874885162469864 0.15048897423595267 -0.049406300199131135 -0.07286754356262835 0.04076946348877174
1521562000.0 -0.011847213427026073 0.06026071654624869 0.1501628261514204 -0.05195117948161299 0.14956896162258912 -0.052374428343907035 -0.0736408570959754 0.040893694609722864
1522250000.0 -0.012013551721950321 0.05998047254124126 0.1490137726479104 -0.05503233134131326 0.14864725475677318 -0.055334885693288545 -0.07457419236079653 0.0408866394892264
1522938000.0 -0.012185271098048553 0.05965128522599836 0.14788389734299257 -0.05807609604787323 0.1476364348728997 -0.05842913215755121 -0.0754914824248361 0.040883752881825594
1523625000.0 -0.012516670094148205 0.05949525576381435 0.14675817456078777 -0.06097045847897386 0.1464996607216145 -0.061324173379662776 -0.07641672466420783 0.041128743762269986
1524312000.0 -0.012753225374961045 0.059298000813528116 0.14551982735914232 -0.06391250536399389 0.14538505081698494 -0.06429393660978838 -0.07747572580200954 0.04133275740784137
1525000000.0 -0.013042671601838605 0.05916971592147927 0.14416889592785387 -0.0668726577123352 0.14416326820017536 -0.06733507268909823 -0.07858385410643383 0.04160315358139307
1525688000.0 -0.01329522792029469 0.05900647253314525 0.14273916244159762 -0.06974478812114987 0.14283788647729395 -0.07017464291793761 -0.07988650628179393 0.041766431650606534
1526375000.0 -0.01373881805551832 0.05881630535753337 0.14138142643331303 -0.07258052172599068 0.14142693175714524 -0.07307831203435709 -0.08103368980994229 0.04178123728253305
1527062000.0 -0.014128621964519562 0.05853268981885941 0.1397956388170905 -0.07530737772071386 0.1399258987407366 -0.07586627144878931 -0.08221019455706453 0.04200102281991405
1527750000.0 -0.014597961080765914 0.05827446152066729 0.13822920616788184 -0.07808931546780057 0.1383020472608078 -0.07866613096970776 -0.08360478200359184 0.04198794979192569
1528438000.0 -0.015057153456234143 0.05795970731221102 0.1368180770867909 -0.08074575862770195 0.1366165720508304 -0.08142882642746645 -0.08486540683202018 0.04189968327869678
1529125000.0 -0.015561985033152226 0.05746380337552824 0.13521978353562142 -0.08332692330255073 0.13496751464144396 -0.08418363450693875 -0.08625401871410034 0.04177347020118446
1529812000.0 -0.016171484766233108 0.05706816628790744 0.13355379289322106 -0.08591542045187989 0.13319991323472677 -0.08675424558253317 -0.08751788801358007 0.041309729350796624
1530500000.0 -0.016758072381348185 0.05657062888387599 0.13195796021385323 -0.08862946073318902 0.1313243396347398 -0.08942630132139283 -0.08855691590422413 0.04078387740040476
1531188000.0 -0.017514698500266632 0.055971275544253 0.13022817259062827 -0.09110489203729401 0.129466272607299 -0.09194512357585799 -0.08984652073868671 0.04040883829065095
1531875000.0 -0.018240140496651885 0.0552569054730137 0.12832696560997484 -0.0936748706270609 0.12768694676274725 -0.09447014809942325 -0.09109423480029512 0.03978829488571442
1532562000.0 -0.019046145435616387 0.05453892407951892 0.12659080425859154 -0.09631399722222117 0.12574265642567364 -0.09685188669511667 -0.09183638404057967 0.038995039540143966
1533250000.0 -0.019844751861176808 0.05379633774003105 0.12458259877614296 -0.0987954067998009 0.1238548438775658 -0.09918951368570184 -0.09280890967136703 0.03831638095308673
1533938000.0 -0.02080892452359999 0.05300574975058355 0.12266622411711967 -0.10122931184174071 0.12187829840207932 -0.10157297452939579 -0.09355901045846603 0.03761076140420406
1534625000.0 -0.02163182327117189 0.0521907797768723 0.12069081436271213 -0.1037431029275244 0.11985598934730736 -0.10406587063662073 -0.09446812878643072 0.036795218383918304
1535312000.0 -0.022596122147239748 0.05137619619561222 0.11863658657572504 -0.10618523133516082 0.11798838633551123 -0.10636429683719967 -0.09506042617485229 0.03586978123723922
1536000000.0 -0.023519559216792173 0.050570908169691293 0.11650720322348625 -0.10873692143182327 0.11598238475913537 -0.10868649488540924 -0.09568930624975659 0.0353447908931112
1536688000.0 -0.024390171886603456 0.049723455154543135 0.1142909898527465 -0.11100110751868304 0.11400450187715246 -0.11089953469782574 -0.09639092294482172 0.03465142972298735
1537375000.0 -0.02531652459748948 0.048951048162758685 0.1120426525149039 -0.11326540728183318 0.11191439229393697 -0.11317697960650168 -0.09685611055108238 0.034224718062382635
1538062000.0 -0.026205534089236898 0.04820575834209276 0.10971200425574107 -0.11551041870494366 0.10976748235808895 -0.11542642434772317 -0.097204941149428 0.033957167576609174
1538750000.0 -0.027060832567782783 0.04744475202122983 0.10755517582899628 -0.11762994903480758 0.10755796254992007 -0.11756384061340786 -0.09746725660812583 0.033698313160565055
1539438000.0 -0.02777915267714558 0.04674141039708193 0.10517223529274142 -0.11979427197804476 0.10533013307456625 -0.11975870580770158 -0.09798509063154855 0.03391723576816276
1540125000.0 -0.028508682702528473 0.04593787450921585 0.1027601640690408 -0.12178031129129634 0.10307471158577249 -0.12192385860465701 -0.09850401961160238 0.03409332264232459
1540812000.0 -0.029157949203566912 0.04520223966509782 0.10033467395503251 -0.12376911051332726 0.10068149442476643 -0.1240353682014827 -0.09895103369735622 0.03464899699563247
1541500000.0 -0.02973648946159233 0.04447130631447338 0.09788579684209914 -0.1257224426633086 0.09820268513655797 -0.12619506598254646 -0.09947276679122914 0.035281001200501344
1542188000.0 -0.030286739272963676 0.043685327370390666 0.09550247922713022 -0.1276194436145773 0.09560604894676052 -0.1281843443321381 -0.10008129549617424 0.036062427184527644
1542875000.0 -0.030921096332111056 0.04297872899980567 0.0930339084933489 -0.12935159640024943 0.093053040392857 -0.13021127941339333 -0.10084822424297712 0.036879689625767806
1543562000.0 -0.03140959559743071 0.0422273579443716 0.09058736227181916 -0.13106316786260744 0.0904207208804299 -0.13219976227709263 -0.10157081832603318 0.03778094229627287
1544250000.0 -0.032055021810522104 0.04149890303228518 0.08803470442700673 -0.13294439493242732 0.08766457061852319 -0.1341018393286637 -0.10257325042394078 0.03884950424246403
1544938000.0 -0.0326282928517952 0.04074696580703393 0.08550740824178317 -0.13452384288190075 0.08494295332279402 -0.1358440560145261 -0.10353527221340822 0.03989359758085235
1545625000.0 -0.03334166997412599 0.040143194087917694 0.08294676865141888 -0.13637682659972214 0.0821809688190592 -0.13762900325690403 -0.10445640459359957 0.040935804806292345
1546312000.0 -0.034119574086508134 0.039456387324879015 0.0803492315908754 -0.1380766017508978 0.07939761372131064 -0.13925125363377447 -0.10582881308812546 0.041996811479208196
1547000000.0 -0.034885688220271514 0.038849901030410236 0.07780040910309804 -0.13975835338780263 0.07658724961430642 -0.14078612719128294 -0.10694523058007932 0.043049181943194015
1547688000.0 -0.0358484210526188 0.03834751384856126 0.07510373650894207 -0.14135818233684955 0.07370387627392125 -0.14225389841333827 -0.10824297800539336 0.04392521320270709
1548375000.0 -0.03682109860698003 0.03790441134554218 0.07233288427474666 -0.14301546827225992 0.07093200910719258 -0.1436368761687281 -0.10930398142503851 0.04490557667681666
1549062000.0 -0.03793558435793021 0.037631556528535844 0.06953949123066598 -0.1445210791205709 0.06808081427375176 -0.14501133841055888 -0.1106172976167457 0.045539262642909965
1549750000.0 -0.039091589254312394 0.03738524819148968 0.06667579945399926 -0.145970160302373 0.06517199148011062 -0.14625030371058964 -0.11197726517930755 0.046025910137078505
1550438000.0 -0.04030360930323215 0.03731364665448582 0.06363644552236139 -0.1473904542009786 0.06223047233750515 -0.14749863056390758 -0.11308064843529499 0.04658253698700328
1551125000.0 -0.0415641693139074 0.03731645167580344 0.0607222232207393 -0.1488767748539733 0.05942542318888657 -0.14861193705379783 -0.11417002404370537 0.046852243131035524
1551812000.0 -0.04293033440537746 0.03735833762397899 0.057672933553811485 -0.15026243132681225 0.056474578351962554 -0.14975199243959855 -0.11517128949040917 0.04730510167957163
1552500000.0 -0.044311891082907236 0.03755509153818781 0.05449571799094147 -0.15144298768060518 0.05349617511198216 -0.15083735215627345 -0.1160640184738764 0.047530460758366574
1553188000.0 -0.04567525384538902 0.03781838520501168 0.051230173611782594 -0.1526907795175564 0.050553774252641875 -0.15193733705808185 -0.1168710834173478 0.04762885040444765
1553875000.0 -0.047035539253577806 0.03813463403338777 0.048028099272929385 -0.15376413912217163 0.04745971295154367 -0.1530260402641458 -0.1176312206321713 0.04776136262420855
1554562000.0 -0.04847849713899248 0.03840622537579584 0.04473352308882575 -0.1547657249115258 0.04439849001075062 -0.1539321475743391 -0.11833720201756939 0.0478490904759979
1555250000.0 -0.049876813259959976 0.03871296642883006 0.04133756730327468 -0.15575711481716717 0.041253339735161855 -0.15497750426117904 -0.11884489018298373 0.04819398754173215
1555938000.0 -0.05131334647476019 0.03899124542851556 0.03810354209409785 -0.1565004660258819 0.038055307092641266 -0.1559050658476682 -0.11933888198849625 0.04852865869818667
1556625000.0 -0.05273138328673645 0.03924002652451663 0.03474312125130135 -0.15706606589123104 0.03485833139597067 -0.15672689236101647 -0.11966965406501867 0.04887832154258128
1557312000.0 -0.05426491111980804 0.039465124861543015 0.03137607659840188 -0.15776293473523362 0.031648664670370016 -0.15748830772277853 -0.11982163000726968 0.04955870008639696
1558000000.0 -0.0557735362861436 0.039571233856719644 0.028153438168254497 -0.15813118564062242 0.028360372460327965 -0.15822583152819444 -0.12015048010545054 0.05034545789924424
1558688000.0 -0.05728150651093793 0.039748712389078844 0.024838882495314817 -0.15856119802826488 0.025059893386398555 -0.15881231655765718 -0.12032541578411779 0.05123268656150448
1559375000.0 -0.05883632050136606 0.03972247336326 0.02165523308884017 -0.15883607066494526 0.02179198360302657 -0.15929987875754414 -0.12047577884023675 0.05242173822477481
1560062000.0 -0.06053822622687335 0.039693674826326124 0.018294748833267822 -0.15913276561260603 0.018457396740241327 -0.1596760690597421 -0.12078048995965299 0.053854988417233435
1560750000.0 -0.062190904562193804 0.0396520525209163 0.015287302849190335 -0.15927614976161625 0.015104013784151372 -0.15989338633625524 -0.12100528249722799 0.0552266592683199
1561438000.0 -0.06400883241153334 0.03961728523882681 0.01203579150261883 -0.1593144133442601 0.011777494080866483 -0.16023999298770122 -0.12122421871840253 0.05694022945568432
1562125000.0 -0.06571904940501237 0.039520731111232194 0.008945315720558428 -0.15938389303341274 0.00849906691685936 -0.16013547981146065 -0.1214839854256777 0.05871726542809371
1562812000.0 -0.06759522469931391 0.0394373527415198 0.005786286055408537 -0.15936490115206572 0.005198234410888222 -0.1602186906400813 -0.12181647164427685 0.06098590124300259
1563500000.0 -0.06942484384525727 0.039259989432616625 0.0028205742610803554 -0.1592866639999374 0.001994023178827669 -0.16011098839907317 -0.12256792427796583 0.06309215419589738
1564188000.0 -0.07130475358901263 0.03933014723172689 -0.00036393034760024085 -0.1592248610281185 -0.0012401296027039607 -0.15996580405222943 -0.12315880305923214 0.06513951465073767
1564875000.0 -0.07308277367237968 0.0394027266830017 -0.0033905624289717177 -0.15913758021847293 -0.004388477559817158 -0.15972623816352874 -0.12399213065317682 0.06711803197150684
1565562000.0 -0.07488565215539451 0.03940281879776542 -0.006467654989099945 -0.15908015645647106 -0.007547497949779612 -0.15936200885136165 -0.1247611954819172 0.06945657033410116
1566250000.0 -0.07656561709319228 0.03953392694111617 -0.009579291502562285 -0.15893395614335787 -0.010620511873269158 -0.15904311969666918 -0.12590231512895464 0.07152090306072136
1566938000.0 -0.07819458221616367 0.03974161285461427 -0.01257567782695446 -0.15867554070348566 -0.013656653016476918 -0.15868589027298502 -0.126982738958966 0.07343850565469291
1567625000.0 -0.07976193013357717 0.03990827317497036 -0.015563126433528878 -0.15854323662499725 -0.01677676190399983 -0.15827247334308944 -0.12813198478752585 0.07534381022317183
1568312000.0 -0.0811908905916114 0.040176813422495614 -0.01859629501279001 -0.15808972919550013 -0.01980608038300832 -0.15778295122280603 -0.12914322180642948 0.07674108610865643
1569000000.0 -0.08253871508700862 0.04057439984107605 -0.02170296874423155 -0.15772109030935225 -0.02283006470765759 -0.15740160486107518 -0.13045653683214492 0.07841857844719892
1569688000.0 -0.08382150137220973 0.0408946174742217 -0.024887300910153277 -0.15735048518878297 -0.025689550406023418 -0.15681596967797948 -0.13147236912016078 0.07979060305471503
1570375000.0 -0.08487396875349111 0.04129382652035959 -0.028031249698890412 -0.15682655778337046 -0.028786476999247048 -0.15632858048041307 -0.1327387952456103 0.08062669976695816
1571062000.0 -0.08591102951581202 0.041634878696635014 -0.031095829338061494 -0.15611957444071164 -0.03182231270198471 -0.15567983841946226 -0.13363682767813662 0.08173943830726825
1571750000.0 -0.08688881801372528 0.042163330643383186 -0.034238731674154615 -0.15550854218855104 -0.0348047364929609 -0.15508688025403072 -0.1345293335992754 0.08246531492115985
1572438000.0 -0.08786195395280355 0.04262309657459982 -0.03730635813654366 -0.15474648239925795 -0.03787198904050091 -0.15437108535142746 -0.13539668400958405 0.0832474655703106
1573125000.0 -0.08859070994063653 0.043164364866364116 -0.040447012140844354 -0.15380412769947965 -0.040868371483005754 -0.15358053228673038 -0.136019981246627 0.0837608331607652
1573812000.0 -0.0895055903441086 0.04370195430597877 -0.04344622110103435 -0.15287667997084578 -0.04397723406470391 -0.15269211418165 -0.1364569471380643 0.0842912638486643
1574500000.0 -0.09024620059297397 0.04424126679273956 -0.04661315609718854 -0.15186762424005318 -0.0470042755731098 -0.15186833846236455 -0.1366406838360997 0.08468779457283548
1575188000.0 -0.09106138308498968 0.04492346583279833 -0.04961281849973898 -0.15088543885796496 -0.050051999089071805 -0.15083282001958612 -0.13680064646248252 0.08518389970579669
1575875000.0 -0.0919073565409125 0.04562814731962103 -0.052551252258664506 -0.14970318739401486 -0.05312615278732827 -0.14967013248842906 -0.13673870444939484 0.08562561178180945
1576562000.0 -0.09268770219049205 0.046396945725105485 -0.055561678455528736 -0.1485158965751885 -0.05615908483946296 -0.14852608410534346 -0.13648570716445668 0.08624578857041473
1577250000.0 -0.09364044565032704 0.04733222875704302 -0.058521643580884915 -0.14728275639606203 -0.05912817890431303 -0.14729884263320747 -0.13618125724642088 0.0868626143907588
1577938000.0 -0.09445221144847839 0.048163002810862145 -0.06135931028644027 -0.14602506032748758 -0.06191732708739404 -0.1458891521910393 -0.1357603742313066 0.08755254520144125
1578625000.0 -0.0952629563022203 0.04921773445885132 -0.06423237797692795 -0.14467007288645814 -0.06486023880080422 -0.14449691025641723 -0.13515352702503214 0.08853497927658462
1579312000.0 -0.09626043837849178 0.050260038721971455 -0.06705647456469851 -0.1433189477553961 -0.06769452236487998 -0.14302581042776638 -0.13461958171795663 0.0894710799121455
1580000000.0 -0.09713636613750862 0.05147980126298171 -0.06969546138145427 -0.14182791441286333 -0.07042353562521825 -0.14152571664476973 -0.13384591888892308 0.09067413519302973
1580688000.0 -0.09804387824586147 0.05270178761820308 -0.07238140935644363 -0.14038811056202433 -0.07305486302063902 -0.13995527897505677 -0.13322836906965035 0.09215860801596139
1581375000.0 -0.09900406692036237 0.054069290330893506 -0.07508099394205096 -0.13885435444548633 -0.07578644585324516 -0.1383645069965024 -0.13265638012341965 0.09363966310003624
1582062000.0 -0.09991672179530334 0.055472304130664944 -0.07769403707173975 -0.13732864927659272 -0.07832503212213518 -0.1367495059314698 -0.1321133993891604 0.09517570027474294
1582750000.0 -0.10081698667893596 0.056926744371531265 -0.08021205186804668 -0.13573728254335388 -0.08080974030568942 -0.1350609839946405 -0.13161510527094303 0.09696016974415657
1583438000.0 -0.10181275504036721 0.05831644119934437 -0.08281428369955042 -0.13414267170527858 -0.08329818105568622 -0.13353810343514494 -0.13126824183585892 0.09868950103436025
1584125000.0 -0.10259395239837292 0.059842256230232115 -0.08535492076661429 -0.13235579549834509 -0.08571926094138188 -0.1318700637004596 -0.13099226618472767 0.10064050689002409
1584812000.0 -0.10354284643125221 0.061328660920339124 -0.08781300679032135 -0.13071500417586693 -0.0880890574382629 -0.13015956420138758 -0.13085462106392667 0.10240733091715823
1585500000.0 -0.10450022854660468 0.06270084313827269 -0.0902235070614347 -0.1289281919104955 -0.0904950976940414 -0.1284534156912746 -0.13102604737924214 0.10432389839620818
1586188000.0 -0.10528716509715248 0.06404354553471138 -0.09259000554177911 -0.12709427974314952 -0.09282791210122282 -0.12676268240358082 -0.1310748794934594 0.10598500463446983
1586875000.0 -0.10605433826824663 0.06540865254719894 -0.09496095065932705 -0.12512129580763015 -0.09512563685282822 -0.12488702042127059 -0.1314346059477932 0.10742567903338607
1587562000.0 -0.10700574360667625 0.06662604971209055 -0.09737975963902887 -0.12333540842752048 -0.09755869396343972 -0.12316575337203765 -0.1318023441055624 0.10901230406324648
1588250000.0 -0.10776321822452886 0.06784425099877268 -0.09952235522278484 -0.12143449112082347 -0.09985272932611376 -0.12131936466428657 -0.13212208927961155 0.1101075827022171
1588938000.0 -0.10857671053323634 0.0690449436493683 -0.1018970604316054 -0.11954826706446217 -0.10212336361907767 -0.11937874804181464 -0.13271855402797725 0.11130704334985214
1589625000.0 -0.10931515200261749 0.07005784886472083 -0.10414858601119137 -0.11756672269116618 -0.10437983156101945 -0.11739572365481912 -0.13306338761977893 0.11222351105001387
1590312000.0 -0.11000711382194042 0.07104149793813468 -0.10629161441556212 -0.11551016833851259 -0.10664902685216358 -0.11540085673278098 -0.1335354465208485 0.11285696539992936
1591000000.0 -0.1107869552606813 0.07196546169487295 -0.10839255793327565 -0.11341653381968755 -0.10884966758014823 -0.11333398245993864 -0.13374799750690852 0.1134367073478789
1591688000.0 -0.11141512190599191 0.07289526419788397 -0.11061868404586508 -0.11132617494422384 -0.1109182301859986 -0.1112438886528186 -0.13389860946945492 0.11387797772357983
1592375000.0 -0.11202262935066022 0.07369893448049354 -0.11265989460927155 -0.10918434946007034 -0.11318272137431327 -0.10904876082631118 -0.1339555071037507 0.11396978412349314
1593062000.0 -0.1127367487422024 0.0745417162826502 -0.11468258707397509 -0.10704833085420823 -0.11531622135162659 -0.10683707760378722 -0.1339821203146197 0.11434380807909438
1593750000.0 -0.113242937969625 0.0752692138731851 -0.1167472732739798 -0.1048390334615236 -0.11743940930343823 -0.10466060163434951 -0.13351771030895127 0.11447720271308036
1594438000.0 -0.11367187959361816 0.07597863212588218 -0.118814523393807 -0.10256270272999371 -0.11953898469462644 -0.1022722290200702 -0.1331963499896497 0.11452409143590792
1595125000.0 -0.11411737360030641 0.07665841867861146 -0.12078817913477076 -0.10031523643242989 -0.12151557090812963 -0.10003654695411725 -0.13237125528984514 0.11456684210730347
1595812000.0 -0.11441888565005177 0.07740430252004979 -0.12263400573224224 -0.09803546421151974 -0.12354187520330133 -0.09757040434002621 -0.13164176034031577 0.11472577898055963
1596500000.0 -0.11457121898620454 0.07802631986113628 -0.12458630952300696 -0.0956380908460396 -0.12546917159107002 -0.09518936035330663 -0.13059425848760906 0.11488844779282267
1597188000.0 -0.11478790477881631 0.07861293557554558 -0.12649586175786878 -0.09331148856934843 -0.12726884584717374 -0.09278056664040397 -0.12936046972327925 0.11538375719319215
1597875000.0 -0.11490302853129714 0.0792681987001103 -0.1282965034190892 -0.09080364517785934 -0.12910071498669623 -0.09039181675187188 -0.12797915043599936 0.11600518746136956
1598562000.0 -0.11489876751521591 0.07995877039642195 -0.13005592581137757 -0.08841054308167723 -0.1308208745879777 -0.08786742903163915 -0.1266801310512516 0.1165084272654626
1599250000.0 -0.11467217421602954 0.08061539930334723 -0.13179551340696802 -0.08579013499838205 -0.1326110536399211 -0.08534795427823187 -0.12512286339672948 0.11735386784678364
1599938000.0 -0.11465423842872628 0.08119619309778614 -0.13360102966617865 -0.0832840728915244 -0.1342436350649175 -0.08277203313242691 -0.12360649170653312 0.11841865014469143
1600625000.0 -0.11442414246688896 0.08199379700798048 -0.1351840495382885 -0.0807910779542157 -0.13600733896382386 -0.08020675361510737 -0.12211261113960856 0.11967540546886589
1601312000.0 -0.1140773815982458 0.08266899145111592 -0.13693586168397687 -0.0781811550504281 -0.13743920414462146 -0.07762771727804742 -0.12053790957715892 0.12098878692876025
1602000000.0 -0.11370609535349274 0.08344367987836813 -0.13831703260321898 -0.07567103070423686 -0.1389115256393694 -0.07499618062688275 -0.11937438703365306 0.12252788552248167
1602688000.0 -0.11332522417527562 0.08436225224394223 -0.13991942665453885 -0.07313154676352988 -0.14046561616580633 -0.07230980600097038 -0.11789053365837952 0.12466056302212977
1603375000.0 -0.11279663537344137 0.08516271345357068 -0.14139184770327973 -0.0704982035863691 -0.14183955059171022 -0.06960189877638989 -0.11683108366972333 0.1263153274428343
1604062000.0 -0.11239432035925356 0.08605638574045275 -0.14291290045488095 -0.06777922709485977 -0.1432273536649168 -0.06690252981327817 -0.116047419310049 0.12835579998230642
1604750000.0 -0.11188865457812816 0.08711371532587064 -0.14424308593272936 -0.06514120289884041 -0.14459807916437953 -0.06414612518158172 -0.11491097070814406 0.13048611626885503
1605438000.0 -0.11130834278352371 0.08794030607549383 -0.1455230157995036 -0.062464489327189475 -0.14585631568320553 -0.06149140084677966 -0.11468312826204687 0.13242624146358634
1606125000.0 -0.1107660194764628 0.0890999019718954 -0.14703877542312924 -0.05973811256299039 -0.14701376570829966 -0.05869849817682396 -0.11427918716811575 0.13453807076438304
1606812000.0 -0.11012358143536807 0.08997967539760221 -0.14808033286240385 -0.057010544372059685 -0.14818364540975712 -0.055851335644809784 -0.11384563736977597 0.13663547255348224
1607500000.0 -0.10974067366554488 0.0912622417768747 -0.14956925298981408 -0.054209599799420194 -0.14957117187061264 -0.05300094443833805 -0.11347786079917743 0.1387032071745441
1608188000.0 -0.10919451611827619 0.09233758020212762 -0.15060507222975017 -0.051232955717995556 -0.15059773935591048 -0.05032142530144959 -0.11426490757017303 0.14035522535491674
1608875000.0 -0.10871375088109546 0.09351583086366434 -0.15196687013050958 -0.04845279726429936 -0.1516195866562211 -0.04730931265495503 -0.1140690281978719 0.14172443696068396
1609562000.0 -0.10840521099579457 0.09465639154480411 -0.15301902105496998 -0.045506108006775535 -0.15268260341783327 -0.044508261203531706 -0.11460178763160773 0.1432178734762491
1610250000.0 -0.10795500049411047 0.09581327985942484 -0.15404594090632528 -0.04241037988892969 -0.15352180967568863 -0.04162316756580089 -0.11482220610212741 0.14449739856394858
1610938000.0 -0.10758913676797126 0.09680265643523904 -0.1549595697436128 -0.039393792766782725 -0.15442964074265914 -0.03874192903135931 -0.11516096010071772 0.14530520194704474
1611625000.0 -0.10728149028048053 0.09804694782547346 -0.15592471779128428 -0.03630895491203437 -0.1553090073646137 -0.03572230202437111 -0.11554875827059308 0.14575582476739957
1612312000.0 -0.10709310637589195 0.09931050071358444 -0.1565357979889962 -0.033013863821323944 -0.1561705945454428 -0.03277499375976507 -0.11565385103235987 0.1464339882807286
1613000000.0 -0.10701766302042313 0.10043835792926525 -0.1573616480157444 -0.02989462159612745 -0.15683246408353976 -0.029711941541122684 -0.11557389551967298 0.14724561696639413
1613688000.0 -0.10688307452887527 0.10150137100487802 -0.1577376275572898 -0.026630695318105815 -0.15749397452975983 -0.02667386878209645 -0.1152067970301648 0.1471580693111927
1614375000.0 -0.10686065375742732 0.10255847259892815 -0.1581969697720329 -0.02334114208882061 -0.15809205488294892 -0.023474238618479575 -0.11465032017809076 0.14730141372702038
1615062000.0 -0.10710975627835156 0.10387418850451136 -0.15861809922035258 -0.01995710954199678 -0.15864221861635802 -0.02042311317269694 -0.11426396310649663 0.1475898072090668
1615750000.0 -0.10722614665632274 0.10490931506323552 -0.15885258922885165 -0.016793692394147058 -0.1590501442003444 -0.017093110071795026 -0.11317386233410037 0.14746306263093334
1616438000.0 -0.10733682751845505 0.10589261530027706 -0.1590188236675094 -0.013549911209050384 -0.1594223025105756 -0.013819607072432677 -0.11167999708675348 0.1479111480185402
1617125000.0 -0.107527769700216 0.107029269012881 -0.15922835978776992 -0.010419367544864057 -0.15981040989031173 -0.010427313712621808 -0.11102719146548759 0.1480520858582534
1617812000.0 -0.10777246241904165 0.10782965220789659 -0.1592691068851345 -0.007257609714872624 -0.16003040352026576 -0.007304076589518617 -0.10997172307950569 0.1485864627176417
1618500000.0 -0.10798859758248562 0.10894925897686648 -0.1593056396286069 -0.004151774616210337 -0.16018867091712127 -0.003944624993213212 -0.10838996976473687 0.14880566107493587
1619188000.0 -0.10829243796292032 0.1097606134546353 -0.15917659819362426 -0.0009879429223413646 -0.16018023303694276 -0.0006196340093534806 -0.10695272715150864 0.1491996749503083
1619875000.0 -0.10857393390318161 0.11073762885464153 -0.1591209954371661 0.0019655944747967178 -0.16017984355341897 0.002601995736866304 -0.10567516663313142 0.14944167555814877
1620562000.0 -0.10865008648338595 0.11148104218913196 -0.15902383906012513 0.005047721758918987 -0.1601143693340599 0.005854772723387467 -0.10424981785625119 0.15008022593980505
1621250000.0 -0.10883538889224563 0.11216864735068174 -0.15887700162465165 0.007896302318982057 -0.15992311597501516 0.009093232677996319 -0.10270954729661963 0.15091292519515873
1621938000.0 -0.10887972454393995 0.11274548099703437 -0.15856584984139951 0.010982755876197237 -0.1595347815661411 0.012249015597718873 -0.1016116688181343 0.1517351840880999
1622625000.0 -0.10914038423872485 0.11330393212868807 -0.15838682645301635 0.01379888385405686 -0.159288250934794 0.015314806630618781 -0.10042379804470375 0.1528509821181241
1623312000.0 -0.10902532331340158 0.11384045983413495 -0.15813091542694968 0.01690665673621579 -0.15891250622754297 0.01840394660613427 -0.09959831069721446 0.15387081548920975
1624000000.0 -0.10891753636104783 0.11431100716970323 -0.15801827590642062 0.019710044621862762 -0.15846839105134525 0.021421115182459486 -0.09864355389325152 0.1548291265425455
1624688000.0 -0.10915080962444997 0.11464283414463486 -0.1578707094107107 0.02245938310219191 -0.15817948503123774 0.024492732417948398 -0.09807932861856566 0.15604987806609563
1625375000.0 -0.10890838185915805 0.11501285418988795 -0.1576098958479075 0.025480352622431524 -0.15754496795402975 0.027528073191904288 -0.09749836436369598 0.15719146677149007
1626062000.0 -0.10895643049571782 0.11515325129786921 -0.15737244128145725 0.0285525705604592 -0.15715634588497046 0.030459953342960637 -0.09778939938708499 0.1587760023649966
1626750000.0 -0.10888125655454167 0.11542955323862389 -0.157085701986913 0.0316573108629049 -0.1565574041621061 0.033404670539954245 -0.09802515821022922 0.1601732595706864
1627438000.0 -0.10876726769963838 0.11565238323389077 -0.15670496374808135 0.034744240594482716 -0.15605415047286111 0.03646839564128273 -0.09824235317971054 0.16065448248868527
1628125000.0 -0.10879534491553254 0.11593452263467338 -0.15630860937073054 0.03779724114762281 -0.1552999955978343 0.03942317868532674 -0.09876097720388997 0.1620790351226983
1628812000.0 -0.10857059372726616 0.11611584400894721 -0.1558790100140012 0.04104272290073961 -0.15476900349714193 0.04251463257635146 -0.09999620909666164 0.1629612149662092
1629500000.0 -0.10859780773611982 0.1163545212402072 -0.15535682626563774 0.04434219394157252 -0.15405749581618006 0.045424200883926576 -0.10030236500787225 0.16369518465477984
1630188000.0 -0.10836091068255639 0.11672022469997179 -0.15460038369445162 0.047590558325775766 -0.1533814094225387 0.048495912144389586 -0.10124539504564727 0.16405971240696288
1630875000.0 -0.10838259457929306 0.11714328360524298 -0.1538715261454927 0.05083567858192078 -0.15249975968131896 0.05150389280263857 -0.10230332980403142 0.16434899592408808
1631562000.0 -0.10813041457208426 0.11756940309540749 -0.15303192677962024 0.054207505938238 -0.1517071258922184 0.05458333362664564 -0.10340037602119792 0.16444420769312815
1632250000.0 -0.10793535076487946 0.11822003334751352 -0.1518681988476113 0.05744679690768405 -0.1507776787390328 0.057637170507434825 -0.10409535117286203 0.164239937582459
1632938000.0 -0.10780852156746015 0.11879441506083381 -0.15084306042713033 0.06071758586342329 -0.14979684361081108 0.06073904496008402 -0.10511099577217081 0.1640849432341809
1633625000.0 -0.1076589355598236 0.11957876397651886 -0.14957941728449636 0.06398322882481422 -0.14859638073401807 0.06384830444288112 -0.10577996228856582 0.16354218363098602
1634312000.0 -0.10733245350258967 0.12034918263034194 -0.14797302096767734 0.06714717754961286 -0.14734359131217759 0.06685097335990742 -0.10634409719894188 0.16276382886750557
1635000000.0 -0.10710664839724458 0.1211771895549562 -0.146473048248661 0.07029718421002346 -0.14587543440962292 0.06994978422285104 -0.10652369685477668 0.162041996693315
1635688000.0 -0.10685421383033034 0.12216240427017933 -0.1446913404960341 0.07323612693422951 -0.14448360586969605 0.0729018683711537 -0.106845314473355 0.1611394788756864
1636375000.0 -0.10658093952658648 0.12307538394979027 -0.14297181121408933 0.07613636051684486 -0.14296707853403215 0.07592210408273396 -0.10678117865978105 0.16027449079323833
1637062000.0 -0.10624426651448662 0.1240532607935864 -0.141078981413867 0.0788579732541131 -0.14115659400838468 0.07881130546514124 -0.10643130624228439 0.15903300352201127
1637750000.0 -0.10601770163393356 0.12504083936317154 -0.13922947323341003 0.08171956596980207 -0.13940198958575287 0.08166491445563169 -0.10606917649777023 0.15800506746126017
1638438000.0 -0.10569257605888041 0.12598044657153698 -0.13719237780417975 0.08420467889977333 -0.13748849737955893 0.08434802486997227 -0.10546167078632825 0.15727873334136483
1639125000.0 -0.10552155443710441 0.1271651906006625 -0.13519203025571694 0.08688417921280917 -0.13556462546595258 0.08720005089177968 -0.10487224220559359 0.15636485926847274
1639812000.0 -0.10544274794241129 0.1280837235086218 -0.13321200624251187 0.08937888107858348 -0.133763179653735 0.08974658453324705 -0.10422140928519438 0.15542125466485213
1640500000.0 -0.10530297353859111 0.12916085053286155 -0.13136317750926566 0.09179287035589435 -0.13163672945776428 0.09234264468601747 -0.10341995775584882 0.15486610897050032
1641188000.0 -0.10528799818300313 0.13003654647254742 -0.12932693327555328 0.09416880972230142 -0.12972062607174983 0.09481260749505367 -0.10258542729450423 0.1543802526232232
1641875000.0 -0.10546112440057544 0.13111197115123854 -0.12750016070164086 0.09641497358551337 -0.1276317034403968 0.09730122488144011 -0.10172779359995868 0.15339908964710722
1642562000.0 -0.10587222581319851 0.13203421479946917 -0.12552266064370335 0.09863429557616754 -0.1258594579662556 0.09958857064677383 -0.10120648111472037 0.1532742878967206
1643250000.0 -0.10619942990075894 0.13299561709697333 -0.12363023821626447 0.10080161752273747 -0.12379267416585156 0.10196294896323191 -0.1006296593992053 0.15303266194588624
1643938000.0 -0.10665233627146523 0.13392325016485815 -0.12171594050401369 0.10309649331080807 -0.12176129518503082 0.1043113025464509 -0.10009373892343863 0.1528788306684699
1644625000.0 -0.10730406406009194 0.13495401442063593 -0.11986971637402946 0.10530870741589694 -0.1198093460122482 0.10657694469804771 -0.09963861132821504 0.15281431812944934
1645312000.0 -0.10799169593033803 0.13599032712376688 -0.11802043404361133 0.10769006388439767 -0.11779580827338547 0.1089017388386569 -0.09919187350470636 0.15287362586448547
1646000000.0 -0.10866282049190953 0.13701345348171706 -0.11601093615892832 0.10990729911581905 -0.11579231492751835 0.1112237511635216 -0.0990251043297019 0.1530888276024082
1646688000.0 -0.10938145526835526 0.13799040400791104 -0.11400877389786096 0.11219848724315253 -0.11356259505767106 0.11357081401075643 -0.0989617961807234 0.1533306895828504
1647375000.0 -0.11017618906865516 0.13907057192440014 -0.11188704523536537 0.11443557875975457 -0.11149162539676387 0.11583117730934303 -0.09890211728488775 0.1536050096142658
1648062000.0 -0.11114234583015378 0.14015880833932515 -0.10985403480054126 0.11673177458260661 -0.10924053093902127 0.11826329183148941 -0.09913398757292172 0.1539186696719599
1648750000.0 -0.11177702474525121 0.14116556812139158 -0.10752384296289895 0.11912672587453628 -0.10678696447200436 0.12052276790912969 -0.09912424215954992 0.15437496448220053
1649438000.0 -0.1124615702522581 0.14224605417131048 -0.10537717034560307 0.12146903134766031 -0.10437621650625334 0.1228677060349947 -0.09983668035951482 0.15489217604261812
1650125000.0 -0.11321955670850309 0.14318862363330137 -0.10292811703898828 0.12360955148385988 -0.10195534335165479 0.1251395309318529 -0.10027790814261323 0.15505556545319008
1650812000.0 -0.11399764379029417 0.14429482340153024 -0.10048352069842441 0.12590552125954513 -0.09938980322491767 0.12721640384985936 -0.10080429499089151 0.155266663852814
1651500000.0 -0.11442669380464747 0.14514643660492993 -0.09802003237531264 0.1282253782019928 -0.0966924997229311 0.12947274286825072 -0.1013259128066793 0.15546032082556172
1652188000.0 -0.11511482106171338 0.1460218472101372 -0.09536498195787485 0.13043237442064742 -0.0938507059244888 0.13138294840904105 -0.10151126691097223 0.15568205151349293
1652875000.0 -0.11561843928234743 0.14671821977382493 -0.09269410923291614 0.13250027789421015 -0.09087343081014734 0.13336641893457973 -0.10182951493568439 0.15579707270953871
1653562000.0 -0.11616629828625669 0.14754585402015355 -0.08999125811333634 0.13446326874275294 -0.08820728721748822 0.1351743775846293 -0.10228541690355196 0.15571156751570064
1654250000.0 -0.11637148692969265 0.14802351384858511 -0.08707851844436419 0.13632520941868928 -0.08515181110933845 0.13684026342218775 -0.10226967497810242 0.1558962107753614
1654938000.0 -0.11684891739029488 0.14856175275860212 -0.08412181239140747 0.1381878677580988 -0.08233588241869777 0.13836232468528076 -0.10253199473491932 0.15574471029957623
1655625000.0 -0.11735514715909875 0.14905910427436686 -0.08115512888663398 0.13981031114719358 -0.07931239504920257 0.1398847196217379 -0.10244591218416028 0.15545707044625512
1656312000.0 -0.11755536354655301 0.14953340007795082 -0.07805260195471685 0.14149465905672023 -0.07640437527360189 0.14123612802757926 -0.10239900178421718 0.15556771830756005
1657000000.0 -0.1181547871460735 0.1498848710682565 -0.07506108619989367 0.1429597577018182 -0.07352908647489143 0.14247261649497286 -0.10205209877266105 0.15542336640094223
1657688000.0 -0.11859118790711701 0.15057111446261773 -0.07203961500397642 0.14445767596871328 -0.07074457235807668 0.1437249651548196 -0.10178167928390594 0.15540054102476342
1658375000.0 -0.11891004043706876 0.1510503115283749 -0.0688475168461258 0.14579935458236384 -0.06778146927976778 0.14496050653000805 -0.10153334556497082 0.15546720202448755
1659062000.0 -0.11935410771082947 0.1516206053591201 -0.06575941822040643 0.14702467704975855 -0.06488635854027854 0.1460886553595313 -0.10105853272048615 0.1556226401151841
1659750000.0 -0.11979634523858972 0.15228758480999044 -0.06265601213765033 0.148211560652152 -0.06196733703512813 0.14728645790174674 -0.10069543775208632 0.15574109163993466
1660438000.0 -0.12011425410731774 0.15313385644088973 -0.05949586196496236 0.14934209029385975 -0.059181579355715754 0.14839865282424203 -0.10030702727769837 0.15599878140748097
1661125000.0 -0.1205017631751632 0.15401944299315554 -0.05626205934497554 0.15033009722126567 -0.05637386091203553 0.14953468136917009 -0.0995494902172773 0.15637413741351713
1661812000.0 -0.12076771640767121 0.15505272551438815 -0.053098025169317116 0.1513098093171406 -0.053475847049301924 0.15065885914476954 -0.09913866676098004 0.1569502277638036
1662500000.0 -0.12096210007426177 0.15613395988240866 -0.050046927544718456 0.15223189827101044 -0.05054630699029245 0.15179855475417342 -0.0987450723618025 0.15742996208418097
1663188000.0 -0.12124078728458978 0.15736567269999188 -0.04700408354779796 0.15314822581291812 -0.047746146530038815 0.15288363145915182 -0.09846300042568953 0.15817519515177045
1663875000.0 -0.1214185327248863 0.15854524202453166 -0.04386757691413216 0.1539417211820005 -0.04464079511054162 0.15393431582714698 -0.09819634046137761 0.1590983417550941
1664562000.0 -0.12145346296217326 0.15993540600514286 -0.0409426568225381 0.15466835518412897 -0.04152590407789911 0.15493991262528015 -0.09775847441049555 0.16008113020929846
1665250000.0 -0.12145461495219531 0.16136513029502353 -0.03777693301323736 0.15516723467224428 -0.0384655512317137 0.15591789372704973 -0.09750951378127647 0.16116987039738823
1665938000.0 -0.12143654398476199 0.16267864319578207 -0.03480139128638683 0.15583107846875124 -0.03528687382992083 0.156718406272082 -0.09739787574133266 0.1625752874640342
1666625000.0 -0.12151078732706899 0.1641285200537193 -0.03175475316151505 0.15627537172117154 -0.032081932998670654 0.15767784299276855 -0.09739710952062976 0.16388750231397262
1667312000.0 -0.12139855078905505 0.16574673392969486 -0.02855952756801504 0.15675149973603544 -0.028647932010314472 0.15828646634773844 -0.09737584242986477 0.16530087521332745
1668000000.0 -0.12151842305968454 0.16710519282507313 -0.025633586573290255 0.157098000868144 -0.025331208631513766 0.15888397106312474 -0.09756805665869475 0.16687184114639564
1668688000.0 -0.12136802206547398 0.16853752121186152 -0.022552211412167886 0.1575342467000695 -0.021851955088648806 0.15932880697378918 -0.09766507915150383 0.16867169085050937
1669375000.0 -0.12148114363078365 0.16992538354646886 -0.019546320425967628 0.1578052168908924 -0.018572072253894064 0.15967442714713165 -0.09786587810455467 0.17023713909384375
1670062000.0 -0.12147708211094353 0.17138330773441388 -0.016360326632525894 0.1579811002689014 -0.015018203529894128 0.15980348778009443 -0.09808977965510225 0.17195411123747423
1670750000.0 -0.1217044914646441 0.17294142615692595 -0.01328111386227558 0.15836395302739228 -0.011629583870955184 0.15999691658147577 -0.09834363305726553 0.17380250496358648
1671438000.0 -0.12188113204801262 0.17426253653103943 -0.010402474241279994 0.15854330188954954 -0.008392964888601405 0.15988449279088898 -0.09883088946366377 0.17528012995212264
1672125000.0 -0.12213751038675193 0.17558840637952208 -0.007198357872001066 0.15868174021389356 -0.004928868141356185 0.15975976509826872 -0.0990707855936763 0.17703773347702062
1672812000.0 -0.1225254781672633 0.1772128234731397 -0.00409217261028615 0.15906409137357433 -0.0017539219277673307 0.1595936523059456 -0.09935879599403703 0.17891514071021186
1673500000.0 -0.12300897636801372 0.17870252716887378 -0.0011155578281152375 0.1591726841338329 0.0014375944438658047 0.15947072515751798 -0.09973498633828942 0.18074855063016554
1674188000.0 -0.12343696175586628 0.18018371015470228 0.0020266151765742707 0.15928761951674866 0.004605505459368742 0.15922392869637983 -0.10007961777595274 0.18234412382860685
1674875000.0 -0.12385154625124438 0.18172745813509875 0.005205567158696308 0.15940305107531993 0.007695160431906043 0.15883314656921746 -0.10033704200519071 0.18403416921350796
1675562000.0 -0.124443848679402 0.18331322810219794 0.008367217092600803 0.15927283081525423 0.010645249192533294 0.15850826871809234 -0.10065526878864196 0.18551806826151543
1676250000.0 -0.1248776248188976 0.18490316555526407 0.011603211071398825 0.15933365729130045 0.013499047301754689 0.15805967482179686 -0.10081014075572976 0.1871905538936337
1676938000.0 -0.12533949597422878 0.18652487584302388 0.014872829911660406 0.15918968255136226 0.01646192651386246 0.15768690347835077 -0.101388674902366 0.18882583073206888
1677625000.0 -0.12568054336825918 0.18818137331300186 0.018027735901817853 0.15887920205051753 0.019497465947808143 0.15737658601388094 -0.10167867558347052 0.19039174093326008
1678312000.0 -0.12614313811441602 0.1897630179679156 0.02124549095634295 0.1586418425918118 0.022354937675220222 0.15683603101652663 -0.10203675469704526 0.1919741063626111
1679000000.0 -0.1263900970774689 0.1913815415000827 0.024589204559075744 0.15809635162837649 0.025294759058352427 0.1564352161391435 -0.10232277802735598 0.19377068752222013
1679688000.0 -0.12658317208899275 0.19295339901479058 0.027985843190145847 0.15766944098263475 0.028237610284916156 0.1561626456697784 -0.10298995744898314 0.1953190591669772
1680375000.0 -0.12670638006969612 0.19446056390590258 0.0313293784274905 0.15703677679613717 0.03131962749908134 0.15567472113035882 -0.1034908389259751 0.19684449151159916
1681062000.0 -0.1267011863651342 0.1958622973705029 0.034525711215199435 0.15621799092662772 0.03444611538211057 0.1550764870659404 -0.10399583802571293 0.19820378402743827
1681750000.0 -0.12680864438407596 0.19737215850613082 0.03781066153070237 0.15539442029137213 0.03744704381184023 0.15464087239916155 -0.10461458382131256 0.19992099657646092
1682438000.0 -0.1265998997063637 0.198745333454199 0.04118471352449605 0.15452901368616803 0.04066305514001094 0.15392912332959025 -0.10532490304399321 0.20132958578439486
1683125000.0 -0.1265706564102098 0.20003158484787453 0.04438838258263594 0.15345222522430843 0.04370622088663416 0.15312715295989102 -0.10574263824840141 0.20247084443611457
1683812000.0 -0.1261793429156154 0.2012610347860804 0.04751641660573739 0.15220832099830578 0.047002406281997366 0.15218663358819343 -0.10657259925824472 0.20404186069882516
1684500000.0 -0.12584140719720016 0.20249010264127806 0.050515265217953124 0.1510814008831258 0.050259750919309294 0.1513177427322205 -0.10721623949279131 0.2052598718062282
1685188000.0 -0.12540641427395557 0.2035148027445641 0.0535256287224238 0.1495171635879133 0.05331804888324691 0.15019685666496982 -0.10764325726644246 0.20662659667184224
1685875000.0 -0.12524719614940028 0.20482902744001064 0.05643924680900001 0.14834421794337294 0.05644212332134802 0.1490066772831103 -0.10842531625093224 0.2077386499631172
1686562000.0 -0.12478591789091473 0.20593739949662032 0.05935200931132725 0.147013850706861 0.05949774487480528 0.1476716097504262 -0.10881042697601541 0.20894866573110474
1687250000.0 -0.12429878086932236 0.20718927363370968 0.062070572028538815 0.1455310085453796 0.06259755509831347 0.1461933538637605 -0.10927881276835402 0.2103578171210533
1687938000.0 -0.12359125179947822 0.20858883262210048 0.0648716971526969 0.1440342254744179 0.06556117897129202 0.14464877950362434 -0.10928703137076695 0.2115479660684257
1688625000.0 -0.12310582364370352 0.20975282778337154 0.06751848356568221 0.1424383596140617 0.06846181247583726 0.14313970801875298 -0.10955937391902093 0.2127687539479914
1689312000.0 -0.12252006523588516 0.211138285004123 0.07005245606021851 0.1410456823670713 0.07133603937282974 0.14147540590277677 -0.10976539104438661 0.21413999809856038
1690000000.0 -0.12193529278004288 0.21260324948266102 0.07255896573184878 0.13941906616915695 0.07391690160839424 0.13979980317790258 -0.10994351542242656 0.21511930624191516
1690688000.0 -0.12112672422002953 0.21416781384750425 0.07514416241280732 0.13786209864528415 0.07661345788005541 0.13802884671666257 -0.10966827497605296 0.21631351479022654
1691375000.0 -0.12029848913326008 0.2157166438647954 0.07759583808378274 0.13631283428605692 0.07913457077724229 0.13636036589129372 -0.10978723625785947 0.2178468279736583
1692062000.0 -0.1194028960311929 0.2173848387657085 0.08009916400690784 0.13464656852611598 0.0817619757706927 0.13449008751186645 -0.10964239957381373 0.21910835503619933
1692750000.0 -0.11855253816226678 0.21900540512918654 0.08266831811895241 0.13298051097857017 0.08401523101676318 0.13272664373848056 -0.10901616617390004 0.2200965070297563
1693438000.0 -0.11753741464001273 0.22077069838249924 0.08508057792988995 0.13119919314133438 0.08645258566781767 0.13084435372539613 -0.10867297126320713 0.2214622321326156
1694125000.0 -0.11669326326546663 0.22270152590606226 0.08755327370380629 0.12958417511798093 0.0889507774808729 0.1289927743780113 -0.10806752945669071 0.22279450470105752
1694812000.0 -0.11558101490903479 0.2244609146848617 0.09007591918451897 0.12790222923455458 0.09126749757614915 0.12720542237449872 -0.10774459125521357 0.2242606346198473
1695500000.0 -0.11447961964625541 0.22629147174650022 0.0925800620924224 0.12606213946057937 0.09353855020562928 0.12526947235776764 -0.10702098184292769 0.22566566540301466
1696188000.0 -0.11338675063015416 0.2283389689907554 0.09489024332875116 0.12432633297389951 0.09592163023715554 0.12335126730947235 -0.10637955163452435 0.22695379308406544
1696875000.0 -0.11232974471798648 0.23018597021132317 0.09732199487898155 0.12250750942008742 0.09823045293114996 0.1215274522050431 -0.10584660919218143 0.22859512925692616
1697562000.0 -0.1112156046589016 0.23212494689358576 0.09972838644304709 0.1205265765066678 0.10047390136060576 0.11966797321140214 -0.10550341753832194 0.2300874761547548
1698250000.0 -0.11017668093427327 0.23404853666796946 0.1019722003352544 0.11847790969332879 0.10275818322184994 0.11774156344215043 -0.10508551110228086 0.23155889533710133
1698938000.0 -0.10911828056965257 0.23590220694404174 0.10437777298553075 0.11641659015822077 0.10487752772901181 0.11556242977809059 -0.10475928098492841 0.23301658898161906
1699625000.0 -0.10811451870827038 0.23779637911773974 0.10657476166816036 0.11435587499594665 0.10712484410964537 0.1135127446164675 -0.10425791239834929 0.23462563470745346
1700312000.0 -0.10682693113944164 0.23966398040186343 0.10869792728764373 0.112168002086081 0.1093319674906685 0.11139583038600642 -0.10422522738246988 0.2362025513203765
1701000000.0 -0.10590372068711668 0.24172758791525945 0.11108574648003901 0.10985398298436606 0.11146657096625985 0.10920725214906633 -0.10361820442293114 0.23758786630276119
1701688000.0 -0.10498718544100964 0.24349474020803552 0.11318879797800689 0.1076230952710049 0.11365070860250936 0.10700316011839656 -0.10375209005101474 0.23912946652848827
1702375000.0 -0.10401934335424451 0.24526873275493738 0.11523334545813678 0.10537486503198228 0.11559629821601634 0.10470950627072753 -0.10357946500207621 0.24018545767475727
1703062000.0 -0.10308268142019489 0.24714373974060197 0.11718618007556575 0.1028907912093674 0.11764988056941433 0.1022720730194768 -0.10320267767218348 0.2413538439071661
1703750000.0 -0.10213207850436778 0.2490341661908887 0.11910190211284168 0.10051386334637472 0.11962252889776616 0.09979951616657613 -0.10303909357901986 0.24268673089668436
1704438000.0 -0.10123084720345599 0.25072463400194656 0.12104289207294042 0.0980089695388783 0.12161633859751822 0.09739386153547336 -0.10303062247520565 0.2435908763593697
1705125000.0 -0.10038166958531436 0.25247456476657587 0.12288079314592316 0.09537906238086558 0.12345973424579398 0.09479057798261993 -0.10240563191226056 0.24427004588085596
1705812000.0 -0.09938370087797531 0.25424571942143553 0.12456045708233211 0.09296365859768388 0.12515583894766855 0.09228090735180834 -0.10230525025534512 0.2447926507130718
1706500000.0 -0.09849181670276927 0.2557661988961624 0.12640092629449853 0.09043469646280942 0.12695700997582046 0.08969351107733047 -0.1016188324218458 0.24576963991480624
1707188000.0 -0.09741679371557874 0.2574849234234997 0.1280582223386252 0.08775644714950559 0.12850744711523576 0.08717410329075594 -0.10082372753109088 0.2461579450981293
1707875000.0 -0.09643662142682144 0.25904005489920373 0.12963335237335843 0.08529104951242562 0.1301212996499395 0.08450420296929703 -0.0999957655402078 0.24665036575194402
1708562000.0 -0.09541759483793655 0.26061493766418414 0.13118321435184702 0.08261475531696745 0.13165478641195597 0.08190596778921892 -0.09910986778978477 0.2470566836090558
1709250000.0 -0.09434731262964835 0.26204014715367224 0.13270450673076015 0.07991834793009946 0.13321885990335056 0.07922031668300515 -0.09759690390980785 0.24722379668129538
1709938000.0 -0.09309312664972125 0.26340064320420437 0.1341183826216344 0.07729325061791803 0.13459377875047143 0.07650025109735088 -0.0959281785948274 0.247717909176375
1710625000.0 -0.09189836669475303 0.2647999924922202 0.13552768781576435 0.07452488368086575 0.13592001682207897 0.07379400367466243 -0.09412045673274859 0.24821508663939823
1711312000.0 -0.09051337983408803 0.2661645874142156 0.13689735252610707 0.07173669558435163 0.1372481480188266 0.0709609715432401 -0.0921440078733005 0.24867407705917965
1712000000.0 -0.08939670749926616 0.2674906291410639 0.13819111532286996 0.06914479492313609 0.13834126016615328 0.06826716395986347 -0.09030800705833271 0.2492678597677635
1712688000.0 -0.0880337642582129 0.2688089150928389 0.1392834616748949 0.06625567672072268 0.13956437186062506 0.06548762850737165 -0.08798388712018475 0.2496967035770206
1713375000.0 -0.08634864323021213 0.2701878684721291 0.14045794463863 0.06340231041050423 0.1407824093214012 0.06279814192893331 -0.08557127285251344 0.2506107139409239
1714062000.0 -0.08490539132788595 0.2714645137079519 0.1416556315863454 0.06071052246231852 0.14181177728540414 0.059943976234588754 -0.08297543924073617 0.25138509086756133
1714750000.0 -0.08318001231354216 0.27253850592569084 0.14270236443043097 0.05777334319546837 0.1427190685740021 0.057071910072694 -0.08023476464737393 0.25259223800154074
1715438000.0 -0.08161035644699258 0.27388585029338824 0.14356337035549538 0.05496598321868683 0.14371786847758544 0.05425408757418611 -0.07749596839250449 0.25396986266980587
1716125000.0 -0.07970774162820883 0.2750809001265319 0.1444865064859235 0.05190985608487872 0.14466366863122943 0.05136884171024748 -0.0747217240279037 0.25566783013383887
1716812000.0 -0.07779243294808731 0.2764396043492803 0.1453616016387002 0.0490507822191042 0.14542337719145867 0.048489868323431266 -0.07206835768923953 0.2572888851743475
1717500000.0 -0.07604822541352073 0.2778032673770175 0.14610633420889038 0.046243044034262056 0.14629151193119108 0.04565354943218286 -0.06947237618827606 0.25940645305987997
1718188000.0 -0.07402658339592753 0.27893314200154734 0.1468384264430447 0.04324751218511984 0.14701582751107273 0.04286010666722889 -0.06716273374493988 0.26124149871032637
1718875000.0 -0.07178557026890413 0.2802689081772367 0.1475588158831094 0.04039084052902238 0.14776278238256363 0.03991347975688606 -0.06471613018333613 0.2634714860444725
1719562000.0 -0.06975883257487878 0.2813701650753205 0.14811646681923468 0.037464200085916 0.14835555488730112 0.03711554830919974 -0.062757998669972 0.265756975728268
1720250000.0 -0.06758172384949591 0.2829715935082097 0.1486283841267921 0.03449915222877592 0.14894755503377102 0.034145865038221195 -0.060633123078897476 0.26789314859274294
1720938000.0 -0.0655711551170042 0.2844522529003407 0.14924593724936946 0.031657995938320076 0.149606630001587 0.031432587763823724 -0.059138445169220934 0.27046525333493837
1721625000.0 -0.06335834780022115 0.285744867333084 0.14951017008449924 0.028864626365182056 0.15010715766939642 0.02836211105926962 -0.05725819218707022 0.2728645226227924
1722312000.0 -0.061131272621302676 0.2870943489984048 0.14997716767909874 0.025898895009919484 0.15050521758138793 0.025400021962441635 -0.05571945947547666 0.2750705389477615
1723000000.0 -0.05891769544835998 0.2887315963306013 0.1502541637041555 0.022916564984749213 0.15099090430213785 0.022517315206722982 -0.05452393992815984 0.27709284022051445
1723688000.0 -0.05678328271117291 0.29011149509320294 0.15061063815496795 0.020015752619533606 0.15131394816869845 0.019604549266510802 -0.0533000702394889 0.2790891020410057
1724375000.0 -0.05463185821958738 0.2917193721328321 0.15080558656501208 0.017306967659681954 0.151544496263396 0.016600295601772987 -0.052330364543042046 0.2808164254668639
1725062000.0 -0.05244415503362719 0.2933935188020636 0.15104403616218054 0.014366601422151746 0.15188889758588545 0.013616520325843746 -0.051203669519102116 0.28249871982248825
1725750000.0 -0.05045863176262783 0.2948844050701248 0.15109884518549038 0.011524874005234395 0.15206383619734193 0.010735344140442884 -0.05040726015071457 0.28364375779709067
1726438000.0 -0.048426979607598064 0.2964194392768258 0.15132451243653297 0.008710324321725174 0.15208398747080723 0.0077482938514029055 -0.049257741385870954 0.2850527628641236
1727125000.0 -0.046336496835320144 0.29825331798815613 0.151357486332496 0.00577441289845757 0.15217396874642608 0.004692186423778584 -0.048140625472635784 0.2860148942261866
1727812000.0 -0.044401222782071224 0.29968068977195284 0.15127871970774706 0.003120895852699486 0.15210264567674667 0.0016605619934001495 -0.04694135142126507 0.2866804605719406
1728500000.0 -0.042307308239798204 0.3014456207592352 0.15115572990399695 0.00025429130804873026 0.15186192494269185 -0.0014824858875914463 -0.04557357318531599 0.2871224822521667
1729188000.0 -0.040433455324464455 0.3033942227798135 0.15135545238849507 -0.0026544133312518424 0.15167660875638742 -0.004352828703133372 -0.04422861296257545 0.28752113748951263
1729875000.0 -0.038280708280182416 0.3047463006837348 0.1510224199877925 -0.005581727533429971 0.1513401437491348 -0.0073496448626936385 -0.042580060886475236 0.28784642800332927
1730562000.0 -0.036495133793520984 0.3063417658118603 0.15105234068554138 -0.008321871939871077 0.1510154822737754 -0.010179190792393327 -0.040906527415592746 0.2881155919226979
1731250000.0 -0.03451121388574009 0.30802968832947347 0.15081418236396768 -0.01130221707999054 0.15070473226802353 -0.013163307947743546 -0.03866698107809904 0.28825823074609563
1731938000.0 -0.03263261040022651 0.30943397714327053 0.1505600915918644 -0.014199076717373277 0.1501535197166469 -0.015991761533645586 -0.0365285048138523 0.2887211430362517
1732625000.0 -0.03052524182386767 0.31107038243296525 0.15028707771185426 -0.017153637083014824 0.14969721564449598 -0.01880650567718174 -0.0343555012177709 0.28895035198208036
1733312000.0 -0.028916940271096446 0.31238962051848596 0.14999798947820034 -0.02008788590776079 0.14910974661614798 -0.021551649394228697 -0.03175860319515653 0.2891396894694651
1734000000.0 -0.027067889378860028 0.31334196285860805 0.14955964413814202 -0.022965457220345372 0.1485122758098808 -0.024284716889830603 -0.029233208307326636 0.2896790979752331
1734688000.0 -0.025046032245559548 0.31464643152253136 0.14917152744532292 -0.02596396937287731 0.14797046027973557 -0.02701993738504684 -0.026508368997399494 0.29014642049641626
1735375000.0 -0.023279259629159853 0.3157894204746659 0.1486708979538011 -0.028858805878228193 0.14737955114753667 -0.02975176903580089 -0.023570786810211863 0.29086692915048257
1736062000.0 -0.021342308957594154 0.316804722352523 0.14802489353379641 -0.03188202796758565 0.1468252676069505 -0.032372999594126685 -0.020889717427689813 0.2921195313454395
1736750000.0 -0.019568903400981094 0.3175950720746889 0.14735110749017336 -0.0348909600208572 0.1462663537331727 -0.03511780775959088 -0.01803199230014287 0.2933935437481808
1737438000.0 -0.01780203079311448 0.3183222110835945 0.14662887483422982 -0.0376749249684777 0.1456085597045414 -0.03771082260914775 -0.015528167453793689 0.2949157858468058
1738125000.0 -0.015897820793122856 0.3189647308779851 0.14576254012019382 -0.04065851076253871 0.1448691339954453 -0.040521479621716164 -0.01326427313272045 0.2963205099826661
1738812000.0 -0.01416730757414825 0.31949055676571164 0.14478522321029436 -0.0435957923667904 0.144207466222431 -0.043296926878347054 -0.010462306596018892 0.29817956611992735
1739500000.0 -0.012261631288937876 0.3199341423207527 0.1437566070359555 -0.04657776719060379 0.14353918466388654 -0.04602953033738808 -0.008204419378505683 0.3000892894232664
1740188000.0 -0.010436351494089158 0.32048715735687905 0.14274064088556865 -0.049382204740036385 0.14257970277913315 -0.04892232537799773 -0.005967104560493457 0.3021529050600323
1740875000.0 -0.008467680413961278 0.32094461077852976 0.14164153417986172 -0.051965368506539884 0.14160936269675065 -0.051737443106486515 -0.004575292672901782 0.30397753977377695
1741562000.0 -0.006437630965404438 0.321314815793149 0.14054929484902995 -0.0548515855375766 0.14077008964720175 -0.05453477098928739 -0.003021439291587677 0.30637952135986785
1742250000.0 -0.00435498435101286 0.32167587780892504 0.13930373439870336 -0.05743296538645462 0.13981944756709355 -0.057422334870923825 -0.0019975432008369856 0.30837223624458937
1742938000.0 -0.002339450229653084 0.32193620984981897 0.1379191836794195 -0.06009226204075234 0.1386326360821285 -0.06013879063169492 -0.0007016370359402253 0.3099181915950695
1743625000.0 -0.0001671254370420856 0.32218176459101744 0.13671382310722022 -0.06248065897708524 0.13743687173018038 -0.0627832025029035 -0.00010875949009390144 0.31178729311904957
1744312000.0 0.0020676134130854086 0.3224146979575317 0.13531092975880554 -0.06503823802527357 0.13629290040696532 -0.06552113927060849 0.0005589050415394115 0.313743594002978
1745000000.0 0.004336587164021498 0.32266059795892593 0.13378219069538203 -0.06742893960898197 0.13479809772767992 -0.06825630807638272 0.0012004396279192964 0.3146646497102767
1745688000.0 0.0066335394199936865 0.3228742203509589 0.13254742297980684 -0.06974871936618915 0.13342238083718178 -0.07077356614352412 0.001544785678463823 0.31586972639661737
1746375000.0 0.009065620870337942 0.3227862548842832 0.131054906205009 -0.07196891517702184 0.13179486892865735 -0.07331129710532458 0.0017748350209358431 0.31643310206679975
1747062000.0 0.01172736390249179 0.3230047725024763 0.12943972735376602 -0.07419905120845098 0.13034554025269154 -0.07567037440596537 0.0018676792454825454 0.31677459252758566
1747750000.0 0.014347005820886738 0.3235092227152524 0.1282159174994439 -0.07637609700120142 0.12879745970863468 -0.0781503551447754 0.0022003086159235546 0.3167801335726183
1748438000.0 0.016676222856210707 0.32327878295761653 0.12688756045837477 -0.07847668632483559 0.1269467692459344 -0.08032524456482922 0.0029219523204283616 0.3166008686631374
1749125000.0 0.01922079672066997 0.32329176102543367 0.1252857010782035 -0.08044674683262346 0.1253987730097634 -0.08246752375318601 0.0028322834140751753 0.3158560446244382
1749812000.0 0.021879430330016422 0.32369588072999594 0.12407929448877714 -0.08277510208799176 0.12366138425348147 -0.0847079535212712 0.003714921921017769 0.31549004135467446
1750500000.0 0.024357099120405325 0.32356043740143015 0.12254024532991498 -0.08481374308397688 0.121912894478889 -0.08677534342216067 0.0048424359654034195 0.31456376279607395
1751188000.0 0.026845074121031952 0.3236430899338663 0.12123600256745266 -0.0870111341677084 0.12038384977111076 -0.08884177617299446 0.005843100709051041 0.31368012054802064
1751875000.0 0.02937060902498375 0.3238081211496128 0.11978953445485115 -0.08912839963272698 0.11864254827441341 -0.09096116412266038 0.007143385675971364 0.31213377999460185
1752562000.0 0.0317878014783893 0.32371992029513585 0.11828369273872931 -0.09145669872990017 0.11682327609836324 -0.0929440575167326 0.008799482521217846 0.3109430349537745
1753250000.0 0.03416420994185116 0.32393412485527145 0.11671833658395771 -0.09371534023238842 0.11529580993437434 -0.09503539564845706 0.010628131836727124 0.3097216445029208
1753938000.0 0.03653814912396589 0.3240172511902599 0.11523336368969586 -0.09591688863567904 0.11357227854014049 -0.09709553253912848 0.012431874047643864 0.30865119626628373
1754625000.0 0.03886884635060073 0.32398047433178856 0.11360111781624578 -0.0982809438201376 0.11179589251652249 -0.09921995917555541 0.014700736092962031 0.30738063099646845
1755312000.0 0.04106686335911338 0.3242722289517109 0.11185330805253225 -0.1005283922073069 0.1101470992804461 -0.10128904874815792 0.016806479902402652 0.30621526360358614
1756000000.0 0.04319163299003715 0.32446352059706923 0.10996345474590756 -0.10300905355955797 0.10841097948540843 -0.10333263431205264 0.019439584896242534 0.30522438893406056
1756688000.0 0.04528838764100244 0.32475753906146676 0.10789520132040244 -0.10523330620025868 0.1064338317317745 -0.10549820963825828 0.02224264234900973 0.304476849382291
1757375000.0 0.04749633328323666 0.3249586459187832 0.10575053222111165 -0.10761554257906661 0.10447353718287086 -0.10766715021897881 0.024983384475922906 0.30399976825265923
1758062000.0 0.04951720455835781 0.3253730995170908 0.1036547173267674 -0.10976865488308178 0.10246028468231153 -0.10978736055077504 0.027647905690567375 0.3035062175164365
1758750000.0 0.05157257337979707 0.32559382393182623 0.10139042654743746 -0.11190754748802527 0.10033208098936798 -0.11184561032271187 0.030465500936677926 0.30322281569844595
1759438000.0 0.0534491177734823 0.32594886588245925 0.09896658180583214 -0.1141473603543502 0.09815506355210314 -0.11398445151966381 0.033382444327343594 0.303064799854153
1760125000.0 0.05537952084646681 0.32615880657992763 0.09664594026970742 -0.11626216658872428 0.09580393587690805 -0.11596781909348368 0.036002800472568555 0.3032479950866493
1760812000.0 0.05746241539223496 0.32626765988842377 0.09394750704294642 -0.1180016989276827 0.09337669622253611 -0.11793470845803201 0.03870242878735434 0.3034352245164613
1761500000.0 0.059475348766463154 0.3265611889524893 0.09142565229352799 -0.11996352623810122 0.09082109288902566 -0.11984861516062774 0.040776162918234084 0.30349444070713505
1762188000.0 0.06114103608217878 0.3266364037238261 0.08881307680340444 -0.12184228932530153 0.08839637397215085 -0.12164798532686631 0.043332227876757244 0.304317142637342
1762875000.0 0.06309631249837688 0.3265313802720939 0.0861734475228207 -0.12348336023822186 0.08585145069308067 -0.12338184074191849 0.04521330038697316 0.3045734038802273
1763562000.0 0.06485521385564764 0.32633429478834103 0.08339850573926899 -0.12497665479181991 0.08325661940813911 -0.12499243990763458 0.04763053460954995 0.3052657615461942
1764250000.0 0.06687826486879356 0.32578802358909276 0.08077002594324155 -0.12652309335315007 0.08055585023820937 -0.1264633949481966 0.04904973254432541 0.3055296355192844
1764938000.0 0.06826583607170672 0.32552758145537847 0.07822842917150875 -0.12784684490956746 0.07807499445033828 -0.12779163606729613 0.050281380391038626 0.3058272812364565
1765625000.0 0.06997540198818014 0.3251557785333618 0.07547438987320301 -0.12920409428267313 0.07554166404378578 -0.12921542327169724 0.05149585560574881 0.305695980710181
1766312000.0 0.07141936174043677 0.32448001969667206 0.07299392868079649 -0.1302002357477074 0.07297146836672241 -0.13046748429709906 0.05280959049763502 0.30572107549733496
1767000000.0 0.07299756572611149 0.32393120781452833 0.07049979241106946 -0.13150004570362664 0.0704004740977577 -0.13180437456328387 0.0535875232030091 0.3055177365704367
1767688000.0 0.07449989828026944 0.3231116137803726 0.06792411378415375 -0.13256146106611902 0.06794313227237006 -0.13302890086863103 0.054562671198708654 0.30518450246599615
1768375000.0 0.07610413428890413 0.3224006527330285 0.06531006742508458 -0.1337037243645513 0.06548105611256037 -0.13424040529313372 0.0554547400167085 0.30457829963009064
1769062000.0 0.07749804671660115 0.321220179299597 0.06283615005085415 -0.134767202332826 0.06289813468394324 -0.1353897360055047 0.056559189043033344 0.3036032812651397
1769750000.0 0.07906771726299168 0.3204483927151354 0.06039946655309506 -0.13575821438381772 0.060436712076166306 -0.13665408181801733 0.05737345300063647 0.3026199833124993
1770438000.0 0.08055935032843194 0.31940729395983 0.058006713662050846 -0.13679904904833126 0.05798746158484672 -0.13777548107207951 0.05833629092707405 0.30153728542483077
1771125000.0 0.08189200522650932 0.3184359011094231 0.055607843702095705 -0.13772869557743697 0.055496446585785994 -0.13901013493793904 0.05958305306657779 0.30038041663730436
1771812000.0 0.08364228329817425 0.31738055292721523 0.053184957262152624 -0.13896580044169476 0.05290248231784668 -0.14010033955296716 0.060806765703249985 0.2988544817540676
1772500000.0 0.08510366394963838 0.31632446141503257 0.050608001164653346 -0.13985369870331668 0.050346030070535466 -0.14130651491789012 0.06208648901040268 0.2973652384434278
1773188000.0 0.08698196343817292 0.3152311512696808 0.04824869438278831 -0.14096470254128185 0.047511207509475975 -0.14230778065331295 0.06360335426748732 0.2960825615599244
1773875000.0 0.08858445462280501 0.31438828366960925 0.04572823598781201 -0.1420631040047936 0.044780960856585825 -0.14339988160813202 0.06523795231249432 0.29477819944203804
1774562000.0 0.09033792165734598 0.31311510092140565 0.043041443702975773 -0.14301593364429704 0.041990999336882356 -0.1443039696664282 0.06730347404646496 0.2936468849458136
1775250000.0 0.09218214875956587 0.31228827953927474 0.04052081863406125 -0.14413074799606315 0.0390492677688693 -0.14533007220184704 0.06913618874396207 0.29238879293456244
1775938000.0 0.09419980466443151 0.3112860196659606 0.03769208658023693 -0.14513346586295722 0.03610230343688899 -0.14612650684943448 0.07104513351246448 0.29090043985674635
1776625000.0 0.09619601023321091 0.31018105787427513 0.03477367248285261 -0.1459659468697644 0.03307030730059538 -0.14684957584771938 0.07356752430397659 0.290127678208218
1777312000.0 0.0984622166669574 0.3093119801697173 0.031937414091239597 -0.1470001369931729 0.02996947824923293 -0.147521254867884 0.07555850097099313 0.28922505574296964
1778000000.0 0.10019559116837082 0.308077946817011 0.029029087778007213 -0.14760403235247982 0.026928058776699345 -0.1480601806594186 0.07848057102530508 0.28841047491772
1778688000.0 0.10235232670104492 0.3072546178042592 0.02602199991207359 -0.14832152992133457 0.023985977084915296 -0.14856562936233805 0.08060758906343587 0.28810502667144133
1779375000.0 0.1045470809529348 0.3061772111797918 0.022987087235234092 -0.1490045682186729 0.020909727523309583 -0.14881219715290847 0.08290210238438096 0.28739067069173563
1780062000.0 0.10657589028078956 0.30498372952733144 0.01998597780740143 -0.1494529843975799 0.0179352587595385 -0.14908165895403028 0.08525264055010308 0.287211975389417
1780750000.0 0.10856314194517372 0.30406070943463237 0.016723919395557375 -0.1498182845425968 0.014931498667270861 -0.14922128672152404 0.08783905286989704 0.28708832922875815
1781438000.0 0.110700291524975 0.30308124553759197 0.013580717476186051 -0.15015599163708293 0.011995659093567243 -0.14937494944411084 0.08987162924569093 0.28708501715471957
1782125000.0 0.11269057500104722 0.30232624686103604 0.010463064952659588 -0.15042357082315302 0.00915376294980991 -0.14946819076855797 0.09207431619566658 0.287153711138207
1782812000.0 0.11446269942255503 0.3013433563870929 0.007381617197041186 -0.15055201629362394 0.006255631598165466 -0.1495043063603661 0.09406177292331123 0.28749621649369356
1783500000.0 0.11615107039233692 0.3005663415850979 0.004277265722665744 -0.15051752560935597 0.0034881245761924514 -0.14944899569152648 0.09588207619143059 0.2876855603677972
1784188000.0 0.11796635484459937 0.29978184114535333 0.0010967508109169441 -0.1503915385934227 0.0006858953243859922 -0.14933857923509522 0.0975709412553916 0.28785282566348097
1784875000.0 0.11953389415944332 0.2990921451832744 -0.0018765704494812284 -0.15025679276370407 -0.002113027605836269 -0.1493021018059146 0.09915946458774377 0.28834855582836943
1785562000.0 0.12128308349276036 0.2984377795893532 -0.00488540770582575 -0.15022690106496076 -0.004932435769050879 -0.14922913934468673 0.10063224805011324 0.2886534092777424
1786250000.0 0.12281619463273531 0.297876471758321 -0.007961138014809126 -0.15003716045790919 -0.0077559362038640035 -0.14928074567884442 0.10182948582629525 0.28894474968262274
1786938000.0 0.12437180996531376 0.29729099486603044 -0.01083849316358632 -0.14961331202772848 -0.010572082450399117 -0.1491927132346269 0.10287936794482926 0.2894054624300653
1787625000.0 0.12599613963576917 0.2968050128577532 -0.013824300866772055 -0.14939231371857856 -0.013461847672962136 -0.14894677431443826 0.10391795228956263 0.28960159003150315
1788312000.0 0.1273054456709843 0.2962428233733618 -0.016790505656317126 -0.1488140558986294 -0.016459069909949754 -0.14895905340177937 0.10442953710563097 0.2897345373869326
1789000000.0 0.12889538161340883 0.29574343924451774 -0.019670657117524956 -0.14838466140859147 -0.019414639136573972 -0.14872571308758595 0.10516384183320487 0.28962965390363055
1789688000.0 0.13034347657226972 0.2952292523429069 -0.022527772040964615 -0.14802125643913513 -0.022530595606237384 -0.14834518447632086 0.10596701557531277 0.289544027360903
1790375000.0 0.13157386442069405 0.2947298158214518 -0.025436284100313497 -0.14741518141536375 -0.025528014806237936 -0.14811553884616344 0.10659689630816245 0.2894971042966319
1791062000.0 0.13312037303540214 0.29424025073129784 -0.028364699496811432 -0.1468833072042703 -0.02862190210581962 -0.14766386980908214 0.10726659648190737 0.2890296542924729
1791750000.0 0.1346056791471877 0.2935786143960029 -0.031198043073057513 -0.14631718776634312 -0.03170629331335597 -0.14711680379772232 0.10796864519594719 0.28883859956358154
1792438000.0 0.13587200514057746 0.2930264311122228 -0.034175528693939035 -0.14569857426003713 -0.03477797343742444 -0.14649942134811905 0.10842698108218347 0.28838597628963686
1793125000.0 0.13723500492436053 0.2924327119843454 -0.03705065195098216 -0.1449603017938465 -0.03792095743826208 -0.14581148014666398 0.10925224866126465 0.2877305653554592
1793812000.0 0.13871108728973358 0.2916895561911783 -0.03992753362164156 -0.1441557068121111 -0.040932078671641114 -0.14498959983809157 0.11013327703680086 0.2873167846865993
1794500000.0 0.13988514205067448 0.29066905269925614 -0.042793222538088156 -0.14338641209153472 -0.043864513693274036 -0.1441070425608951 0.11079891342402731 0.2871505392275694
1795188000.0 0.141294204420478 0.2900028673175218 -0.045571666177471035 -0.14256145762244987 -0.046805687297143225 -0.14327170624840585 0.11164175281047553 0.28691343136878766
1795875000.0 0.14234339160304144 0.2891624406890204 -0.04831588657111796 -0.14161019357091395 -0.04978364513581061 -0.14212552451444116 0.11272134905482901 0.28645791407248034
1796562000.0 0.1435461667307383 0.2882981590784325 -0.05111968804634605 -0.14073297182001104 -0.052633914586940354 -0.1409467909175009 0.1135752304148347 0.28607696030837243
1797250000.0 0.1446661373271881 0.28723409538300876 -0.05390008129122885 -0.1396489814741137 -0.05548973779628148 -0.13972068212838343 0.11464925033489153 0.28540773275388537
1797938000.0 0.14579798306053635 0.28628138511644396 -0.0567466487724028 -0.1386866909748639 -0.05819875799380199 -0.13858290795635161 0.11538111905802237 0.28498013801599337
1798625000.0 0.14723553937347258 0.2851839921223882 -0.059408866072882385 -0.137634469032203 -0.060934838159974955 -0.137282590074091 0.11623789009917547 0.2849149742849532
1799312000.0 0.14820128194602497 0.2840939533390431 -0.06215871601491126 -0.13643392804906143 -0.06348823607720912 -0.135871768874323 0.11713982984994636 0.28406054330353
1800000000.0 0.1493998441764299 0.28294144846565206 -0.0649103659726688 -0.13520285613144176 -0.06624655255733597 -0.13455090918032267 0.11818600551031119 0.2840846144817673
