! Created with skrf 1.9.0 (http://scikit-rf.org).
# Hz S RI R 50.0 
!freq ReS11 ImS11 ReS21 ImS21 ReS12 ImS12 ReS22 ImS22
1800000000.0 0.16157140241323267 0.28238646283209323 -0.05749200824487395 -0.1352837578174877 -0.05831941403828476 -0.13498827966897534 0.139092107383698 0.2770667472394385
1801062000.0 0.16327441349664407 0.2807525279088873 -0.061722370054463876 -0.1335617123562926 -0.06230049482756218 -0.13327489944646115 0.14269054802697784 0.27564198791430916
1802125000.0 0.16501328460380488 0.27932963938862887 -0.06576568991840637 -0.13183698118282464 -0.06632782277038779 -0.13140472620717128 0.14575124095945236 0.274876752048246
1803188000.0 0.16659056927138424 0.2780007073460584 -0.0698437549010413 -0.1299540820392597 -0.07021919653134351 -0.12958566323644188 0.14898412165228123 0.27456949212572523
1804250000.0 0.16822469012473285 0.2765048446196773 -0.07387826567399745 -0.1279415293248618 -0.07414952846554543 -0.12762665209177187 0.15155062061647548 0.2744588973850714
1805312000.0 0.17001791685453907 0.2750688066782133 -0.07799392461587584 -0.125817132101147 -0.07806782798782387 -0.12559808863665523 0.15423714813506137 0.2749524208097818
1806375000.0 0.171847449087629 0.27357436277161845 -0.08190536290262874 -0.12351094019648409 -0.08193629906913895 -0.12337270965608542 0.1564596399281529 0.2753852953346317
1807438000.0 0.1736038829307672 0.27206216791739074 -0.08580300653240078 -0.1211771073810367 -0.08575799364292043 -0.12101413765972001 0.15797847198894938 0.27618445477003273
1808500000.0 0.17538067652217365 0.27058547877373273 -0.08946836149850823 -0.11849302584830314 -0.08947265935558561 -0.1184879129807505 0.15893149370964663 0.27647925958212927
1809562000.0 0.1771050286757435 0.26921806619837885 -0.0931012410403031 -0.1158031918463851 -0.09313592133283963 -0.11591346063264678 0.15935347192227384 0.27667539110927775
1810625000.0 0.17898380511778958 0.2677600928218565 -0.09673718955965005 -0.11289548843285857 -0.09678696851043758 -0.11291901923933069 0.16015130314405324 0.27624597058941214
1811688000.0 0.18079939457105976 0.2665153334717204 -0.10017526486057533 -0.10990342954172516 -0.10032203605992072 -0.1100062359599639 0.16001440504301692 0.27538090109300617
1812750000.0 0.18242182353955072 0.2648850098355323 -0.10345308708312587 -0.10665384173298431 -0.10363329446727018 -0.10675836208383628 0.16054798130056117 0.27386384375377437
1813812000.0 0.18411781252402673 0.26359887864260606 -0.10677038257849499 -0.10347167136640384 -0.10696327139227828 -0.1034950276039809 0.1613003106416888 0.2721215323650616
1814875000.0 0.18569970996506413 0.2624734744217246 -0.11000397699107196 -0.10000555022921444 -0.11011999964925527 -0.10009665731473191 0.1624045727398409 0.26992828381626294
1815938000.0 0.18721382018501367 0.2611956411793114 -0.11299461312579936 -0.09652646184031734 -0.1131790370898627 -0.09645074062923234 0.16391145111653513 0.2680818568720563
1817000000.0 0.18884223960137658 0.2599106957838136 -0.11589676485441146 -0.09287617362676633 -0.11614318052511356 -0.09284723352926522 0.16612602880768237 0.2660803588844323
1818062000.0 0.1903376573849046 0.2587225921155871 -0.11861829183550185 -0.08908350471083919 -0.11884672668735921 -0.08914818653419158 0.1684504594213611 0.26433797804414816
1819125000.0 0.1918021538517757 0.2574793568775 -0.12125595531950605 -0.08528417644870928 -0.1214296267834167 -0.08531786929918249 0.17098738211987738 0.26297801204854715
1820188000.0 0.19322574011588883 0.256374266930108 -0.123906937438759 -0.08135392036203075 -0.12393590876219768 -0.0813647420739017 0.1738206566952973 0.26176904107407145
1821250000.0 0.19468590095567528 0.2553393298478822 -0.12632857676600426 -0.07718611274826105 -0.12631555975338737 -0.0773573578094933 0.17674557700074842 0.2610089653828954
1822312000.0 0.19616002499975624 0.2543479133731832 -0.12857779214191728 -0.07314919220510745 -0.12857851016210708 -0.07329945945437089 0.1797221198000374 0.2609864889170284
1823375000.0 0.1976261962535813 0.2535376633386852 -0.13079610363681302 -0.06906134437173551 -0.13081710138243474 -0.06923558193418977 0.18273878528041698 0.2611383314246485
1824438000.0 0.19901735354007088 0.25265259180505073 -0.13282066793832975 -0.06483645098053792 -0.1329074523898561 -0.06517269513063524 0.18578803483055828 0.2616227418964672
1825500000.0 0.20061454509783008 0.2518922879591831 -0.1347542234740883 -0.060691802128251066 -0.13496655597882762 -0.06112391656203807 0.18847166552748423 0.2626366637435184
1826562000.0 0.2021402622336326 0.25107352377804987 -0.13650135405459624 -0.05654863435680947 -0.13693039789946435 -0.05694619429522133 0.1907908975090283 0.26372080150512484
1827625000.0 0.20347131797347726 0.25044331728656705 -0.13826212164196808 -0.05261131176218003 -0.13872496002181672 -0.05280825288135041 0.1928071403622861 0.26509342390720536
1828688000.0 0.2050742224693142 0.2497510217435453 -0.13986393049643214 -0.04834648368142407 -0.14056016032919755 -0.04862844560829389 0.19425797402984704 0.26649794274045185
1829750000.0 0.2063184091654456 0.2490322694890164 -0.14117144634673973 -0.044310208232506566 -0.1421157340990426 -0.044321076063517206 0.1950973510315418 0.2673593982143935
1830812000.0 0.2076976446813255 0.2483202775499056 -0.14255404609508593 -0.04018478636689328 -0.1435464559090873 -0.0399199129262007 0.19564419635831976 0.267841977792279
1831875000.0 0.20897026172233302 0.24756224277538424 -0.14374021955112692 -0.035896570524011545 -0.14470987373539923 -0.035442478498073644 0.1959673245612059 0.2676673491862461
1832938000.0 0.2101624358220736 0.2466206719429151 -0.1448388371415247 -0.03153802552910586 -0.1457816398819258 -0.030790055741256702 0.19636817653376942 0.26682576029431787
1834000000.0 0.21140521966412026 0.24589221987812512 -0.14578805475734977 -0.026781827965435167 -0.14649337570567328 -0.026039664051114752 0.1970964259547405 0.26526324560790426
1835062000.0 0.21248505366008127 0.24494681858064837 -0.14660630798705912 -0.022145975516997787 -0.1469128887029874 -0.021167689512180534 0.1984320349780928 0.26300839276432014
1836125000.0 0.2135978745330002 0.24400278290082014 -0.14712062164834924 -0.01741172019746404 -0.1471459818220299 -0.01639466858843434 0.19991412971213227 0.26060172550707855
1837188000.0 0.21487952393584037 0.2430341844289455 -0.14762486165677735 -0.012495590965233807 -0.14716933344966568 -0.011508394335570077 0.20207208204043683 0.258082841311546
1838250000.0 0.21599830667894787 0.24210621891647127 -0.14781891522179824 -0.007715217505951661 -0.14705949600978607 -0.006816968312551132 0.20445162768093467 0.255678501873595
1839312000.0 0.21717539036183126 0.24123706041477647 -0.14768125467350476 -0.002635191627535316 -0.14671645315910908 -0.0021073201214185434 0.20750546297638578 0.25343936457384925
1840375000.0 0.21867620955823044 0.2403883492001283 -0.14745067401683812 0.002297653637611665 -0.14628315288203542 0.002470950744919506 0.21077955129012277 0.25144105853327603
1841438000.0 0.22012852010521394 0.23961708005348645 -0.1469488033972658 0.007261582997794461 -0.1456746975438719 0.006976059004090422 0.21432759347823693 0.24980278242208703
1842500000.0 0.221780222488124 0.23870264754718482 -0.14614240111385285 0.012117301209876403 -0.14511880125830656 0.011343334578885159 0.21796954172475988 0.24843411914383587
1843562000.0 0.2234668746429175 0.23783198817577278 -0.14512677217545428 0.016877787001236946 -0.14452426585308423 0.01567189087491109 0.22180595484705368 0.24745333445272988
1844625000.0 0.22515857766003644 0.23669251661076296 -0.14394050324638433 0.021586915182098536 -0.14385889224554665 0.020072315701280548 0.22538937625575844 0.2468007563184868
1845688000.0 0.2270392677431793 0.23556783410790222 -0.14271749478492612 0.026128858108171046 -0.14332986068129083 0.024477390824809986 0.2290138581238724 0.24653217493104626
1846750000.0 0.22883198282331813 0.23448071185093852 -0.1414210105582417 0.03049226349323039 -0.14264112471474094 0.029023656974185214 0.23238151709354266 0.2463856084223634
1847812000.0 0.2306125644216407 0.23309789398988331 -0.1401178182672548 0.03473357344418483 -0.1418254629183118 0.033646523532690535 0.23535142707049667 0.2463813566403297
1848875000.0 0.23211620858559742 0.2319223139285043 -0.1388822623068702 0.0387228935673031 -0.1408945495772095 0.03818757669873713 0.237895704349313 0.24627931631637578
1849938000.0 0.23380987810287585 0.230650121468466 -0.1374873305344758 0.04272902771025724 -0.13964204966481053 0.042922219950712166 0.24010374425632797 0.2460442447647184
1851000000.0 0.2354637484238698 0.22962364302569666 -0.1361433332488944 0.046620021449194665 -0.13808541040637898 0.047579616627226165 0.24191421014684278 0.24514599504796278
1852062000.0 0.23722657621000318 0.22823749914137423 -0.13461909632981423 0.05038482390816779 -0.13612436438234896 0.052099227797281746 0.2434869528534552 0.2438003018484079
1853125000.0 0.2389682777445949 0.2274125710986821 -0.13305157721314223 0.054285753580147894 -0.13401435318807076 0.0563793986106486 0.24517510495143 0.24170935110549846
1854188000.0 0.2409812516720988 0.2262731691631244 -0.13128514725309356 0.058207335651739134 -0.13155431967129716 0.06049621204447353 0.24668397854754628 0.2390337950153975
1855250000.0 0.2429716449838446 0.22517852577385036 -0.1294143032821373 0.062004787635436355 -0.1289763225936927 0.06429913119923196 0.24862728998892086 0.23587328223582094
1856312000.0 0.24522239233066728 0.22397927813867918 -0.12712605814051423 0.0659528236722283 -0.12620811877844862 0.06790445590871048 0.250918225914259 0.23242228109602855
1857375000.0 0.24747718517598197 0.22271447192146532 -0.12485014085820645 0.06997796091028863 -0.12348346161349705 0.07133954457944341 0.25348593521261853 0.22877998585882145
1858438000.0 0.24977366114061295 0.2214026581992631 -0.12244243906377672 0.07395979452161963 -0.12086841605556993 0.07461889407192707 0.2565464122352744 0.22514250864012975
1859500000.0 0.2522093377949707 0.21984657975489033 -0.11989772957105828 0.07783342712530558 -0.11817425568235566 0.0777959768211256 0.2600051231917927 0.2217420100600322
1860562000.0 0.2543651784046553 0.2181605967718382 -0.11710986534005743 0.08149355845345868 -0.11559223741473292 0.08094635200584556 0.26349602054268756 0.21860798652987332
1861625000.0 0.2567725151500185 0.21651222542585527 -0.11419402400865822 0.08527718456491923 -0.11307524518688199 0.08415241492117839 0.2674395025381994 0.21573750406048178
1862688000.0 0.25873972589487426 0.21459812493763805 -0.11109112853399006 0.08869742956541748 -0.11040089825961932 0.08739253488717764 0.27128843180518564 0.21323462701379745
1863750000.0 0.2610887681457751 0.21263522217796763 -0.10793861205998796 0.09204484898516221 -0.1076938143512718 0.09077395084028635 0.2752104353964964 0.2110210920170625
1864812000.0 0.26315947160276376 0.21063894603364652 -0.10436066759823137 0.09546172701113376 -0.10488508453504895 0.09414456530409736 0.2792565057933371 0.20916564924385866
1865875000.0 0.2651252922260797 0.20859155056533304 -0.10097135218469264 0.09853092912482603 -0.10187526500982988 0.09753131619261207 0.28315813230533055 0.20766936458553575
1866938000.0 0.2671846373633824 0.20666813957288482 -0.09740159782172529 0.10150465247672452 -0.09864972275114474 0.10091693517078877 0.28660942349284085 0.20648074081578616
1868000000.0 0.2693563456415696 0.2047010790269094 -0.09381091821139773 0.10432467444050691 -0.09525884074519766 0.10419273198335524 0.289831624648604 0.20503863960574983
1869062000.0 0.27153088224132127 0.20264094986205766 -0.09011909643253417 0.10695663745590855 -0.09155390613671098 0.10720129189522606 0.29269428241137835 0.2038476451002776
1870125000.0 0.27379084719710983 0.2004944096938349 -0.0864365956180523 0.10927541712710968 -0.08778794136963347 0.10996860992296326 0.2951597625249529 0.2021602570833585
1871188000.0 0.2762327099437495 0.19838582513225134 -0.08295132940372647 0.11151839091943307 -0.08393962439797609 0.11256628951458916 0.29713431529744944 0.2002399160261791
1872250000.0 0.27861678487592256 0.19613224476493715 -0.07934038404595722 0.113596428437171 -0.07997484504155221 0.11465246499929536 0.29913358501250603 0.1978863284992174
1873312000.0 0.281178352578923 0.1937408649428315 -0.07577526051766337 0.11549199364426549 -0.07610287481891048 0.11654554085049267 0.30038962728345 0.19510367190088415
1874375000.0 0.28359646273049244 0.19120255012926962 -0.07213617223878621 0.11714798351412585 -0.07216450430443293 0.11823988138465082 0.3019377489842957 0.19166145018330172
1875438000.0 0.2860908274838571 0.18856699832278145 -0.06856139349740642 0.11878371457257422 -0.06826806811467792 0.11977626166152348 0.30334202369085644 0.18787525061717858
1876500000.0 0.28858897757762697 0.18585117155735653 -0.06503137531964996 0.12029527657472616 -0.06455987127578604 0.12120301665674926 0.30488073284105854 0.18357892549474386
1877562000.0 0.29088875275154424 0.18302697171184304 -0.06139422038996891 0.12172337661504297 -0.06082224040272235 0.12253840398545796 0.3067080943394926 0.17926464394945063
1878625000.0 0.29314771047695987 0.18016990294018395 -0.05771920573138495 0.12311294666346848 -0.05707869801744584 0.12388884749593455 0.3085405616219702 0.1752990521333386
1879688000.0 0.2950907217138583 0.17729614512436265 -0.05403108829567432 0.12463625365216527 -0.0533004775755516 0.12522426994669872 0.31100454788571297 0.17112233182239148
1880750000.0 0.29729834968877855 0.1744362709757327 -0.050185390492997924 0.12598624241987044 -0.04945461571455066 0.12638952467428757 0.3130825619768638 0.16715296705286548
1881812000.0 0.299229700411649 0.17154010504420547 -0.04629245499085964 0.1274443095787538 -0.045570868962270396 0.12768510704922062 0.31544101432948723 0.16369415289664968
1882875000.0 0.30123334529937706 0.16859327824565373 -0.04227602372080976 0.12872580251317264 -0.04149132349815629 0.12871480796600226 0.3177653446857125 0.1603622955961891
1883938000.0 0.3031653762390073 0.16566551617426975 -0.03823402155337103 0.13001041775257566 -0.037537434080517774 0.12961067160344777 0.3195696396171735 0.15726841335203184
1885000000.0 0.3052612950570905 0.1626152396428972 -0.03412934563612035 0.13090641615759474 -0.03339033478261142 0.13036577634299787 0.32124391199719005 0.15420106236678108
1886062000.0 0.30724251541158276 0.15946640352615665 -0.029761462437172904 0.13167892863009184 -0.029228301008060516 0.13093695829936722 0.3229397643880326 0.15131573322932293
1887125000.0 0.30917813378596576 0.15619256825189715 -0.025344462436657937 0.13221332403232028 -0.0251422239291787 0.13134391622033095 0.3241279980633298 0.14818697797693992
1888188000.0 0.3113023359428111 0.1530437692093529 -0.020964163426426263 0.13253847730484752 -0.021081019550178902 0.13163569983444012 0.32532687412606115 0.14499432332428783
1889250000.0 0.31325217900640373 0.14941468122136065 -0.016537920468798945 0.13266962123645293 -0.017084719968671003 0.13184445164436417 0.3263229849199696 0.14162129525067504
1890312000.0 0.3152024266362834 0.145837030269553 -0.012311960469766717 0.1325430125522885 -0.013152983566887802 0.13189139014453147 0.3270836633745805 0.13792448228657964
1891375000.0 0.3169842688379024 0.14234729190715678 -0.008136785999788489 0.13216356185613265 -0.0092845506043864 0.13183936052025735 0.3276417029992111 0.13407245714926674
1892438000.0 0.3185419631504344 0.13864259883463861 -0.0041702371224926135 0.13166987402584499 -0.005435264520933027 0.13173432955437908 0.3281167089410738 0.13001145867445937
1893500000.0 0.3202707184444817 0.1349533830735732 -0.000330053083433349 0.131074192020696 -0.0016343448170859027 0.13153615030483712 0.3286619849121999 0.12605504841105603
1894562000.0 0.32154378861093214 0.1314400512957028 0.0032853385612544926 0.13031239870938557 0.0021627731204311323 0.13123988760583288 0.3290751637087146 0.1215663343647258
1895625000.0 0.3230466705706259 0.12767798177521905 0.006825668486713426 0.12966083631250472 0.006094911988442978 0.13084576876056223 0.32952812566565437 0.11710626360917328
1896688000.0 0.32429894008109583 0.12414637910986473 0.010270723704586756 0.1288021558876144 0.009941092309859427 0.1303170027116024 0.3301126518342258 0.11255675242159725
1897750000.0 0.32556079062966503 0.12073947213390908 0.013758914366859977 0.12808267104135582 0.013866116980767177 0.12960014641525658 0.33048571603347776 0.10822482040624493
1898812000.0 0.32671751617596845 0.11734642641181113 0.01721409900122098 0.12721984421951257 0.017712841333391884 0.12865567327890542 0.3311006570004817 0.1036088167819088
1899875000.0 0.3279051452097587 0.11383404108089784 0.02067417766897354 0.1263644723177242 0.02159354235495777 0.12757655362186662 0.3315101567864647 0.09942193838460693
1900938000.0 0.32899538196801925 0.11055455119633141 0.024122451118274112 0.12557041451902082 0.025353501651759536 0.12639383858586062 0.3323276878917847 0.09551350028922996
1902000000.0 0.33009761545631155 0.10704870996740178 0.02775357635460338 0.12461156581271553 0.029114638839589643 0.1250466894514773 0.33290173342385065 0.09145793444913766
1903062000.0 0.33117019409518034 0.10389298762388151 0.03131123497415625 0.12361959724636967 0.03261715017882845 0.12360802876730831 0.33327494789065715 0.08793876556680977
1904125000.0 0.3322811900888898 0.1001722204498528 0.03494627828507554 0.12243980715200967 0.03607903197870313 0.12207967498969713 0.33284929391924606 0.08428943945828622
1905188000.0 0.33309437096341754 0.09682431956059702 0.038647482598497915 0.12122357332779399 0.03946864248360252 0.12051687532580414 0.3325422341572718 0.0808583846929829
1906250000.0 0.333750371161093 0.09329368336996569 0.042229512779303924 0.11968964597723679 0.04270340200167833 0.11889158698190277 0.3319882824924672 0.07704509327607711
1907312000.0 0.33432168726800787 0.08986008639613631 0.045758339879462866 0.11811302666440245 0.04587629841880007 0.11730649904708769 0.3307121238112079 0.07311051296527846
1908375000.0 0.33491480819497066 0.08658910168448271 0.04921543500094098 0.11647571690842753 0.049036546627041176 0.11574525586820111 0.32966454022664365 0.06905598443812457
1909438000.0 0.33509971998156424 0.08332705591742136 0.05259300913206071 0.11442200870550455 0.05212087082882756 0.11403673424728487 0.32824993624222726 0.06462458667394125
1910500000.0 0.335202423301322 0.07992465085077785 0.05585473382797405 0.11243566922773446 0.05530132127378461 0.11233223952114443 0.3270048312784825 0.05981333985393407
1911562000.0 0.33536870215539816 0.07667481339831728 0.05900591729722861 0.11033439299541033 0.05838382927188064 0.11049140947031114 0.32580642441138624 0.05485441968437665
1912625000.0 0.3351774531180455 0.07344424835178029 0.06187701922260271 0.10814404333331412 0.0614075788805549 0.10853247325783184 0.32488293908065363 0.0496626999796087
1913688000.0 0.33516177202369957 0.07010145134860286 0.06473431503132297 0.1059639210853608 0.06436257334458154 0.10643063391240233 0.324012011844178 0.044547163418891235
1914750000.0 0.33491873108394843 0.06679573245318987 0.06749509868177904 0.10363711976837542 0.0673699020804303 0.10417435812019919 0.3235291459091455 0.03954630353289273
1915812000.0 0.3345971829660831 0.0635615877954343 0.07020365513643373 0.1012065825473561 0.07016247464465952 0.10183032865894052 0.32308595963656545 0.03477709490751927
1916875000.0 0.3342799656782356 0.06031438098519 0.07277142842171705 0.09872730748386815 0.07296512387647634 0.09934007492546375 0.32291634407287123 0.030290878065853493
1917938000.0 0.3338174842845502 0.057068053583960394 0.0751914658835628 0.09629502350328176 0.07556829127007866 0.09680349165920413 0.3226169548383857 0.025975025510265953
1919000000.0 0.3332759084880393 0.0539161938503398 0.07769132375510981 0.09363729467615417 0.07810527048697219 0.09408186111328258 0.32216526931047235 0.022198682505233158
1920062000.0 0.33262452587052505 0.05058552915523949 0.08011614294206272 0.09103591661692524 0.08056816356783372 0.09134764921299933 0.3219272738204671 0.018404683908321107
1921125000.0 0.33191866749408233 0.047286193238364464 0.08249127716462093 0.08830977647459336 0.08292299381698218 0.0884883427877114 0.32134267016527623 0.01493802104183227
1922188000.0 0.33147469300484167 0.0441220228533045 0.08470309611057612 0.08557293655707778 0.08518168348910075 0.08574633511992286 0.32073717549458247 0.011802666406462811
1923250000.0 0.3306497571652816 0.0410503023088823 0.08691850030748843 0.0827276663446406 0.08737864612304078 0.08288802978393225 0.31983839701777733 0.00892623336426599
1924312000.0 0.329899364035956 0.03788007449228943 0.08894626247185124 0.07989326176426217 0.08946120493304596 0.08003280673669483 0.3185729807251998 0.006263899480789389
1925375000.0 0.32906153811867805 0.03459916852458372 0.09103432321926443 0.07695597708906524 0.09142168532715043 0.07707194550163722 0.31697291260928495 0.003694607342006247
1926438000.0 0.3282871266907943 0.03154080153468804 0.09286147664023142 0.07401856632389821 0.093340936909012 0.0740755856958295 0.3148871714603647 0.0009751853654244388
1927500000.0 0.3275069199315393 0.028366799987528425 0.09457392203481492 0.07111725900760671 0.0950906579133196 0.07110746210517305 0.3124076767671516 -0.0018273051530590938
1928562000.0 0.3266993730128967 0.02535758097747688 0.09621102423540547 0.06818029746198488 0.09672289791031154 0.06810196575410953 0.30998559088535993 -0.005035188463270048
1929625000.0 0.3257123628947704 0.02227994370298095 0.09781743760982692 0.06520882956851379 0.0982392785981081 0.06503839048125289 0.30713382452297633 -0.008581297043663854
1930688000.0 0.3248405977181495 0.019271064300353483 0.09928962425299906 0.06222838007327947 0.09972453439958001 0.06208058727518635 0.3044522096355571 -0.012549068857294364
1931750000.0 0.32379819379977426 0.016244997213395618 0.10075643202855607 0.05921828413558032 0.10112926935675298 0.059031584605074905 0.3021965763667029 -0.016862000155049846
1932812000.0 0.32283655157079244 0.01342979464564062 0.10213644585150358 0.05629103870350061 0.10239377968818443 0.05602860800446528 0.3002997412870185 -0.021225167396581687
1933875000.0 0.3216345327353703 0.010502004028165257 0.10331389643480596 0.05328471064915552 0.10354065712299827 0.0529912765725605 0.2987991944131203 -0.025465564780848684
1934938000.0 0.320663214346368 0.007642004749342971 0.10451644484617773 0.05028737892362413 0.1046448894953403 0.04996644710230866 0.29771454841965134 -0.029610596232320936
1936000000.0 0.3193054221332741 0.004928154347806822 0.10560792466379369 0.047101893535341346 0.10565240919239297 0.04688625291526773 0.29683391432874423 -0.033395747100899216
1937062000.0 0.3180221147164742 0.002107590113672714 0.10664152654386719 0.04384077305248761 0.10669393085769865 0.04380316757766367 0.2962357359481883 -0.03664340377545991
1938125000.0 0.3167319807124105 -0.00062056389731419 0.10745343180212248 0.04055958948185749 0.10749087757906838 0.04049768763799339 0.29559188936362185 -0.039542902293731926
1939188000.0 0.3153579691995294 -0.003472618062048156 0.10837053312077255 0.037269528102112294 0.10829859616218641 0.03720574815882086 0.29480996924583786 -0.04185599148795559
1940250000.0 0.3138972226834161 -0.006100266430816542 0.10888446732623255 0.03388507303706326 0.10900074708192095 0.03386241792102004 0.2939414416215517 -0.04398789322311443
1941312000.0 0.3124324088864102 -0.008749900486384476 0.10950825194181452 0.030511122560176462 0.1095715252737077 0.030415439966277623 0.29274111502201794 -0.04563945908491792
1942375000.0 0.31069130395026195 -0.011571671512477932 0.10973272955852031 0.027132060075078915 0.10988883449174738 0.02699077602623138 0.2911698928702694 -0.047024562524776416
1943438000.0 0.3090294103368049 -0.014236492800253997 0.1100968366788018 0.02370523894233809 0.1102913300029569 0.023620316454909217 0.28944835423280296 -0.04816145316180158
1944500000.0 0.30736624417548947 -0.016803311894029064 0.11018285407893695 0.020348613046517517 0.11043159833586208 0.02031345628084245 0.28703991962420744 -0.049181979406306274
1945562000.0 0.30539652352378244 -0.019451638447089026 0.11022876601694001 0.01710173521854026 0.11035110130998702 0.017154728843022975 0.28415386274658955 -0.050044786650953396
1946625000.0 0.30341244873287176 -0.022059356427453818 0.11014467457398264 0.013825742770166542 0.11029048157301834 0.014053223428101494 0.280843040941807 -0.05104242245187953
1947688000.0 0.3012824638796855 -0.02454847836420682 0.10997825124303293 0.010762605380046818 0.11017416801111388 0.011047645388843692 0.2771699512774383 -0.052406763666976705
1948750000.0 0.299204330963106 -0.027116791774199626 0.1097074168058762 0.007756530539807496 0.10994565997888694 0.008028840018588945 0.2731760620912749 -0.05408301529404098
1949812000.0 0.29712420297532643 -0.029446459470908508 0.10932150862231299 0.004905687420997447 0.10961923964563745 0.00514620843899283 0.2690081957374912 -0.05625456057584703
1950875000.0 0.29514821607261993 -0.03208623669946795 0.10897891038835988 0.0019109848351617843 0.10935791545468672 0.002230396517230137 0.2651527176541059 -0.059015631217189654
1951938000.0 0.29290797748457753 -0.03443947695858878 0.10855109092648613 -0.0008116328438109032 0.10919963004365935 -0.0006264412872525679 0.2616411509398952 -0.06190611378550001
1953000000.0 0.2907226031379052 -0.036852067226983296 0.10811163682666254 -0.00361388619851218 0.10877262167776157 -0.0035739463217072664 0.2586508214425423 -0.06519993512434813
1954062000.0 0.28893785462093674 -0.03948428677976214 0.10769176517644194 -0.00639009333976961 0.1085132483477961 -0.006540685456004307 0.25618294613810694 -0.06845322604769755
1955125000.0 0.28682857352746743 -0.0418974695989338 0.10711601823870857 -0.009030551824446977 0.10800006580013224 -0.009469512444125196 0.2544626891565467 -0.07165252344005506
1956188000.0 0.28480960839672365 -0.0444592220783468 0.10663897235697362 -0.011796721217822914 0.10737195436808897 -0.012402337416466744 0.252939634008333 -0.07441477022156362
1957250000.0 0.2829545519482832 -0.04709456542700847 0.10589905394144596 -0.014608007189508762 0.10666966835474183 -0.01544428912496695 0.25183276853441117 -0.0766387845946078
1958312000.0 0.28087262085383624 -0.04968435873698385 0.10516445913931176 -0.017480458488951887 0.10567835174461243 -0.018409016212868338 0.25078233279513745 -0.07840766532857517
1959375000.0 0.27877190435734384 -0.052219222333979055 0.10436472534128358 -0.020410413450210427 0.10451865033089867 -0.021346231230731618 0.24965477378514947 -0.07980310519785198
1960438000.0 0.27673260987016807 -0.05465125210590158 0.10350295455985364 -0.023299458569431955 0.1033349333959348 -0.024177670464239295 0.24816761937616683 -0.08085530667477196
1961500000.0 0.2746472628601116 -0.05721454328742662 0.10247687980102467 -0.026108193906522387 0.10199821201601562 -0.02692653974477061 0.24658437940714342 -0.08141308940016008
1962562000.0 0.2725169837009934 -0.05943093375173401 0.10133621019228911 -0.028937914097975314 0.10055922136744261 -0.029516101050553294 0.24445384849245846 -0.08181546156603046
1963625000.0 0.27053991570692976 -0.061683341589253295 0.10013720910996354 -0.03176343061471531 0.09927942558467709 -0.03207623310458538 0.2421223219254759 -0.08180946886064144
1964688000.0 0.2685004185930955 -0.06375537533606158 0.09888935787343504 -0.03460461664127832 0.09793305433949064 -0.03437502948618013 0.23917398166676074 -0.08200831067267957
1965750000.0 0.2665092212479059 -0.06586781008235922 0.09743229599714794 -0.03720427683924352 0.09678677494149197 -0.03667513788064322 0.23572273415970127 -0.08202619524673645
1966812000.0 0.26455079066394954 -0.06790599812313089 0.09587680853684301 -0.039654983484781976 0.0955974783029838 -0.038903913085623784 0.23180032708120193 -0.0821432792789067
1967875000.0 0.2626532153585292 -0.0699823792478281 0.0942982245969193 -0.04209489488489221 0.0943920772874926 -0.04126780082344689 0.22752138623633966 -0.08266933988520539
1968938000.0 0.2607524873826746 -0.07191305720504336 0.09279301953741441 -0.04434377556314666 0.09324505758860863 -0.04349411868139613 0.22324889632068223 -0.08352530117262522
1970000000.0 0.25897338593607044 -0.07382506519904165 0.0911529330806117 -0.04654560229505132 0.09197089347626587 -0.04580846319865484 0.2186454717913884 -0.08518414986936734
1971062000.0 0.2571260889348088 -0.07578527774404033 0.08959416286741759 -0.0486766910667086 0.09066963315292141 -0.04821393908297926 0.21448828075353582 -0.08735916596120681
1972125000.0 0.2552383434677062 -0.07757256659566973 0.08810827406057262 -0.0505145878491066 0.08927426250228856 -0.050611581473222575 0.21072362558703217 -0.08974745722490299
1973188000.0 0.25334892390392616 -0.0793151204851801 0.08642458205174866 -0.05266296328840137 0.08763110751641956 -0.05298254367800415 0.20751240816365638 -0.09264498483544982
1974250000.0 0.2514364262882111 -0.08109477263835814 0.08487211343369008 -0.054470228422134226 0.0858813690819924 -0.05530466100138511 0.20505178460949275 -0.09549069344772147
1975312000.0 0.24940294623538317 -0.08271029599000644 0.08345968086117327 -0.05638269143154193 0.08406907479300076 -0.057470649000600546 0.20334496987099968 -0.0985066045674713
1976375000.0 0.247371851488592 -0.0842178887170256 0.0817620304514903 -0.05833451959067482 0.08210668768275961 -0.059492979365808246 0.20221919992211487 -0.10107947814157939
1977438000.0 0.2453118087229989 -0.08576947428894768 0.0802127567200855 -0.060161261424155094 0.08016366957751686 -0.061460112464025544 0.2014377575671227 -0.10331717245889553
1978500000.0 0.24324315943143388 -0.08699660726588934 0.07848199809933046 -0.062041443660600125 0.07816277952806248 -0.06309763555232015 0.2010335841016761 -0.10471660846450528
1979562000.0 0.24114409470866055 -0.08856899312814627 0.07665721888608602 -0.06380648816232372 0.07611203017887558 -0.06474384130656463 0.20048025953072054 -0.10559301302740345
1980625000.0 0.23912319885367156 -0.08994103107324039 0.07479580198180236 -0.06569987600149105 0.07405993254422912 -0.0662743578742218 0.19995743577997172 -0.10609509933191635
1981688000.0 0.23707155665268992 -0.09121441965133373 0.07280332189360043 -0.06750896673783878 0.07211549373783815 -0.06775368384878652 0.1991164070593471 -0.10606578314192361
1982750000.0 0.23499690836320772 -0.0925958579455489 0.07081908989072502 -0.06921683394647554 0.07017453274797371 -0.06915935463738271 0.19772752023849113 -0.10561694725244085
1983812000.0 0.23302036980393293 -0.09385940246971254 0.06879315193530607 -0.07094557179443979 0.06833719126328677 -0.07060329654378782 0.1961857301362186 -0.1052455654355844
1984875000.0 0.23103803939700668 -0.09515230352514165 0.06662808495151833 -0.07253405435808406 0.06640217839314605 -0.07215803410538307 0.1936338401567759 -0.10472802850578956
1985938000.0 0.22899894933590864 -0.0966110158800548 0.06461989823610174 -0.07412439316597394 0.06455360240980294 -0.07365527822714327 0.19095191050528498 -0.10402931489782571
1987000000.0 0.2268744002117067 -0.0978775012503604 0.0625367009652145 -0.07557928140082713 0.06262690165683513 -0.075195022675172 0.18782867148336388 -0.1034312146845402
1988062000.0 0.2250092994026248 -0.09924817666590434 0.060475479825882084 -0.0770072887496531 0.06077539168836804 -0.07678562299625533 0.18446258290121365 -0.10338072029964812
1989125000.0 0.22296720376983864 -0.10057974672680375 0.05831383924219589 -0.07827823871691451 0.05874528049028221 -0.07833101352588323 0.1808292065741313 -0.10352333980453135
1990188000.0 0.22088472790247718 -0.10183068219469812 0.05618370858797995 -0.07958025792924775 0.05664556342546755 -0.07978612938545689 0.17720882623207548 -0.10391985916901784
1991250000.0 0.2187966991976827 -0.10315908510825363 0.05415185641618112 -0.0808708551707395 0.05445955061052257 -0.08120746139080144 0.1738167736242372 -0.10506545212837376
1992312000.0 0.21676016584269925 -0.10420435792462197 0.05184030532749486 -0.08202586543980954 0.05224862393833913 -0.08249525531783047 0.170635077570461 -0.10622502298532545
1993375000.0 0.21465404216402884 -0.10527009810247388 0.049895389539988344 -0.08310556273398435 0.04993888311155466 -0.08365638694176818 0.16775575591616 -0.10775249856697992
1994438000.0 0.21255532599817523 -0.10625308708927278 0.047611228022924494 -0.08425683874514986 0.04762273471469702 -0.08469242305725222 0.1654836507748068 -0.10938002708429641
1995500000.0 0.2104709183372136 -0.10720790151615174 0.04541531591300754 -0.08526244424950262 0.04526431800029007 -0.08567216644147778 0.1637596534464678 -0.11095633390045861
1996562000.0 0.20847298541900633 -0.1079908121667268 0.043216126945978345 -0.08630488884428829 0.04301894887304378 -0.08652181207290431 0.16241852396891857 -0.11215256152859557
1997625000.0 0.2063764460277893 -0.10900899977630063 0.04094324579985207 -0.08712513983759251 0.040687883451822636 -0.08733607786925432 0.16149994812444957 -0.1132414977971407
1998688000.0 0.2043109749608785 -0.1096448806554854 0.0387320454754894 -0.08794069328652632 0.03851383176115219 -0.08804186270470131 0.1607677081353786 -0.11359126861462199
1999750000.0 0.2023289457317448 -0.11029145128695018 0.036421732957011975 -0.08875991867764431 0.03634013190738588 -0.08874235000710147 0.16006524877258507 -0.11364292820767732
2000812000.0 0.20039576269901338 -0.11096584821546104 0.03420126022785024 -0.08952006862697418 0.03419736830744491 -0.08948090934251174 0.15904366194783545 -0.11321654397515489
2001875000.0 0.1983684371264169 -0.1115649940186758 0.03195779232662173 -0.09013929286918612 0.03199635185030136 -0.0902129187704882 0.15809767029719085 -0.11249622049121731
2002938000.0 0.19640545922139696 -0.11223336016507224 0.029729990972037813 -0.09076957425610035 0.029812535043851545 -0.0908967373935531 0.15665356022479643 -0.11124210747574645
2004000000.0 0.1943710185884194 -0.11266950297328113 0.02740346467416725 -0.09132103188183452 0.027580835322152036 -0.09163634419815465 0.15480631602355144 -0.11000868077321015
2005062000.0 0.19225713170894737 -0.11322031080992767 0.025158326858658354 -0.09185729646953783 0.025458299952844977 -0.09231080553761795 0.15257898025807556 -0.10849375445419066
2006125000.0 0.1901193109681542 -0.11341396791820456 0.023026255760436726 -0.09253804361246226 0.023121929390306516 -0.0929003488367644 0.15007643521052985 -0.10727607659137783
2007188000.0 0.1879953575571798 -0.11364270690180459 0.020839797667538358 -0.09310191424873311 0.020864982335812625 -0.09347671456213488 0.1470369874159625 -0.10619699919448866
2008250000.0 0.18578210305204662 -0.11381296922688591 0.01866636555402238 -0.0935580375595811 0.018497445582617587 -0.09397097328156935 0.14394276976878823 -0.10545107795115133
2009312000.0 0.1834246400436858 -0.11379812041488385 0.016510285659888775 -0.09401765771349885 0.016098303465101712 -0.09428421085250742 0.1406800674510059 -0.10489852226083057
2010375000.0 0.1811124553823129 -0.11389733329641587 0.01417201791076236 -0.09439729401610539 0.013715938763057229 -0.09465810276917787 0.13749263465267475 -0.1045838283487986
2011438000.0 0.17891942236614117 -0.11378109623369469 0.011799899534865087 -0.09470341231274139 0.011402359359526902 -0.09498392945670905 0.134329087186781 -0.10469492385652217
2012500000.0 0.176535780632198 -0.11364642141988243 0.00937551122291673 -0.09498237353866931 0.008983584599569844 -0.09516469545271743 0.1317040211317362 -0.1049473673880823
2013562000.0 0.17418725865337892 -0.11348922742551419 0.007044176537321067 -0.0953625549242277 0.006677918979698119 -0.09528787267051345 0.129155761468177 -0.10542085353628092
2014625000.0 0.171772264297057 -0.11317054821328812 0.004650126529347129 -0.09549729383579739 0.004284214800837413 -0.09542149688371215 0.12716584188265226 -0.10550677228412685
2015688000.0 0.1694041830519231 -0.11292400972118677 0.00225191029223354 -0.09564661333959383 0.0019967524187676417 -0.09551188195202193 0.12551997570944518 -0.10552193918074006
2016750000.0 0.1669983531727598 -0.11265438945725512 -0.00023865832665932054 -0.09575971969993731 -0.0002603946463054321 -0.09561808199393255 0.12400990463524794 -0.10507733370299205
2017812000.0 0.16457648617822976 -0.1123907624621034 -0.002676462773596026 -0.09572930694954912 -0.0026185904168260113 -0.09558719229862983 0.12245250265940359 -0.10429358575776035
2018875000.0 0.16207745443544103 -0.1120861094526075 -0.005067855434719995 -0.09562671525831316 -0.004933401121937671 -0.09552231114801704 0.12091860409827367 -0.10332107423215783
2019938000.0 0.15952904477621987 -0.11163397730396372 -0.007660220904551558 -0.09534693631363578 -0.007316284479543496 -0.09539860362157977 0.1192924977515252 -0.10213094492010452
2021000000.0 0.15708036293113053 -0.11113037204846467 -0.009945819601865764 -0.09515687659921823 -0.00978576011023552 -0.09528902746085803 0.11728072800951012 -0.10059964652808658
2022062000.0 0.15430072952900017 -0.11060004839288251 -0.01239863094312108 -0.09493007326138996 -0.01216318240033223 -0.09505527144179596 0.11507544790506068 -0.09885836382697748
2023125000.0 0.15189692371103794 -0.11005166226485541 -0.014742100176114593 -0.09454335988491355 -0.01461489575847218 -0.0948414570005024 0.11270977970768982 -0.09718705827737632
2024188000.0 0.14937493837373492 -0.10944681903123052 -0.01712826217634017 -0.09424110692816802 -0.01707018105551909 -0.0946021318728161 0.11008070904315617 -0.09561038153270675
2025250000.0 0.14679750327168034 -0.10892320457582516 -0.01948556125446095 -0.09389352964086589 -0.019470250867975096 -0.09432226869211173 0.10740821346566481 -0.09392081848147034
2026312000.0 0.14423960724947307 -0.1081364502507524 -0.02178775963569718 -0.09342299784448631 -0.021938227177446566 -0.09388869682189037 0.1044752879810744 -0.09265084170528672
2027375000.0 0.14172696508954122 -0.1074545931344004 -0.02410879629319842 -0.09298129223889172 -0.024228345867776974 -0.09342438684917796 0.10147560308376008 -0.091264994497048
2028438000.0 0.13936793848266738 -0.10668423196573534 -0.026390892282364676 -0.09256609354340202 -0.02661519459627365 -0.09287904110629837 0.09845452144066567 -0.09030633463178146
2029500000.0 0.13688510081022986 -0.10584211537836814 -0.028637278202196914 -0.09192295547444405 -0.028859513472680363 -0.0922867882487463 0.09545895156402039 -0.08967054148231242
2030562000.0 0.13453032341295573 -0.10498624234150045 -0.030912328967280606 -0.09139272322829642 -0.031208330338082884 -0.0916500352443565 0.09268241840304473 -0.08908698105550922
2031625000.0 0.13218805876299736 -0.10426653056307007 -0.033134575604221825 -0.09066578406891146 -0.03355499617678814 -0.09088602756471742 0.09010989184322075 -0.08896370585894767
2032688000.0 0.12991469190806246 -0.10335051438291279 -0.035430997072700546 -0.09003835721016663 -0.03585771371090358 -0.09016545474918292 0.08822449911766764 -0.08876757758144074
2033750000.0 0.12764423189725135 -0.10251198150242949 -0.03766633349243989 -0.08923655317995208 -0.03809496369015596 -0.0893846705200737 0.08658781034576779 -0.0883939962344817
2034812000.0 0.12553543217609006 -0.10160641868576502 -0.03998318938325708 -0.08851289163426397 -0.04039129673882181 -0.08846886873349409 0.08523171701621321 -0.08782471015859897
2035875000.0 0.12339080716854649 -0.1006427222141735 -0.04227277740009514 -0.08767762302048543 -0.04267377958334895 -0.08753384837733903 0.0841511742980408 -0.08694689265139298
2036938000.0 0.12129102861902866 -0.0997367340864261 -0.044644193709249026 -0.08669469541517003 -0.044948000812056986 -0.0865510373362646 0.08335401863258556 -0.08573446236015439
2038000000.0 0.11919769849895098 -0.09875752065301442 -0.04694356056720602 -0.08574998165847356 -0.047232198918542655 -0.08556672599620943 0.0823996686379312 -0.0839851951493994
2039062000.0 0.11717229337849833 -0.09783726185402566 -0.0492395846485047 -0.08468278031396202 -0.0494631639201684 -0.08452208684947034 0.08130378206263537 -0.08172801473285635
2040125000.0 0.11515708689450126 -0.09678093584834015 -0.05150415649495839 -0.08357153321406507 -0.05172346864749694 -0.08341160226676542 0.07992902767101967 -0.07953558019421607
2041188000.0 0.11309227151057676 -0.0957240268774816 -0.05387776931576684 -0.0824126440227814 -0.053987916963877954 -0.08223165667660211 0.07808882189077224 -0.07694417487061932
2042250000.0 0.11119577671936888 -0.09456774886519538 -0.05621544115098182 -0.0811017903294953 -0.056197290330922155 -0.08101947723594732 0.07586852171724301 -0.07447736080094292
2043312000.0 0.10929731789210301 -0.09350324247707617 -0.05848786381412016 -0.07977104322317594 -0.058401756001575184 -0.07965274212743365 0.07351605838288938 -0.07233861820439562
2044375000.0 0.10743287614982795 -0.09221858497882567 -0.06083036716780832 -0.07820005247952344 -0.06069519923143898 -0.07832701106890609 0.07098743281075204 -0.07033033543917545
2045438000.0 0.10554281011362034 -0.0911389210756505 -0.06303983549937739 -0.07682222454707413 -0.06295597112121311 -0.07695950350901459 0.06833194595511552 -0.0687683357853669
2046500000.0 0.1037300959185986 -0.08985614669430014 -0.06517787497378016 -0.07525784738389286 -0.0650642953954911 -0.07547376243512223 0.06592358481026832 -0.06745153565234983
2047562000.0 0.1019481295820124 -0.08866190798643424 -0.06729524840144961 -0.07366444625458875 -0.06731023272761792 -0.07383383221984625 0.06363911509528675 -0.06651166545914991
2048625000.0 0.10028557948583552 -0.08744777534525174 -0.06939535733750211 -0.07190103041102905 -0.06948274469139021 -0.07215714798114158 0.06174036860068556 -0.06595060075067292
2049688000.0 0.09867944331376702 -0.0862456296072857 -0.0713954619190208 -0.0701409306164025 -0.07149780611170917 -0.07044163215072939 0.05998440956307877 -0.06538673087113293
2050750000.0 0.09709018499559144 -0.08513432918134896 -0.07328748511914765 -0.06837824928056876 -0.07352597750905826 -0.0687059897726213 0.0589441114779002 -0.06496351612668938
2051812000.0 0.095489856749933 -0.08389739271851429 -0.07515806291871502 -0.06656741207659624 -0.07542550845541694 -0.06687756595343612 0.05811622840115304 -0.0647563451443018
2052875000.0 0.09405330116059274 -0.08277829880747671 -0.07702064636036943 -0.06477399368241935 -0.07733621486785242 -0.06496668181405427 0.057858166961041714 -0.06419979685589387
2053938000.0 0.09256904641415059 -0.08164143321444056 -0.07877207071850756 -0.06289153290254977 -0.07917156024734441 -0.0630404816471471 0.058007457410559266 -0.0635281538813862
2055000000.0 0.09114479565892067 -0.08056867295075454 -0.08058907319930485 -0.06095064664022411 -0.08098324629519837 -0.06108725144822107 0.05855862993332215 -0.06242080658954225
2056062000.0 0.08970045371501938 -0.07932051192525179 -0.08229822064556776 -0.058941916458630825 -0.08272473854077506 -0.05896969923678076 0.05934153190839829 -0.06060430228560587
2057125000.0 0.08826508495036303 -0.07826287283923501 -0.08403839795671672 -0.05688743934078914 -0.08445961779277941 -0.056851027376144773 0.06029300008820308 -0.05837215401496208
2058188000.0 0.08696021782733512 -0.07704948278496497 -0.0857799800105577 -0.054818704889325845 -0.0862131731843522 -0.054766772913450674 0.06098927369395643 -0.055568228240583335
2059250000.0 0.08559118933601251 -0.07583094736244379 -0.08750936743208995 -0.052589844641314484 -0.08789792782767969 -0.05248487754854746 0.06144305594529393 -0.0521856300778294
2060312000.0 0.08434925453099432 -0.07471503545445961 -0.08928290902054067 -0.05044824676973957 -0.08954029892736862 -0.050228777801003925 0.06142870917971017 -0.048705451696451324
2061375000.0 0.0830419379506353 -0.07343704011674237 -0.09090601530381996 -0.04801926483959607 -0.09117670595049356 -0.04789127290847099 0.060790799264792555 -0.04501035140185697
2062438000.0 0.08188706304351727 -0.0722163069579172 -0.09244008613145664 -0.0457010189817931 -0.0927357384219844 -0.04541713656693386 0.05995688714412152 -0.041445955926196036
2063500000.0 0.08085150228318358 -0.07091134328784571 -0.09390723712147644 -0.04320467712788008 -0.09426240285357014 -0.04297806498410535 0.058660687826334344 -0.03824483158033314
2064562000.0 0.07984525266724908 -0.06966305548347493 -0.09545048022270428 -0.04074494956744018 -0.0956847180119549 -0.040431140006112885 0.057173819342349365 -0.03551827508779668
2065625000.0 0.07886157945448885 -0.06835816248713909 -0.09690650125141669 -0.03820444026497051 -0.09698648677617805 -0.03794413975270597 0.05556116043216983 -0.03336020576335336
2066688000.0 0.07802241672844006 -0.0671387768049622 -0.09812278683150676 -0.0356404266226514 -0.0982243525922902 -0.03532157420932759 0.05408462402054802 -0.03159914783950964
2067750000.0 0.0771346874713138 -0.0660219592138381 -0.09937575611913359 -0.0329271583827705 -0.09939639624644592 -0.032720305031360954 0.0528618829599963 -0.030364605485972397
2068812000.0 0.07636930048795638 -0.06478983687406166 -0.10048526216530683 -0.03036131533633592 -0.10042832530222874 -0.030068675108790466 0.05213155184794071 -0.02952989523618351
2069875000.0 0.07554876198670941 -0.06352570639961314 -0.10150030188287903 -0.027538421385751022 -0.10134058195227218 -0.02747880117103188 0.051749329754484326 -0.029014963667279174
2070938000.0 0.07487864401717854 -0.06220329069309169 -0.10250145954545248 -0.024819257204104037 -0.10227889228810237 -0.024740720416100686 0.052103675568366786 -0.02864496922412457
2072000000.0 0.07424154598632815 -0.06104420209054159 -0.10324168971861308 -0.021969016132737523 -0.10311514801308747 -0.022009810133924335 0.05288332383955236 -0.028178231715609757
2073062000.0 0.07345914945309732 -0.059755025142441465 -0.10414155835413955 -0.01908161108942229 -0.10390961834122546 -0.019268712225407877 0.054263468959119626 -0.027503235132358153
2074125000.0 0.07288359585286044 -0.05846848635042445 -0.10486443000654273 -0.016178695401360816 -0.10470452182244196 -0.016460293764740334 0.05609543754276382 -0.026479426107690038
2075188000.0 0.07237898978413689 -0.056952213826793 -0.10561985244271113 -0.013260745170528065 -0.10555474943550572 -0.013551507414039021 0.05819081642562416 -0.024988072484786416
2076250000.0 0.07198003547539142 -0.0554044385796137 -0.1059232053892193 -0.010316417580794858 -0.10624237321217868 -0.010699797025701247 0.060505372576972034 -0.022807971743194273
2077312000.0 0.07172687270415683 -0.053835899389267694 -0.106402744542995 -0.007329453532322324 -0.10680580419712961 -0.007666534434123226 0.06266512905244241 -0.02005712510233751
2078375000.0 0.07154604010306852 -0.05226203907508752 -0.10679707980094597 -0.0043663602260086065 -0.10730598628348292 -0.004574474784889932 0.06474138814700695 -0.016722525010583595
2079438000.0 0.07147396289344575 -0.050623671441273305 -0.1070257341427388 -0.001299261909031003 -0.1077742806208226 -0.0013991065241867077 0.06633224260865164 -0.01283626444776963
2080500000.0 0.07155742988061145 -0.04896284949227968 -0.10718616191934101 0.0018258540228475394 -0.10797327060184933 0.0018197802692922766 0.06731127230058755 -0.00883287975747793
2081562000.0 0.07171464945832538 -0.04728163631226099 -0.10724704944863118 0.004882027515940319 -0.10810855626910386 0.0050515202422913115 0.06768550961305697 -0.004980836383474251
2082625000.0 0.07196270690728375 -0.04560178400352434 -0.10738854843197115 0.00793996960277009 -0.10810080732555094 0.00831982540964279 0.06748987484136351 -0.0012566911593047568
2083688000.0 0.07228421579595294 -0.043865195636343626 -0.10752510788914937 0.010904118888093414 -0.1079896458827784 0.011479508527879266 0.06681208413368994 0.0020974729584625545
2084750000.0 0.07262132237843122 -0.042216330839188125 -0.10736485930159312 0.013844099489790191 -0.10768343927682685 0.014570161684314735 0.06577710262595068 0.004689903149134162
2085812000.0 0.07309913461130756 -0.04043228063638991 -0.10728519847433746 0.016882325842009775 -0.10741964437890789 0.01761086718348089 0.06469203162710356 0.00664764404852771
2086875000.0 0.07358391382519971 -0.03854746220039935 -0.10716709824968912 0.019865505153505346 -0.10703988647126517 0.020552883822150307 0.06356564980088095 0.007835478851979619
2087938000.0 0.07400674791659485 -0.03667417218112238 -0.1069556607225025 0.022752556179497303 -0.10660676914706797 0.023461404049642042 0.06293311278265494 0.008247469511392432
2089000000.0 0.07474040270671665 -0.03474907951482662 -0.10658600688432737 0.025763699002075636 -0.1061368105717324 0.026246323447360248 0.06283990015977568 0.008327718803358142
2090062000.0 0.0752162021065588 -0.03272947596195722 -0.10609667875886988 0.028710221958904016 -0.10572187415236789 0.02910827957379684 0.0634705767347292 0.007883297964063223
2091125000.0 0.07605507853881353 -0.030745392420587363 -0.1056280567933086 0.031723430618377506 -0.1051867004963955 0.03194531017695869 0.06433423679693719 0.007205459324892758
2092188000.0 0.07680280574165876 -0.028678761388665736 -0.10499713384881539 0.034830443674375745 -0.10460859889315102 0.034715336140366856 0.06618151146587933 0.0067039262784746815
2093250000.0 0.07779780711005936 -0.02657726102874715 -0.10413337255289917 0.03800650546318972 -0.1040191533533187 0.03762592209878961 0.06834714922430628 0.006244797791453565
2094312000.0 0.07873376842522901 -0.024477488223261595 -0.10330003709537723 0.041087293645850474 -0.10325681921562874 0.04057026751195347 0.07103516571840005 0.006352846868938474
2095375000.0 0.07991491334742776 -0.022455715809363074 -0.1023170796830648 0.04428811970279587 -0.1024659735018709 0.04362565942797327 0.07430347240408028 0.006832577672908312
2096438000.0 0.0809992505852026 -0.020580246106332047 -0.10111755015380915 0.04737259527909574 -0.1014593415502106 0.04675228472840778 0.07730850756887313 0.007730376586552401
2097500000.0 0.08222873768075811 -0.0186666317871975 -0.09984258591457673 0.050209963773038706 -0.10035989230233759 0.04985092429728481 0.08065501688116886 0.00924807430109185
2098562000.0 0.08346661129671289 -0.016890711747215646 -0.098401415362972 0.05320295518296176 -0.09908538395541851 0.05301997588828313 0.08335284404763453 0.011409966551812594
2099625000.0 0.0846360124811728 -0.01515533284265803 -0.09686229715407195 0.055970105702172444 -0.09763242077619541 0.05612200185102745 0.08589035501407613 0.014003524468027008
2100688000.0 0.08589711795394146 -0.013583039307286594 -0.09536842275454413 0.05879521647233606 -0.0959861770191055 0.059216445821771074 0.08780297648580056 0.016722384677117594
2101750000.0 0.08725259356229101 -0.011977880554501396 -0.093620843922858 0.061537753443552466 -0.09417743290237278 0.06214303421172098 0.08903617319168251 0.019528396437682442
2102812000.0 0.08864410397847007 -0.01043360876712869 -0.09191549292024143 0.06431563957932315 -0.09237327694331984 0.06501615227154277 0.08978117700091257 0.021990055288430583
2103875000.0 0.09001890213409745 -0.009031539805471106 -0.09015359159569451 0.06692760628401322 -0.09039065615724097 0.06779381044243443 0.08963569850896116 0.024091276806268706
2104938000.0 0.09147065692196299 -0.007515219406575003 -0.0882777868909964 0.0698052513126433 -0.08839877939039097 0.07046295732371871 0.08940861739934103 0.025810103945658615
2106000000.0 0.09295668702765524 -0.006207665196291162 -0.08639903453698843 0.07237989330673604 -0.08640785820767784 0.0730401359485051 0.08902356489540636 0.026429023216919763
2107062000.0 0.09454191410841248 -0.004918684749570626 -0.08463758231378242 0.07499371790772368 -0.08437789515508858 0.07555746209352887 0.08863111994299322 0.026482053367004994
2108125000.0 0.09623156997293218 -0.0037054812951348936 -0.08265473456432251 0.07771220051165123 -0.08235977265498547 0.07796078723571767 0.08873371925147341 0.025828852425649338
2109188000.0 0.0980646930825021 -0.002551060920610061 -0.0807958029922263 0.08012712901096004 -0.08045948205659992 0.08038907706047632 0.08920922278363631 0.0246446964272071
2110250000.0 0.09987386178421244 -0.0015205925594337305 -0.07885585591004625 0.08256432123289063 -0.07842156445461673 0.08270281212113899 0.09014717834378363 0.023060371020679836
2111312000.0 0.10163803905812957 -0.0006387015468326411 -0.07667186472411691 0.08499313263691581 -0.07637057774603691 0.08506790688892595 0.09203799669902629 0.021164272222561106
2112375000.0 0.10356323254664353 0.0002323478096320867 -0.07455702225839428 0.08729809164031581 -0.07423784447521427 0.08731570951447483 0.09432881271014806 0.01971630549213615
2113438000.0 0.10537583120966586 0.0010002903036336003 -0.0721789289767446 0.08953689808510139 -0.07209291627260506 0.08958238799628641 0.09740979656753015 0.018498675923519153
2114500000.0 0.10709527807340298 0.001588582312937783 -0.06976758501335155 0.09183674585741236 -0.06981416158751233 0.09186186673023884 0.10055041518355458 0.017533948121575202
2115562000.0 0.10895568312293176 0.0021013135931703454 -0.06729867605960883 0.09394894701270375 -0.067366868762444 0.09410016981235803 0.10431121243026037 0.01715779136215993
2116625000.0 0.11047001227146924 0.0026270957265152896 -0.0646712728160479 0.09610113113547633 -0.0648268130892268 0.0962620282075778 0.10803277567890328 0.017153691290862336
2117688000.0 0.11218477960653252 0.0030112616345620343 -0.06192625781655594 0.09819659592948665 -0.06218507692879084 0.09839161408769972 0.1116907445131027 0.017641763731586643
2118750000.0 0.11369930889366554 0.0034380506411842426 -0.05915259156421102 0.10029450328261409 -0.059371558462124094 0.10045399081933794 0.1151790869604511 0.018563938265891974
2119812000.0 0.11513163761510868 0.003724177909525367 -0.056327182069632435 0.10215372719691136 -0.05649768940464154 0.10237057130776288 0.11816025105673213 0.019897093287411915
2120875000.0 0.11669308367694568 0.0039851386762853195 -0.05336621876590583 0.10391328926784278 -0.05351691607231952 0.10427516147923828 0.12063908283304381 0.02140542740188779
2121938000.0 0.11800670887858404 0.004222157487003466 -0.05051242643710477 0.10572096102251972 -0.05053100333972392 0.10594642227184042 0.12270579324709383 0.023015019869042964
2123000000.0 0.11934271985240792 0.004436194963827127 -0.04750265158675277 0.10730720870770828 -0.04750936477102388 0.10762049914440934 0.12409100863185407 0.024418020125050986
2124062000.0 0.12053043359248466 0.004579636151492415 -0.044516951676588236 0.10876459608280754 -0.04440598584299548 0.10917995518613906 0.12493591091096475 0.025366320261496513
2125125000.0 0.1216125523464521 0.004583098245841045 -0.04136870735886496 0.11025778374243882 -0.04122763453198114 0.11053283253358112 0.1254406965977316 0.02611336056795274
2126188000.0 0.12255014811679633 0.004595005307767698 -0.038210567439388894 0.11161670593214135 -0.03805761976923161 0.11195981726472759 0.1257406744711067 0.02610759677174378
2127250000.0 0.12349666057376765 0.00459013747865364 -0.035055755281009494 0.11301225662240803 -0.034976193100819716 0.11325075225225321 0.12597890558196978 0.025363226079170034
2128312000.0 0.12423554110496368 0.0044997647738878755 -0.03170187679910199 0.11425375777549762 -0.03163519578433954 0.11453946705355714 0.12648780807725593 0.024315289360642353
2129375000.0 0.12476289836908533 0.004434364880638625 -0.028412120679771283 0.11548711388972871 -0.02839557029158727 0.11570078069300938 0.12723732448631933 0.02298509810823626
2130438000.0 0.12528700944535695 0.004224015318561045 -0.025149867843405106 0.11652551030239251 -0.02508264665586228 0.11677309395727932 0.128578025227361 0.021212241838116694
2131500000.0 0.12569781470252073 0.003939306730397078 -0.02178451357654656 0.11763242531554323 -0.02168452483623307 0.11777564804537147 0.1302779510959905 0.019463296735992182
2132562000.0 0.12577692296501103 0.003711977633750274 -0.018446540992549103 0.1185297102045713 -0.018286478357176096 0.11862964391979267 0.13243404505511758 0.01788662350762417
2133625000.0 0.12605280891462053 0.0035650090666844076 -0.015083510157224641 0.11920030981655028 -0.014889173690248388 0.1193669952227638 0.1349636941166894 0.016494901670843415
2134688000.0 0.12616881325046478 0.003141870026794874 -0.011557772736985128 0.11990085469475918 -0.011370180795381327 0.1201046685668539 0.13762869023398938 0.015452299656446547
2135750000.0 0.1260987046849399 0.0028574535206606433 -0.008072172509257717 0.12058580474659457 -0.00787588604726287 0.12056905188195069 0.1403756591785683 0.01486187665842313
2136812000.0 0.1259787510648031 0.0026108992857568295 -0.004440444942702812 0.12090005184436953 -0.004354025339110425 0.120979875384927 0.1430481610604141 0.014640651227366767
2137875000.0 0.1258331586403628 0.002275700423503961 -0.0009040592454445715 0.12124067231690022 -0.0008536852221908591 0.12139582485071959 0.14550723467756876 0.014793465282471264
2138938000.0 0.1256085692718624 0.0018820231996934777 0.002794514782860124 0.1214742923400298 0.00274687973364619 0.12174262433702726 0.14771321568741622 0.01514953596412003
2140000000.0 0.1253351238099447 0.0015776311158318878 0.006259941379047239 0.12162737583508546 0.006337644741383743 0.12194309853783468 0.14934224087084644 0.015801324987967498
2141062000.0 0.1250216839984106 0.0014217007520554539 0.009890753582487918 0.12163632230545239 0.009916178457033142 0.12200684649092115 0.1505392982220533 0.016387754455990278
2142125000.0 0.12473488041650026 0.0011373647054133266 0.013576962714899405 0.12157955738506415 0.013625644937018906 0.12197237685368495 0.15112324448980285 0.01685247795390523
2143188000.0 0.12437707551828756 0.0010174446765212019 0.017125236134358752 0.12135959680747606 0.01731960273714849 0.12180603864172279 0.1514024170143595 0.017066655616415786
2144250000.0 0.12416688981366163 0.0009376481196413396 0.020727163556116812 0.12106944687557608 0.021052959743926816 0.12149875222596788 0.15115910329917237 0.016864482279195823
2145312000.0 0.12395744340007996 0.0010297432432956292 0.024390523979594708 0.1207456327248173 0.024788057853548207 0.12101466621245746 0.15084752214946642 0.01626104900161099
2146375000.0 0.1236868499888905 0.0011287001626607651 0.027977651394843542 0.12030933031754956 0.028473544858243386 0.12043992795380012 0.1505139545480716 0.015216352367560653
2147438000.0 0.12363637742273573 0.001290497445373802 0.0316471898255488 0.11969715807729031 0.032335187418832914 0.11981379301310516 0.1502195323648425 0.013700151920032278
2148500000.0 0.12359234301479569 0.0014579674651438188 0.03548505003502592 0.11910685634154508 0.035966099380955574 0.11893144976089931 0.15016830108963666 0.011881720920574981
2149562000.0 0.12345842934957503 0.0016442769691540939 0.03907876270341606 0.11821569795474524 0.03956452447697301 0.11816391322191996 0.1507360582710537 0.009936396833510667
2150625000.0 0.12340925711569743 0.002027270300563418 0.04277588728046548 0.11738649887742954 0.04307696925433348 0.11711147904775458 0.15161499168207188 0.008001364010772356
2151688000.0 0.12344115939307584 0.0023422811776919383 0.04650805243398182 0.11644714639151688 0.046548638248541635 0.11607137322046268 0.15279150802421917 0.006338234971383415
2152750000.0 0.12353829445149989 0.0025687921648966053 0.05026785565488582 0.1152770837494813 0.05016212217755433 0.11486203999193412 0.15436562718496893 0.004933660043529196
2153812000.0 0.12362770444840146 0.0031534827837462857 0.0538554031916349 0.11384999284757988 0.05354189427928368 0.11361486277941515 0.15576597123142066 0.003881034692902399
2154875000.0 0.12358144110653489 0.0036018898997780325 0.057667730408138815 0.1122494907182837 0.05711108395822079 0.1122279772079082 0.1570509454991606 0.00305676674266576
2155938000.0 0.12379466235328752 0.004354397344681416 0.06127366895654118 0.11065176058435985 0.060723998270015844 0.11090719980794399 0.15845758030938295 0.002757912363544607
2157000000.0 0.12391171765779792 0.00502589919970474 0.06475136123487019 0.10878865941395818 0.06431748564163907 0.10925443010635219 0.15950743651244229 0.002538163379697714
2158062000.0 0.12419442883645458 0.005782627922239329 0.06828979666299728 0.10688158420886039 0.06799866808441092 0.10756413873569606 0.16022743379349177 0.002396296149354489
2159125000.0 0.12467742700628527 0.006701273368034502 0.07156281718893874 0.10470581493153835 0.07149847090046281 0.10569981414276866 0.1605695995299381 0.002405039856701219
2160188000.0 0.12523111152537486 0.007564269368235148 0.07485066661449379 0.10255107040592873 0.07512382708644712 0.1035269253393197 0.16038657158109523 0.002356537415823978
2161250000.0 0.12574222488362408 0.008416217114469821 0.07796324645686414 0.10022661498270752 0.07848754384819732 0.10120004039762212 0.15971717285912967 0.0023264839079032177
2162312000.0 0.1265105325312765 0.009296491661200319 0.0809991732698241 0.09789874763222016 0.08180495334367545 0.09870996579663169 0.15883726733105571 0.0019251486136292468
2163375000.0 0.12741203734818335 0.009984096448495919 0.08394437890264436 0.09553187421066099 0.08493884775356443 0.09602797171558435 0.15784412116309435 0.0012054377298614893
2164438000.0 0.1284754942611537 0.010701731371806899 0.0868057113717653 0.09303188878651668 0.08790069618856922 0.09320342735571696 0.15639734785724418 0.00024942300352793605
2165500000.0 0.12941439542286015 0.011380437796276744 0.08954709077700546 0.09046865163569895 0.09065294482126372 0.09024366393707675 0.15492904794733794 -0.0013573601127943615
2166562000.0 0.13049953846884724 0.011809449021969471 0.092291040901162 0.08783189734286583 0.09315241658375033 0.08728660561050172 0.15416356549497323 -0.0031445638696992527
2167625000.0 0.1315610739380953 0.012324723885864662 0.09502999342853281 0.08520772564785623 0.09568319627933568 0.08442337109320576 0.1534446646059493 -0.005374339413459677
2168688000.0 0.13278061270008765 0.012739220635148133 0.09775990402154178 0.08244801216204398 0.09812121465125415 0.08165939921545737 0.1533821552227662 -0.007599133025010333
2169750000.0 0.13399799182250427 0.013188110288664179 0.10033324692250704 0.07962172799264847 0.10035173347091902 0.0788147571040599 0.15379980714720148 -0.009890105420260482
2170812000.0 0.1353723578225197 0.013561290668601612 0.102974507378889 0.07681055845530113 0.10265983458301997 0.07603354409266769 0.15491893583950425 -0.011790194199155404
2171875000.0 0.13678315255598628 0.014055578758936033 0.10557948223480265 0.07371157047020767 0.10505548339648085 0.07321381755144903 0.15647065898277754 -0.013392031759265921
2172938000.0 0.13831030422048518 0.014527753375790226 0.10803132081512376 0.07049100674015268 0.10736521272047021 0.07037438932437064 0.1584436476816151 -0.014276179935750333
2174000000.0 0.14003441825072815 0.014887376971790326 0.11059424893053718 0.06715423873518754 0.10974451496554972 0.06742966940604066 0.16038546593871206 -0.01486095491541805
2175062000.0 0.14184260045343378 0.015320612753433667 0.11287026662731761 0.06374765999489765 0.11225092364794365 0.06426669881702302 0.16229588318513594 -0.014843941247110422
2176125000.0 0.14387722561642136 0.015485947597975537 0.11493237788502733 0.060228222372202114 0.11463446969512148 0.060864471026789047 0.1636672062590277 -0.014346585666454541
2177188000.0 0.14597548096679808 0.015725984668226608 0.11702866712332347 0.05639894169309012 0.11693046645070262 0.0572553268127167 0.1649092468101317 -0.013453145829391631
2178250000.0 0.1481878519542246 0.015753469650756163 0.11883469546598321 0.05256506356548834 0.11908430365744639 0.05345232244000739 0.16527663649986626 -0.012716883680660544
2179312000.0 0.15032726505721528 0.015718305816817227 0.12035994059913714 0.04879200571587925 0.12101544624572982 0.049471074971767455 0.16550041600415757 -0.012109445623931661
2180375000.0 0.1525866976324299 0.01559240465387757 0.12174004009131562 0.04495382536692798 0.12267685712572747 0.04548663381298352 0.1650597251402813 -0.011402273063409279
2181438000.0 0.15467653731403902 0.01532528210384716 0.12301283529715006 0.04113456551199901 0.12403490838329088 0.041314617584849014 0.16449130869077425 -0.011175580537358246
2182500000.0 0.15681109710600818 0.015077892030332494 0.12418665613274502 0.037345675118863005 0.125176869747922 0.037228998205959735 0.16338479462728214 -0.011110361200857087
2183562000.0 0.15907095113848735 0.014661471106254216 0.12515442708061805 0.03353129849180363 0.12601509513235576 0.0331503206765016 0.16242299771800658 -0.01175889032563177
2184625000.0 0.16103523782138005 0.014216929205577298 0.12601290913725954 0.029689929447931078 0.12664746336254107 0.029202522882875444 0.16156341560625892 -0.012709583165176548
2185688000.0 0.16311753638305782 0.013914389590130196 0.1268801980939725 0.026036358654783927 0.12717075407379289 0.025512051222082846 0.16097155169544342 -0.013889550751022352
2186750000.0 0.16510917891396093 0.013686806826428198 0.1275534530976528 0.022366851705844983 0.12761406109135295 0.02177946283722453 0.1608041753112849 -0.015211843587781191
2187812000.0 0.16736642422491274 0.013385094999919562 0.12811971239416978 0.018676148268254783 0.12809410486675943 0.018129330361178347 0.16132256061702452 -0.016894802304377933
2188875000.0 0.16948809930168718 0.013195416231522743 0.12867724239857561 0.014902535711911954 0.12852186012035166 0.014626173448772999 0.1623043907774514 -0.018528119919056826
2189938000.0 0.17164509451589519 0.012822858808696712 0.12917314127302587 0.011188797599236213 0.1290782622986686 0.010953930538649669 0.16392041768176163 -0.019589945375770985
2191000000.0 0.1738412531467715 0.012509099010093836 0.12962411114628736 0.007383188557821625 0.12966802605367347 0.00736717132970776 0.16615571691669964 -0.021088614644477234
2192062000.0 0.1762372464872733 0.012045993369516879 0.13005906728264804 0.00352011728631715 0.13015226675437444 0.0034721901251967046 0.1689640690015323 -0.021570199222400933
2193125000.0 0.17849631092972168 0.01164903151355026 0.13035955265995283 -0.0004583402200484927 0.13058399333008708 -0.00037193118075174 0.17187498487529154 -0.02162919667167815
2194188000.0 0.18071760606043621 0.011003898269331288 0.1304732782277109 -0.004298943163224034 0.13080248479570664 -0.004414688321816024 0.17501393591778053 -0.021032241198822178
2195250000.0 0.1830107778165888 0.010422462137426754 0.13057507540291857 -0.008447073406476251 0.13091351562097772 -0.008503902221543019 0.17784957599275694 -0.019916864583123525
2196312000.0 0.18502291004275317 0.009772263586511837 0.13056189117608968 -0.012554032768386923 0.13089636645620464 -0.012823836703448482 0.18007505351200173 -0.01825182865974806
2197375000.0 0.1869894148811194 0.009039509146478964 0.13036224469432417 -0.016673927515815905 0.13061003815303127 -0.017010264361455613 0.18177719047995644 -0.016265942774766944
2198438000.0 0.18902818845893832 0.008498109311331579 0.12999495152401055 -0.020770425935680296 0.1300851474403237 -0.02125907487513278 0.1827878521566529 -0.014241373044090852
2199500000.0 0.1908666053700157 0.007865227933671087 0.1293463965723316 -0.02489723077163871 0.12934591004967802 -0.02540884722096939 0.18321777982036327 -0.012543204059574627
2200562000.0 0.19263424346287517 0.007552081975085487 0.12855547897605774 -0.028995553337443938 0.12851316457902023 -0.029400013411375544 0.1830371923878543 -0.011068540032646162
2201625000.0 0.194325518471966 0.0073130131014178985 0.1276176275134849 -0.03300720426401303 0.12738958392142102 -0.033334488636642984 0.18256187398961563 -0.010141910062412562
2202688000.0 0.19621938929824229 0.007019586529586254 0.12657637580245104 -0.03688153457570423 0.12627632084816015 -0.0370230382229875 0.18169725479960908 -0.009790191315453743
2203750000.0 0.19808257491790238 0.006738923857121773 0.12536242423111366 -0.040889335795272465 0.1251996099922989 -0.04078183091555154 0.1810341103709525 -0.010054703155052058
2204812000.0 0.19981715955145773 0.006595363757703542 0.12393226500068075 -0.04475998064754339 0.12385871884482436 -0.04438156092532921 0.1806436607245008 -0.010796234583844554
2205875000.0 0.2016110438249887 0.0062723973184656895 0.12243899878752204 -0.04841018811988263 0.12256748678911605 -0.0479166696577643 0.18047313018191244 -0.01209407338437128
2206938000.0 0.2035269907948715 0.00604534237352437 0.12095865545795875 -0.05205461574899223 0.12129746804579832 -0.051558421353084444 0.18090531542668012 -0.013653428770946647
2208000000.0 0.2053749201765058 0.005715495776176377 0.11923427665053919 -0.05572089526158017 0.11984707864265613 -0.055240336863911194 0.1819681593398683 -0.015376222412433301
2209062000.0 0.2072554205141108 0.00525810887567216 0.11736051646461637 -0.05906826154043721 0.11830810954168507 -0.058898499527044484 0.18369649452989986 -0.017335204129606673
2210125000.0 0.20901900652889385 0.004855485224599198 0.11568726059153187 -0.06252638632975645 0.11659517652355006 -0.06261054061981322 0.1862213221252394 -0.018990252010277608
2211188000.0 0.21083053487371642 0.004455670406060193 0.11386150980152784 -0.06593019352147714 0.11478502826127182 -0.06636866117825559 0.18932680616149128 -0.020329371439372048
2212250000.0 0.2125194959230852 0.003937126105560705 0.11169826886089541 -0.06927452576401333 0.11257590045027524 -0.07005036682599627 0.1926825001253173 -0.021131931588334422
2213312000.0 0.21410932568480615 0.003353882586694329 0.10983381671841785 -0.07255539422922776 0.11031930842103166 -0.07367885666938388 0.19636428776133896 -0.021383817925175186
2214375000.0 0.21585095736775284 0.002949771831474952 0.10751579374645767 -0.07594614091394176 0.10786099656929912 -0.07702992927148138 0.1996645721991977 -0.021086861705537783
2215438000.0 0.2175298690045229 0.002526025659939325 0.10534445089355404 -0.07920592607739589 0.10524036475977092 -0.0804583072303782 0.2028220619426541 -0.02029087485533534
2216500000.0 0.2192527263204933 0.002115790699216304 0.1029144789565989 -0.08261518219132648 0.10265478876406176 -0.08364160500268138 0.20539664210949324 -0.01906197458124728
2217562000.0 0.221087817924977 0.0017387091892571613 0.10048173229523272 -0.08590447586863859 0.09990488115560842 -0.08668798261487624 0.20708766595578526 -0.01761246311957851
2218625000.0 0.22275736874585425 0.0013191959762653496 0.09793306801246414 -0.08906341215151757 0.09713668889508928 -0.08952940602803279 0.208092128863395 -0.016456056134075595
2219688000.0 0.2248864979317968 0.0007684829573652579 0.09516819869330334 -0.09237573421200164 0.09444902269457427 -0.09236866224022013 0.20849784714086114 -0.015609913277923411
2220750000.0 0.22682401030645702 8.224829009060927e-05 0.092398441213763 -0.09538036377223218 0.09166415983081128 -0.0952170675717534 0.2082897409183395 -0.015098212770280253
2221812000.0 0.22896822823697416 -0.00046131830613762524 0.08959148304296803 -0.09830904319838271 0.08891404867354724 -0.09783284415393662 0.2077892197649367 -0.015231620033124137
2222875000.0 0.23108063176522473 -0.0011533103825836371 0.0864064582180808 -0.10112162347055717 0.08615688837759318 -0.1005308773551112 0.2071663460536189 -0.01612250108902273
2223938000.0 0.23347840766364447 -0.0020707157467436885 0.08315419907734016 -0.10373840229927345 0.08318893217846178 -0.10327914166081743 0.2065624084785934 -0.017478357135758713
2225000000.0 0.2357209315084002 -0.003032587737901626 0.07984305949816684 -0.10626827378212417 0.08019095621997016 -0.10591050335030343 0.20643668165668183 -0.01966240151002728
2226062000.0 0.23792237205249567 -0.003982728335352817 0.07634895224003284 -0.10872878560136176 0.07699932787656108 -0.10852324876952942 0.20667018850912183 -0.022527559099534918
2227125000.0 0.24027430287984258 -0.005152733569464723 0.07297096347723116 -0.11099417389997607 0.07372794355392848 -0.11100881818359627 0.20767375130703447 -0.025781390531635067
2228188000.0 0.24248368455596314 -0.006188283442908475 0.0694502248204297 -0.11314587183198882 0.0702968014086202 -0.11343312149801872 0.2090924657433817 -0.02886175455934207
2229250000.0 0.24473605765673886 -0.007274931813179194 0.0658524281206785 -0.11523307340907993 0.06657966220053096 -0.11567295675758184 0.21123141783151692 -0.03239514482539434
2230312000.0 0.24695250194053686 -0.008633592239363675 0.0621876925475298 -0.11709361463082602 0.06279034961666204 -0.11774829215557284 0.2142572494077509 -0.0357729083035778
2231375000.0 0.24917997607298256 -0.009721154221827122 0.05869608483607328 -0.11885183584680029 0.05896999632746984 -0.11960038517258144 0.21763393971616152 -0.03866538380289497
2232438000.0 0.25154667337111736 -0.011105029240298568 0.05494135693835169 -0.12050236152158492 0.05499451208379796 -0.12130687892553185 0.22160202577459368 -0.04125080544732242
2233500000.0 0.253794014962037 -0.012540805691632313 0.051283532079657704 -0.12197712129169208 0.0509913244794145 -0.12272985357253909 0.2256497535480878 -0.043087439526560294
2234562000.0 0.25595368113464934 -0.014115122698972178 0.04740400770710408 -0.12328903804932714 0.04708048629527516 -0.12394305655398984 0.2294044807817012 -0.04430953658776137
2235625000.0 0.25818197375456736 -0.01561492928945894 0.04357433929302036 -0.12456442887134428 0.04310436735472112 -0.12510878050711888 0.23282875440119755 -0.04504146017737865
2236688000.0 0.26041807083967494 -0.01752792494155986 0.03972473158365522 -0.12576616605465296 0.0391958798668329 -0.12619300082849394 0.23604541875497764 -0.04541261537065361
2237750000.0 0.26255757076527925 -0.019452149560733784 0.03563273046886597 -0.12689896510197274 0.035174712089339075 -0.1271411947810333 0.23794121755743952 -0.045422460214518345
2238812000.0 0.264651113014419 -0.021538104662597687 0.031584612740588845 -0.1277865944218059 0.031195831378297994 -0.12794741584327352 0.23931050319517247 -0.04565205829269536
2239875000.0 0.2666848466801566 -0.023733782885314136 0.027570201686075792 -0.1286601290586299 0.027318961515998757 -0.12865051872146535 0.23983094731805013 -0.046153257268279735
2240938000.0 0.26862335937197956 -0.026092455416872908 0.0235489937947598 -0.12943088233947309 0.0233945774371436 -0.1293462719082037 0.23981354364762472 -0.04738726666636309
2242000000.0 0.27047113048649124 -0.028655332397888596 0.01939254171801968 -0.12980005662859004 0.019325456734712077 -0.1299932565339173 0.2391450526305943 -0.04898938895732204
2243062000.0 0.27224078490144504 -0.03128438331929958 0.015261281519847463 -0.13037094702426125 0.015321291095776275 -0.13031155783368317 0.23884373149370075 -0.05138339009601442
2244125000.0 0.2741268510919436 -0.03389510075711871 0.011361025490469015 -0.1307997697024029 0.01126833625507042 -0.13069226438716205 0.23838540666828617 -0.05454717969540735
2245188000.0 0.27580527762574514 -0.036852617674556984 0.007145356880078999 -0.1308921350348009 0.007191132932064951 -0.1309144869055486 0.23823714037450916 -0.05841742058706697
2246250000.0 0.27735080068062234 -0.0400909623594864 0.0031381675273757367 -0.1309148653736111 0.003155297598842316 -0.1310295254786343 0.23878504045386978 -0.062474841299181266
2247312000.0 0.2789102893200745 -0.04302986161878194 -0.0008415515186518833 -0.1308144834506954 -0.0009479456257502891 -0.13085030796113817 0.23977898016770957 -0.06680395747112446
2248375000.0 0.2804189243473407 -0.0466009579630996 -0.005006409880142278 -0.13052354590288967 -0.00507683549287686 -0.1307345084941813 0.24123794446535612 -0.07110558770299989
2249438000.0 0.2817560193753969 -0.04977444373655716 -0.00910361907541698 -0.13008342383244345 -0.009128885665235844 -0.13048347460903886 0.24340652881680033 -0.07539966697955759
2250500000.0 0.28314413058911536 -0.053342250351342047 -0.013132252551671907 -0.1298925512355596 -0.013191858262350583 -0.13008760292431143 0.2460182068410409 -0.07934016795611697
2251562000.0 0.2844679076719631 -0.056943274035342 -0.01725475270955823 -0.12921113095761036 -0.01730191841907194 -0.12952763572580836 0.2487129746739153 -0.08310918229715931
2252625000.0 0.2857859604662941 -0.060543773135318245 -0.02116571358661571 -0.1285371962036798 -0.021295629852076076 -0.12888611466709693 0.2519710164452558 -0.08640463977506299
2253688000.0 0.28698192175246795 -0.06433541527427665 -0.025068560956406083 -0.12775326323369093 -0.02529351826850237 -0.12802446559934585 0.2550759203773424 -0.08871613858277226
2254750000.0 0.288066049467108 -0.0681719862087416 -0.02909313183569571 -0.126754388363258 -0.029323986314180258 -0.1270463972922379 0.25833070083019705 -0.09088640681152411
2255812000.0 0.28920289987656395 -0.07194457738922344 -0.032833877383064994 -0.1257804608852335 -0.03313613423750853 -0.12584554013803156 0.2611956768192853 -0.09245128946683977
2256875000.0 0.2901442874110915 -0.07599719310960394 -0.036686229924912765 -0.12438961159044068 -0.0370180911413614 -0.12460688442528137 0.2633780691806836 -0.09333754151320973
2257938000.0 0.2911853717640212 -0.08007367095548723 -0.04038025767428968 -0.12315818778953487 -0.04075915209115124 -0.12309856010203435 0.2649967485329566 -0.09430345324609894
2259000000.0 0.2921065846815833 -0.08412775432605527 -0.044221826072874656 -0.12150388076482527 -0.04444503184664558 -0.12152018652789977 0.2659298527507675 -0.09532024078427956
2260062000.0 0.292804700116635 -0.08826569611511054 -0.04791168675648182 -0.11986671115142489 -0.0479664145115501 -0.11976147816596674 0.2662678253729802 -0.09644003333136743
2261125000.0 0.2935494266175351 -0.09240778500328763 -0.05144696934297128 -0.11806658559991508 -0.05150107988854598 -0.11797415827908483 0.26579029877428556 -0.09799498237613473
2262188000.0 0.2940870019955725 -0.09658318359863187 -0.05500255730526639 -0.11615797547875713 -0.05492077141569656 -0.11607662075572416 0.26510670059889185 -0.10004617665036532
2263250000.0 0.2944195024454449 -0.10068023373571877 -0.0583634027321252 -0.1140607723276965 -0.05811299048342592 -0.11413085125584288 0.264185001658969 -0.10283844875024194
2264312000.0 0.2948519381092684 -0.10497622012066092 -0.06161260833374131 -0.11200318583432786 -0.061407157458579484 -0.11222545940722593 0.2632132525098687 -0.10607060193627219
2265375000.0 0.2950543292475175 -0.10861014740170595 -0.06477782968353564 -0.109722626072012 -0.06457492478849416 -0.1101653248995019 0.2625064135832317 -0.10979376778653781
2266438000.0 0.29514887687909874 -0.11271980222127033 -0.06777030331455448 -0.10752903343586552 -0.06768104653272537 -0.10810765071597132 0.26214835260241265 -0.11381765395814661
2267500000.0 0.29517575889547304 -0.11655281574792138 -0.07071582186817632 -0.1051829930107457 -0.07072562129747123 -0.10589304091195612 0.2620402313617079 -0.11795865346735436
2268562000.0 0.29524990250632543 -0.12048036318203155 -0.07348081638050348 -0.10274319853523459 -0.07387206932016194 -0.10357600285243025 0.2623133299231085 -0.12220022319631049
2269625000.0 0.29507990297292325 -0.12443797190200866 -0.07640383587111979 -0.10055661614951372 -0.07697360450338095 -0.10108173286828914 0.26291957597361004 -0.1260716002073708
2270688000.0 0.2949674782437736 -0.1282327236463797 -0.07922680800371294 -0.09804814819946478 -0.07998256912176495 -0.09850073865712576 0.26380992465815506 -0.12969704202926804
2271750000.0 0.2947089625024301 -0.13200925446939057 -0.0819126763975438 -0.09557005072740854 -0.08287451274583932 -0.09585858292890553 0.2649232836498513 -0.132998819356188
2272812000.0 0.2943340034086597 -0.1358393403510824 -0.08455285585320564 -0.09313256065532063 -0.0856436152533425 -0.09300414225031313 0.2660307421239525 -0.13575206345338572
2273875000.0 0.2939613086065963 -0.13960741381737107 -0.0873256083968554 -0.09059587114675743 -0.08827306383624463 -0.0901904795342222 0.26716005368244566 -0.13805050835068952
2274938000.0 0.29337440201565873 -0.14330823807870613 -0.08992340730645519 -0.08795395532192277 -0.09068689059156954 -0.08727507948204448 0.2678975615134608 -0.1400525336165723
2276000000.0 0.2929016101885541 -0.1469427400305111 -0.0923873473828039 -0.08524668003103393 -0.09294337935477323 -0.08438265530147124 0.26807489525135747 -0.14160929044033585
2277062000.0 0.29217470337200807 -0.15050103880621937 -0.09488964851696134 -0.08237036702701983 -0.09506448858739681 -0.08145443706411185 0.2678868747908821 -0.1430904632716993
2278125000.0 0.29134570903141516 -0.15407714271185985 -0.0974318145947994 -0.07936654215593322 -0.0971026432664366 -0.07853514754589315 0.2670455774829017 -0.14459042438773265
2279188000.0 0.2904576962929157 -0.1575341161397186 -0.09958024571018136 -0.07612622417362166 -0.09902521948718909 -0.07560847261711025 0.26553222041702534 -0.14635049789847937
2280250000.0 0.28957687477627986 -0.16090644712490754 -0.10172907207549602 -0.07300671512988485 -0.10106537485180803 -0.07280087740371262 0.2637018006621485 -0.1484167731399582
2281312000.0 0.288563480530924 -0.16403139147231668 -0.10366167803386378 -0.06976254761610859 -0.10292586326884326 -0.06984336675150402 0.26171102316356537 -0.15107843211533714
2282375000.0 0.28771338274340735 -0.16719725268790847 -0.10556721879839225 -0.0663048793016417 -0.10478042327032235 -0.06699469046469254 0.25964104987764464 -0.1542166681301349
2283438000.0 0.2867681678348472 -0.17018190475511574 -0.10712508711203118 -0.06301407777528988 -0.1066296039353902 -0.06388989075258766 0.2578253463422024 -0.15775283986500901
2284500000.0 0.2859325662872946 -0.173267824412486 -0.10868526345399754 -0.05954266533067717 -0.10846723323070143 -0.060668172404324566 0.25620671969598324 -0.16176989349029003
2285562000.0 0.28512109358481186 -0.1762959254757776 -0.1099390773951523 -0.0561586278662864 -0.11022564111691197 -0.057383375843180366 0.25485750383339867 -0.16579675631038895
2286625000.0 0.28431424812274475 -0.17915067168971982 -0.11117672324511951 -0.052767989139805155 -0.11184982119085407 -0.053975856390644276 0.2537549665422809 -0.1698706370977703
2287688000.0 0.28351246287146203 -0.18207575772967288 -0.11213057971838573 -0.0495933042325758 -0.11327547782123144 -0.05038587628101302 0.25311829337875513 -0.17396428292699515
2288750000.0 0.2827734261317416 -0.18476653065519955 -0.11304274045540963 -0.04630822637880429 -0.1144031551288352 -0.04671929757570231 0.2526273419811539 -0.17769094626062462
2289812000.0 0.2820865762294243 -0.18750556353928352 -0.11397441669340723 -0.04305189824364111 -0.11550607433773308 -0.04306792974814645 0.25260068520892454 -0.18132327899419165
2290875000.0 0.2811915812573375 -0.1901786335652386 -0.1149562469441334 -0.0398250475944333 -0.11631395011767928 -0.03949188322218559 0.252516979515299 -0.18452059667636128
2291938000.0 0.2802555637747884 -0.192630531471577 -0.11581182034466937 -0.03657409294148755 -0.11696789376284851 -0.03595682420070246 0.2526263938456178 -0.18728298123824075
2293000000.0 0.2795049865296297 -0.19503966993923477 -0.11669223936222939 -0.033497905457749 -0.117683105967161 -0.03253157818829901 0.2526841348005238 -0.1897414826081753
2294062000.0 0.27866429121890496 -0.19736402159137115 -0.11766015962825296 -0.030280623190279857 -0.11814558453631442 -0.02918849817532266 0.25242911902217774 -0.19161567399374513
2295125000.0 0.2776607576484335 -0.19965922978639683 -0.11854908340237562 -0.027076902556406206 -0.11859599821464123 -0.02598656976537425 0.2520165292798218 -0.1933319103523234
2296188000.0 0.27683672492242084 -0.2017900076184659 -0.11939171500256249 -0.023850107050608953 -0.11913093088686505 -0.022902634743171457 0.25106839266170056 -0.19473074342585195
2297250000.0 0.2760274727762329 -0.20384672558469027 -0.12011373826006586 -0.02042579332082401 -0.11961644619363715 -0.019823539603178807 0.249511887586682 -0.19619912144275253
2298312000.0 0.27523394774500526 -0.2057294692268282 -0.12086615264606052 -0.017034169384374555 -0.12019232679160993 -0.016675693199713546 0.2478426663267526 -0.19779162165043146
2299375000.0 0.27433178793765023 -0.20780770655319944 -0.12125246390689372 -0.01354970121478343 -0.12070736144240955 -0.0134592204136155 0.24560589325186252 -0.1994764560464463
2300438000.0 0.27378937081830534 -0.20960260389398477 -0.12161962573651049 -0.009847277533537119 -0.12118626075097089 -0.010076454634987474 0.24308363962195778 -0.20197610447364944
2301500000.0 0.2730558171584315 -0.21162476188676496 -0.1217539770666129 -0.006198874924230732 -0.12159652403278128 -0.006587495150027631 0.24041902535865356 -0.2048035334073836
2302562000.0 0.2724679572073169 -0.21347768188417865 -0.12171586047252561 -0.0024803936775623934 -0.1218661830813213 -0.002983761346144569 0.23806112706215646 -0.20834555085421994
2303625000.0 0.2716777328703152 -0.21526748465012663 -0.12168985393543785 0.001220337773220284 -0.12191890845052432 0.0007418767511106093 0.23635363917055827 -0.21205645590001654
2304688000.0 0.2711470007109776 -0.21736209096065606 -0.12139341230612202 0.004914013928065201 -0.12183416951758863 0.004503237235953728 0.23471918199458763 -0.21607552955237255
2305750000.0 0.27040233143889153 -0.21907686666786758 -0.1209812784233194 0.008460243662841779 -0.12148163664545274 0.008282128612117171 0.23365959648375495 -0.22011623487333373
2306812000.0 0.26964120151791177 -0.22110152332333444 -0.12046245144568805 0.012107140086030957 -0.12086805044913317 0.012109177146428089 0.23332946646309669 -0.2237152864579363
2307875000.0 0.2689131433113487 -0.22274667072631388 -0.11967739740792836 0.015408940128492091 -0.12014950973814886 0.015556277546556679 0.2333486523732286 -0.22715452408643336
2308938000.0 0.2679012362143549 -0.22464470828856525 -0.11891408573119376 0.01894914228309116 -0.11926931600666604 0.019129462884089083 0.2334586577265744 -0.23007020038416282
2310000000.0 0.26741377588940357 -0.22655026267785053 -0.11806455885130847 0.022263442504828382 -0.11835860478559335 0.022528769894026315 0.2337650520287291 -0.23232070078536698
2311062000.0 0.26643549480738643 -0.22812062552951973 -0.11718838352774442 0.025661919708868806 -0.11736672673162277 0.025852910242461037 0.23402595489084366 -0.23419177319620904
2312125000.0 0.2655885034685731 -0.22992876063092596 -0.11614557376404454 0.028905407063158528 -0.11636579295988372 0.029035956046088114 0.23418998638470664 -0.2355834246897567
2313188000.0 0.26486513276395685 -0.23163727596047023 -0.11518395068901059 0.032065029826182014 -0.11535779777577607 0.03234589088099254 0.23384898449054373 -0.23630762720141665
2314250000.0 0.26398203916344765 -0.23337993202563315 -0.11416047487741485 0.03534928388825295 -0.11443694470262708 0.035444792784829385 0.23325830783823776 -0.23718350993494472
2315312000.0 0.2631992665910465 -0.2350963707710442 -0.11319222405960415 0.038401679088326514 -0.113456930079915 0.03855617458951427 0.2324036067798785 -0.2377186214906562
2316375000.0 0.2624556746871112 -0.2366403110876004 -0.11215787187998572 0.04162977794785381 -0.11252635675889198 0.041735790890389174 0.23096039762407394 -0.23818949613701612
2317438000.0 0.2616757050495745 -0.23841711861925569 -0.11098074569540806 0.04475904055262893 -0.11149621525114162 0.04495110201907253 0.22918509118744343 -0.23867436707267145
2318500000.0 0.26098790170821556 -0.24018454406605358 -0.109837587770945 0.04783960518558138 -0.11031156908564797 0.0481484262959611 0.22691936309932395 -0.2395292527406257
2319562000.0 0.2600104271002958 -0.24217635119050399 -0.1085441819583535 0.05099767022372273 -0.10887593776060679 0.051456547527116335 0.2241530654911962 -0.24080506292797246
2320625000.0 0.25899439292150744 -0.2438815525017384 -0.10712735991871278 0.05405794965188045 -0.10741596810782872 0.05455526194722269 0.22130264485244128 -0.2426715452881354
2321688000.0 0.257931001880958 -0.24574133150778146 -0.10567051348420171 0.05709911335596379 -0.10574703765238608 0.05773399386161667 0.21875721432789197 -0.24508316018616652
2322750000.0 0.2569127879608152 -0.24759677912211633 -0.1039732643885877 0.05999721869462446 -0.10382244707182249 0.06077007020152271 0.21641197736046802 -0.2481040859883215
2323812000.0 0.25574784212255686 -0.2496170140055232 -0.10220997097106808 0.06302108939050012 -0.10193210072114472 0.06376531378215318 0.21439108431705267 -0.25137335907829
2324875000.0 0.2543786430922055 -0.2515954063765641 -0.10036092412150278 0.06607767273575355 -0.09987482328843232 0.06653221662823872 0.2131794716088408 -0.2548400786541971
2325938000.0 0.25301776183218383 -0.2532893454055582 -0.09826568712001428 0.06893871845648468 -0.09773807327327479 0.06918630930895282 0.21240523714476867 -0.2579040044763272
2327000000.0 0.25156994067903393 -0.2553069567977589 -0.09594294676485099 0.07187189549222954 -0.09562394300506963 0.07185758796549876 0.21222250387184385 -0.2607767610102732
2328062000.0 0.25023869658146425 -0.2571951848761522 -0.09365663421217958 0.0744860362760573 -0.09340476433903035 0.07442964639975216 0.21211740793984415 -0.2630688986185384
2329125000.0 0.24876519521262985 -0.25926863264957944 -0.09129138634373489 0.07728793067652232 -0.0911771941117784 0.0768778821666304 0.2120696819659143 -0.26504813559869855
2330188000.0 0.24737559130133277 -0.2613238956341494 -0.08887230142048444 0.07988294058634164 -0.08892788947289688 0.0794674566139108 0.21228571328302642 -0.26632662686518427
2331250000.0 0.24610999704099432 -0.2633344432530187 -0.08632272053160579 0.08246157051632247 -0.08656494784705428 0.08199542259339021 0.21218219693155702 -0.2672118750305966
2332312000.0 0.24467859537008427 -0.26546324533305 -0.08383890787042739 0.08480041086597782 -0.08414215298551352 0.08456352597239411 0.2116859181617908 -0.2677632586111117
2333375000.0 0.24330739922445177 -0.26763887138971354 -0.08118306009105683 0.0872295327999604 -0.08157242515245702 0.0870575178841766 0.21107043008339985 -0.2680182364569202
2334438000.0 0.24183751261123299 -0.26987033599336274 -0.07855053286983159 0.08956270663132246 -0.07901856719645334 0.08954065775471551 0.20987366938249927 -0.26795161144248647
2335500000.0 0.24044221793195367 -0.2721689982939074 -0.07587200068147548 0.09175368949984462 -0.0763990809341855 0.09203336312176048 0.20818988645472766 -0.2680189529543363
2336562000.0 0.23898653916677756 -0.2743101010259073 -0.07312461340221756 0.0938728138360947 -0.07365763768969012 0.09438078281327872 0.20608047798909795 -0.2678979083816197
2337625000.0 0.23742594675595485 -0.2767075792766703 -0.07027874344980374 0.09607256030565732 -0.07086335441642626 0.09655424756633363 0.20315045464172368 -0.26804011072885775
2338688000.0 0.2359356121421944 -0.2788606740234686 -0.06755310740731366 0.0980632050730949 -0.06798322644093809 0.0987043749626843 0.19972279477747407 -0.26908367004919004
2339750000.0 0.23438058394456268 -0.2809222550299858 -0.06478332055922967 0.09995368606398458 -0.06506355061452712 0.10067079705203011 0.19639329465272282 -0.27048293885598707
2340812000.0 0.23280290347355886 -0.2832632315644047 -0.061864132367695994 0.10182013321374123 -0.062008644886259574 0.10250381313164302 0.19284888245365395 -0.2728944639232204
2341875000.0 0.2312590021835236 -0.2855560054716985 -0.05899777200711369 0.10372049153772961 -0.0590431455611946 0.10417954198863102 0.18940044141987045 -0.2760884103111465
2342938000.0 0.22957908293711815 -0.2876958698300449 -0.05610642695980286 0.1052857544059049 -0.05598900267919462 0.10585242055207808 0.1865642457823993 -0.27985735119601113
2344000000.0 0.22809500599728505 -0.28987638969881635 -0.053159784347790506 0.10685711552579956 -0.052955774672465206 0.1073525395805287 0.18494365102096658 -0.28382613285982883
2345062000.0 0.22637205616535816 -0.2920336280402035 -0.0500798680242359 0.1083557028374912 -0.04977299600346633 0.10865477875617646 0.18386208221647132 -0.28804993315473715
2346125000.0 0.22479215897069707 -0.29406366995397965 -0.046994447366812644 0.10960328993367902 -0.046661030753006046 0.10993695645064526 0.1834679756541064 -0.29198611890733633
2347188000.0 0.22289292777150904 -0.2963550018201541 -0.04381717626767778 0.11075784564042898 -0.04346593657478991 0.111160735893419 0.183587281538274 -0.29562282464151585
2348250000.0 0.22127852815003765 -0.2985085348953164 -0.04058150776709887 0.11193447615217052 -0.04021838995321876 0.11235306351307867 0.18429932755895095 -0.29880055537283656
2349312000.0 0.2194039856824033 -0.30062343227027727 -0.03722173908487104 0.1128441060121624 -0.036794632563390314 0.11313960223140847 0.18471598015504662 -0.3007638007378274
2350375000.0 0.2175678055512475 -0.30279208542030767 -0.033828313312547625 0.11382308777536206 -0.03347280190965389 0.11402816056341665 0.18486515637094067 -0.3024945239381911
2351438000.0 0.21568777175100406 -0.30498549363039534 -0.0303527761462229 0.1146364998699061 -0.03004096766940977 0.11476135000872525 0.18508862754422747 -0.3031783692860072
2352500000.0 0.21352335664377006 -0.30741249193212866 -0.026794490365653404 0.11546736668852546 -0.026567862559863695 0.11540449555669217 0.1841378262342101 -0.30391509815734297
2353562000.0 0.21143815576389888 -0.30974731071752654 -0.023200357054606695 0.11624539060921275 -0.023056912153025872 0.11606044248463858 0.18301627725928515 -0.30467623542040045
2354625000.0 0.20934477684496222 -0.311934650646882 -0.019621499932175223 0.11675108478292415 -0.01965913811118522 0.11659200906994835 0.18110261085735302 -0.3048863001644849
2355688000.0 0.20710055779092304 -0.314250180468507 -0.016070427636233703 0.1174042691240711 -0.016142266803736004 0.11704130728343064 0.17890935421322748 -0.30531054254466167
2356750000.0 0.20482452152608166 -0.31648684270278793 -0.012341359552153814 0.11767778715616274 -0.012566959803127444 0.11743301910119433 0.1756679741213313 -0.3061735897637926
2357812000.0 0.20257543779591625 -0.31893310889975796 -0.008742477229677052 0.1179840348685235 -0.009018868937109837 0.11779529360250812 0.17254501148421744 -0.30719218063049497
2358875000.0 0.20023325927553645 -0.3215331488215093 -0.005026553446372088 0.11821141767237141 -0.005374402816459727 0.1180526689460183 0.1687833185407644 -0.30841509973965703
2359938000.0 0.19785012116284953 -0.32391328409969006 -0.0012904582902694113 0.1179986585464098 -0.0016637852675833202 0.11814956049581449 0.1647776984405102 -0.3105206202027802
2361000000.0 0.19560394716013674 -0.326311259094708 0.002483778484498763 0.11785953890505393 0.001986425768621891 0.11818437041279448 0.1609070373262707 -0.3136824844971201
2362062000.0 0.19322681388574928 -0.32879192119626643 0.006096943420944227 0.1174561451649545 0.005805462318249004 0.11814073153019401 0.15726141229242244 -0.3171761584626774
2363125000.0 0.191007116403112 -0.33145142129127747 0.00964120609027239 0.11717367034589095 0.00936141681674148 0.11783756257734684 0.1539925124161278 -0.32150896635423154
2364188000.0 0.1888044651391084 -0.3338964112269592 0.013155636931541922 0.11666595904378377 0.01307747125003832 0.11733873413184612 0.15214009653144106 -0.32686077304827393
2365250000.0 0.18653332216409899 -0.33644451688511007 0.016573503675871914 0.11598131234650874 0.01671165730092446 0.11671636186242472 0.15063587735174344 -0.3318940492757795
2366312000.0 0.1844791971295871 -0.33883568206591674 0.01998563170551763 0.11518469284902771 0.020205993230403573 0.11594868511214754 0.15021842187022674 -0.3374573807560906
2367375000.0 0.18235467071044723 -0.3414781203984118 0.02321586629490142 0.1144448708069857 0.023583076904251186 0.11514463686428261 0.15092386571345295 -0.34231822567498577
2368438000.0 0.180424425248116 -0.34412297072515763 0.026267289775525657 0.11366645105590387 0.02679354110454708 0.11409609672676115 0.15218443941618026 -0.3465732190133699
2369500000.0 0.17841754390543094 -0.3465569976570546 0.029315551041336048 0.11275919722879317 0.029947568951784034 0.11292999072206725 0.15341190110201317 -0.3501318408027803
2370562000.0 0.17631577876662466 -0.3493085850658178 0.032348805989408994 0.11168711799797336 0.032986154145870035 0.1118318087858138 0.1547272784986914 -0.3525444722388452
2371625000.0 0.17428389298996289 -0.35174132783688633 0.035270579148835655 0.11060624194484163 0.035938031644981765 0.11069937785065419 0.15570203798400908 -0.35407560779697483
2372688000.0 0.17226311612154005 -0.354324410445846 0.03833020634452588 0.10962105370830759 0.03897280996914935 0.10935523687158717 0.15543041428804455 -0.3553014774319942
2373750000.0 0.17011338336854503 -0.35671452385598557 0.041375966688740655 0.10832667121796453 0.041796585985751485 0.10816461816856558 0.15451971521023267 -0.35551496855827386
2374812000.0 0.16812065839171544 -0.35904828671403816 0.04447626461773128 0.10720864242872206 0.04481760362129027 0.10692862452456912 0.15315228877830905 -0.3558895180027988
2375875000.0 0.1659249953121573 -0.36135378903250864 0.04771121086044273 0.1057250970157777 0.04790761863191987 0.10565031897268999 0.15086440090046513 -0.3565563629962504
2376938000.0 0.16372527313549948 -0.3635124022160853 0.05076986986798667 0.1042858189228643 0.05093727627998859 0.10405573198860771 0.1478807215714545 -0.35720941771739423
2378000000.0 0.16147842870156714 -0.36554276421000803 0.05390126367977469 0.10268324992354073 0.05405308885856947 0.1024561558927507 0.14477033699145853 -0.3580843449001058
2379062000.0 0.15940032071969437 -0.36769672562446654 0.057164855027176296 0.10091054631657498 0.05716556641144699 0.10068468976503141 0.1409643662805708 -0.3594576374090698
2380125000.0 0.15710526197657332 -0.36951996827701017 0.060217812794743884 0.09883407444476272 0.06021754106807439 0.09860454623550094 0.13696100563497354 -0.3609778439172536
2381188000.0 0.15477825862364356 -0.3716273178403518 0.06322156811966904 0.09675342454907714 0.0631499656205511 0.09647222930719074 0.1330815012069169 -0.3632417841752262
2382250000.0 0.15262951934319066 -0.37337711900644693 0.06610094095454758 0.0943164473322011 0.06599631049159868 0.09412017118831234 0.12932858097137753 -0.36582934543626855
2383312000.0 0.1503418960024842 -0.3752744607638223 0.06892748526350902 0.09173730012017843 0.06869073076608956 0.09166303605300093 0.12549374039968395 -0.36891474151119424
2384375000.0 0.14804206173559806 -0.3771558641659135 0.07146322031887258 0.08921241881179112 0.07118233032577496 0.08916095060754013 0.12260545853775678 -0.37229362230746965
2385438000.0 0.1457463872941461 -0.379147062326704 0.07395854117244342 0.08663592013689957 0.07355778659810283 0.08676245654868099 0.11997271989320249 -0.37604964808038804
2386500000.0 0.14312506869845215 -0.3809440364132603 0.0761595107996136 0.0839226832899181 0.07581334109055989 0.08434338244818017 0.11790516579207262 -0.3798226029986296
2387562000.0 0.14067374066304575 -0.382853937465565 0.07828492278274393 0.08148538691035336 0.077826896232621 0.08199708735583494 0.11658165883399647 -0.3833450044044909
2388625000.0 0.13806273772833474 -0.38471943895936933 0.08028997791383913 0.07907497855690145 0.0800047910800547 0.07978439103620495 0.1158681413167584 -0.38661695518185346
2389688000.0 0.13534224249008586 -0.38662460543387767 0.08213960710740999 0.07663261248347825 0.08204201718863875 0.07756604285227563 0.11506714571344231 -0.3890868439840275
2390750000.0 0.1326890240482649 -0.3886372779114292 0.08390906555460911 0.07420870634170564 0.0842259563084712 0.07528875695444573 0.1144701929859613 -0.3909116095263584
2391812000.0 0.12998966217289953 -0.3905058676183938 0.08566671166046018 0.07194091997848097 0.08632797094928853 0.07299858237714447 0.11339903144417625 -0.3918038056361279
2392875000.0 0.12711875277623 -0.3922576382250706 0.08732193035728189 0.0696605452082184 0.08837949116435763 0.07050895294463183 0.11172659229600435 -0.3924613904557413
2393938000.0 0.12446935499668006 -0.39400462637049544 0.08916723231956408 0.06737863026761279 0.09047908678875947 0.0678442665650759 0.10945436526694807 -0.39256750299380944
2395000000.0 0.1218176144683984 -0.39584021314984674 0.09094252877554705 0.06488056452381526 0.09248931019749937 0.06504985429187475 0.10656368445358007 -0.3928182026210919
2396062000.0 0.11913433723314792 -0.39762013754553455 0.09271305768651186 0.062434916705985714 0.0943482261385559 0.06219832917981233 0.10287101327623635 -0.3930320914946833
2397125000.0 0.11660828411507611 -0.39927604647801423 0.09453549656424433 0.05993163760374004 0.09590241978068896 0.059156672800766606 0.09892061039325055 -0.3932480110529798
2398188000.0 0.11406495141352521 -0.401245590396754 0.09625406124457699 0.057288843375274734 0.0973020587445747 0.05611863058586326 0.09448755848801758 -0.39380070101023673
2399250000.0 0.11138068972774583 -0.4029724784395193 0.09779187406085328 0.054445156072068235 0.09849008322353221 0.05307509744458201 0.09010103787985042 -0.39451342763103947
2400312000.0 0.10866837552086253 -0.404742831169396 0.0993166333035479 0.05160924482622085 0.0994618097348293 0.050052894114480606 0.08547896281417064 -0.39555980336230767
2401375000.0 0.105949256594536 -0.40640486388685326 0.1007162867903357 0.048540973405279145 0.1001360011296246 0.04717019220047787 0.08104343296028496 -0.3968628470813429
2402438000.0 0.10316128177429118 -0.4082260671178799 0.10184027314702458 0.04538487628096074 0.10093848030035127 0.04435498651210304 0.07629658520886694 -0.3984767917477521
2403500000.0 0.10053238759276298 -0.40968375495116127 0.10289007669766176 0.042094133202524975 0.10173070249924543 0.041600315961919744 0.07217117754803021 -0.4004515719577664
2404562000.0 0.09752837874845326 -0.41111801644406476 0.10394962751477038 0.038966443856819605 0.10253161223090977 0.03900830114941744 0.06817226104526436 -0.40260588166909095
2405625000.0 0.09452130037880999 -0.41239500964049874 0.1047453043141484 0.03566751547175019 0.10348400014379901 0.0363608759768177 0.06462808127711983 -0.4047591628284868
2406688000.0 0.09143741379947459 -0.4136279251139076 0.10565393535672636 0.03237453765433379 0.1045371920581409 0.033667121658446784 0.06169058519268089 -0.40721418122219455
2407750000.0 0.08845550208973801 -0.4145686766030431 0.10615949027867612 0.02943366911515998 0.1056949836303437 0.030794172002147943 0.05912485553092979 -0.40959895017351844
2408812000.0 0.08534152967894705 -0.415581990296629 0.10672143287934999 0.026281111624157784 0.10675624814542073 0.027909948432225426 0.05672922928407995 -0.4112247502877879
2409875000.0 0.08228982126003238 -0.416488189991492 0.1070077278189359 0.023201015061386953 0.10781890698792668 0.02478229148722549 0.05441353650474883 -0.41251612380845853
2410938000.0 0.07909300335436224 -0.41724142475946135 0.10737688269079204 0.020298959717475813 0.10873429163013702 0.021574069845367038 0.05184174467387729 -0.41308928306994097
2412000000.0 0.07598804428429363 -0.4181156685542439 0.10773481931967512 0.01746042366786789 0.10943757969745231 0.01822409865365377 0.048862286280305 -0.41379360850070435
2413062000.0 0.07281290263784936 -0.4188441485968681 0.10801480108904228 0.014658162077759279 0.10989601065393537 0.014782820956300837 0.04593261902300781 -0.41390958012398743
2414125000.0 0.06956453992474704 -0.4194766526969949 0.10816852096929916 0.011824361239749875 0.11001354419920746 0.011379233142776614 0.041899548602701724 -0.413668688775551
2415188000.0 0.06625486657730542 -0.4202002780777559 0.10857363280650655 0.009092878959064502 0.1099741624479423 0.008088074193399531 0.03754169949250776 -0.41371404232543485
2416250000.0 0.062851038615799 -0.4205649455558848 0.10861887897626697 0.0061739307283732465 0.10969325975504095 0.0048538461649500425 0.032930769731697764 -0.4136781199877489
2417312000.0 0.05919933300208271 -0.4212711382969816 0.10880346958642824 0.003279616590008399 0.1093643882293391 0.0017069344671601478 0.027856565716743012 -0.414051562609599
2418375000.0 0.055675172484476815 -0.4219006499051095 0.10888416505345169 0.00045422219444258633 0.10884621290982195 -0.0010944902908912842 0.022995061524881066 -0.41466880470022033
2419438000.0 0.05206118431763896 -0.4223846254015736 0.10889707536861692 -0.0025284902634529777 0.10840856271710446 -0.003834296642237371 0.018423804979241853 -0.4154931706997948
2420500000.0 0.048279208113765675 -0.4228590158133068 0.10869970760019702 -0.005465394950374995 0.10785901007415703 -0.006421277461868014 0.013932192181378306 -0.41659420149689935
2421562000.0 0.04473957107077022 -0.42307972437283703 0.10858325067960141 -0.008320986669572908 0.10744590844775813 -0.008947158306447205 0.010025838834042141 -0.41766031484847027
2422625000.0 0.041061541531570336 -0.4233179715048995 0.10813352047821716 -0.011570723358833725 0.10700747008932339 -0.011500855582108284 0.006284859088746308 -0.41830331599910364
2423688000.0 0.037294993611581784 -0.42371536746705624 0.10755967115807699 -0.01450221261983216 0.10667552253241915 -0.014299785989741872 0.002853386081141311 -0.41920502886925454
2424750000.0 0.03383903432888449 -0.4239320795667218 0.10706592011313826 -0.01758951045454031 0.10638866549901752 -0.017022636042757455 -0.00021431262299682465 -0.419953178446245
2425812000.0 0.030238466179505926 -0.4241181109198016 0.10635907140501623 -0.02084942275370419 0.10592426493556574 -0.020102748836681797 -0.0030177846774802437 -0.42032924913184166
2426875000.0 0.026546064413980407 -0.4242218406592001 0.10539442393556774 -0.024084459343865286 0.10549625094106424 -0.02319253561804369 -0.005849411429321129 -0.42096902348898085
2427938000.0 0.022908906172438487 -0.4242056181092046 0.10450908030718137 -0.027078247620965636 0.1049407346961999 -0.026380028048542194 -0.008762248814215116 -0.4208838668481732
2429000000.0 0.01945540028285079 -0.4243288334375129 0.10359547731269575 -0.030264682230871514 0.10419086158444839 -0.02965281387781984 -0.011426191732136458 -0.42099822595695774
2430062000.0 0.015759457283778908 -0.4242224821047535 0.10256913712101026 -0.0332874897845883 0.10333892451402255 -0.032933165394005655 -0.014294177091873807 -0.4205955369858677
2431125000.0 0.012038437782254531 -0.42408337845810257 0.10151389834757367 -0.03626966182526222 0.10228587559572665 -0.03613420724335881 -0.01720484756894512 -0.4198643526563401
2432188000.0 0.008334251720255459 -0.4240140011380485 0.10023426278633008 -0.039124950937206686 0.101024892686262 -0.039236422601477014 -0.02067463770640039 -0.41919441585907563
2433250000.0 0.004811237864889197 -0.4235346942973577 0.0991033794993583 -0.04179357830519044 0.09967477660117706 -0.04219117667196875 -0.024244216562636964 -0.4181718032644257
2434312000.0 0.0009541425990343238 -0.4233694866877378 0.09789191203374747 -0.0445546862688436 0.09823807880640646 -0.04497090985893487 -0.028306779868892223 -0.4173910125478127
2435375000.0 -0.0024897371708598828 -0.4228895372401257 0.09657988628059366 -0.0471237304710397 0.09680229852138132 -0.0476438646453502 -0.03259501359189099 -0.4165965935010155
2436438000.0 -0.006274818495034057 -0.4223894855174484 0.09521158116054093 -0.049618194451189035 0.09533195109948271 -0.050144771308973164 -0.03739596314927241 -0.416183306379742
2437500000.0 -0.009911183546765609 -0.42163924066419406 0.09385258334132875 -0.052152814772032145 0.09379907558978745 -0.05253404810974036 -0.042333648712256276 -0.41610644121869617
2438562000.0 -0.013370453189679225 -0.4210659346038085 0.09232454158637658 -0.05463167761111165 0.09226108248824827 -0.054869310502647387 -0.04667474150686628 -0.416147389803381
2439625000.0 -0.0168653189878561 -0.42040467896315536 0.09086257143516945 -0.05719228097383024 0.09072373831523313 -0.05730119281314561 -0.05102314300431975 -0.4171678122569824
2440688000.0 -0.020458358613822523 -0.4196989198216645 0.08919877919599682 -0.05954062541898987 0.08923039744148918 -0.05967526535511678 -0.05494769887236384 -0.41804580071793646
2441750000.0 -0.023937932744731473 -0.41905124796776216 0.08760954671909714 -0.062011951371358794 0.0875858082475409 -0.061990796404329584 -0.05825969351316778 -0.41906155354621094
2442812000.0 -0.02735879862188814 -0.4184745191028132 0.08577971131660957 -0.06442950909491077 0.08587751375472774 -0.06434863685231806 -0.06068878949551784 -0.42000197443712495
2443875000.0 -0.030754968290486694 -0.4179598477987563 0.083929180013639 -0.06671783614134819 0.08403408608269396 -0.06665655975940693 -0.06292658707534077 -0.4207249481270658
2444938000.0 -0.034204237091282494 -0.4173529975567471 0.08200549516670917 -0.0690686603287564 0.08203002278192288 -0.06902602947813206 -0.06456675731703482 -0.4207200845331713
2446000000.0 -0.03766343285154813 -0.4168727061846691 0.07982165194118844 -0.07136764493401833 0.07982936978709423 -0.07133387085980127 -0.06608237972238702 -0.42021913269556205
2447062000.0 -0.04112875564615664 -0.4163429916496557 0.07749771374653452 -0.07358115224987692 0.07759662628289143 -0.07358283649429055 -0.06768567867418361 -0.4192278029969226
2448125000.0 -0.04453748795780383 -0.41582727641237716 0.0752315629541694 -0.07577613130652015 0.0751471799082627 -0.07585926315184252 -0.06928907034474767 -0.41746881240881206
2449188000.0 -0.0478477056382807 -0.4153154092201199 0.07273607170454205 -0.07795713815159878 0.07279970988773886 -0.0780169225589265 -0.07143402297192876 -0.41563832177445237
2450250000.0 -0.05112592386273798 -0.41486790050318895 0.07010434398518398 -0.08005249406183093 0.07039556647526544 -0.08015181608504826 -0.07395361565035322 -0.4132099744835407
2451312000.0 -0.05431876833676614 -0.4144123247717063 0.06766622510768794 -0.08216204733270885 0.06797537706095054 -0.08214784353984059 -0.07688515740369582 -0.4104393790211553
2452375000.0 -0.057338616069379456 -0.41385325613904494 0.06516451345223284 -0.0840169487599989 0.06553321169130848 -0.08415794360846955 -0.08026407378646214 -0.4081341231636562
2453438000.0 -0.06024923176431207 -0.41335488553955385 0.06258987739333582 -0.08595282318728908 0.06299755352847693 -0.08599084751916829 -0.08422163385070562 -0.4056811683600828
2454500000.0 -0.06299665592568167 -0.4129021143331449 0.06012564856470488 -0.08760752261044291 0.06048147748865121 -0.08783256470712147 -0.08819423743959524 -0.4033837134424119
2455562000.0 -0.06585440162394691 -0.41236901224037115 0.057579867447739706 -0.08933549316585172 0.05795701995513716 -0.08953911572330424 -0.0927122352909495 -0.4015368691380204
2456625000.0 -0.06859064726362567 -0.41189809181485487 0.05514582856574093 -0.09094130690782419 0.05535356404507223 -0.09117379380141469 -0.0972919761461291 -0.4000389303140079
2457688000.0 -0.07151455866615226 -0.4113087637739245 0.05252483311801325 -0.09231950854181878 0.05264004194357652 -0.09268891343565214 -0.10187353054973312 -0.39907309696533233
2458750000.0 -0.07418028564785042 -0.4105620562299525 0.050016529263768525 -0.09370993582611177 0.04996407333724239 -0.09408967634631162 -0.10625266398339071 -0.39867150326450346
2459812000.0 -0.07686749699242576 -0.41019646791601383 0.04734927854532753 -0.09508046516502856 0.04726424704821067 -0.09553008146477839 -0.11041435107707241 -0.39868354725819216
2460875000.0 -0.07962012017617921 -0.40934658490493026 0.04479505163495643 -0.09636198910422031 0.044540571461724875 -0.09679811458222898 -0.11412666750319875 -0.3990221538969704
2461938000.0 -0.08234276100276872 -0.40848629475722686 0.042010948741509464 -0.0977200502149501 0.04179177116942515 -0.09799577189092101 -0.11732330148454988 -0.39956866753235754
2463000000.0 -0.08484989259352961 -0.4077354232033796 0.03917526827956181 -0.09892211010968555 0.03906424797179549 -0.09896521341932829 -0.11971492164741662 -0.4000358661282063
2464062000.0 -0.08746326982786745 -0.4067854776453827 0.03639609568146653 -0.09989804924649548 0.036306647769790965 -0.09996349572791476 -0.12184049579254048 -0.4006894241497306
2465125000.0 -0.09011218603320789 -0.4059764838587516 0.03342896828224377 -0.10100483268093627 0.03351713617612408 -0.10092377992270979 -0.12323038855032764 -0.4007175595001552
2466188000.0 -0.09264250889909664 -0.4051956077840584 0.030478180346895388 -0.10168941140337827 0.03060723480092935 -0.10165905047175061 -0.12439986909824952 -0.4001700839951597
2467250000.0 -0.09509068657174072 -0.40445020073932103 0.02739331047563024 -0.10247927634573355 0.027669185080144074 -0.10242880576826777 -0.1254405915922797 -0.3990954585525287
2468312000.0 -0.09760834096488924 -0.4037517299867163 0.024335368442621682 -0.10300171722971874 0.024659707991781334 -0.1031612881608786 -0.12645525983620418 -0.39761368723469476
2469375000.0 -0.10022970098254891 -0.40309606862254377 0.021052246836220857 -0.10363019240013863 0.02150432104038979 -0.10374916955387502 -0.12777839001942548 -0.39528459146206424
2470438000.0 -0.10279346325495674 -0.40248393596237897 0.018085209630507 -0.10393838292622559 0.01827708543022029 -0.10434333371803287 -0.12956745931745578 -0.3925659042777976
2471500000.0 -0.10536499589909135 -0.4020519242848248 0.014967724576627435 -0.10426461588658517 0.015045735803302141 -0.10470542224400148 -0.13205472739369964 -0.3894537469169746
2472562000.0 -0.10803567158707922 -0.4014356713701232 0.011705397237414662 -0.10433615596853082 0.011833246400333222 -0.10503798511228997 -0.13495487843978102 -0.386251913117315
2473625000.0 -0.11085664694840126 -0.4010344026858934 0.008730387974797128 -0.10452381585258498 0.008670196526067757 -0.1051408109037581 -0.13860450711765568 -0.383488193534066
2474688000.0 -0.11356031084483846 -0.40056070593031273 0.005769477767392746 -0.10461281635226348 0.005459479015521533 -0.10526394659575289 -0.1429879744787325 -0.3813402131572849
2475750000.0 -0.11605430026786094 -0.4001882889755369 0.00276252390146103 -0.10463361828968265 0.002415718818294421 -0.10521844423290055 -0.1473759288800793 -0.3796646010216218
2476812000.0 -0.11886745560133187 -0.39984340224929954 -5.967653561698498e-05 -0.10462785470931368 -0.0004862788647939168 -0.10508241563368846 -0.15180895208073464 -0.37845738585196065
2477875000.0 -0.12147270663691848 -0.3995583808811031 -0.003045976574645224 -0.10469761400469026 -0.0033836414009160865 -0.1049960688682022 -0.156182418589327 -0.3782810813418418
2478938000.0 -0.12400211293220428 -0.39936731251454965 -0.005808588317208508 -0.10460461301013788 -0.006248741047056239 -0.10471269028268902 -0.1602350242541559 -0.3783690245913759
2480000000.0 -0.12646872832827957 -0.3993128023041074 -0.008553184052053629 -0.1045539402727336 -0.009019517471718965 -0.10447920948351766 -0.16398660379125174 -0.37893123225566155
2481062000.0 -0.12883182714439562 -0.39893493264769975 -0.011470483453194532 -0.1044764448011818 -0.011801673051006979 -0.10430287194354157 -0.16715104568207992 -0.3798584010928137
2482125000.0 -0.1310899189675259 -0.39901728494988375 -0.014384519245448068 -0.10403729817233558 -0.014639650622394055 -0.10398717652103312 -0.16953243831120224 -0.38072828373650447
2483188000.0 -0.13342115809389757 -0.39884786946282386 -0.017424112755743217 -0.1038946552409921 -0.01757857828005796 -0.10373756053434098 -0.17176535267686388 -0.38150207212613607
2484250000.0 -0.1355304380523803 -0.39882715714566275 -0.020514182965019896 -0.103449111626901 -0.020482778881543876 -0.10338517277361084 -0.173446626080148 -0.3820688337185913
2485312000.0 -0.13770219793062885 -0.39856750291099463 -0.02356328445707016 -0.1027890993216313 -0.023490552333360868 -0.10285634401891923 -0.17474509187457127 -0.38249743669261405
2486375000.0 -0.13985485398625958 -0.3982850157653451 -0.02663049649923997 -0.10208375090075651 -0.02656683316089978 -0.10224442072436787 -0.1756175795012371 -0.38236071695242296
2487438000.0 -0.14199307325705632 -0.3980584467018718 -0.0296911527480192 -0.10105748279117989 -0.029696827186414972 -0.1013251741092566 -0.1765360140239502 -0.3817018460346478
2488500000.0 -0.1440192627186897 -0.3975847633918923 -0.03266998475708462 -0.10009996463785897 -0.032751655595411606 -0.10031703740920107 -0.17732286766595468 -0.38041469645573506
2489562000.0 -0.14602551047252582 -0.39694973444468984 -0.035549584925180226 -0.09886371369221492 -0.03571020898213336 -0.09903078234598539 -0.1781917241615509 -0.37870243785966684
2490625000.0 -0.14807858841876642 -0.39619594778120865 -0.03845248271059018 -0.09742302283822839 -0.03856329766231323 -0.09765507117670034 -0.17954001657325488 -0.37625501638446446
2491688000.0 -0.1503077508193823 -0.39550973099364667 -0.04123892948620347 -0.09601162775202915 -0.04137088481599967 -0.09620958736305021 -0.1810515535560192 -0.37362252552956104
2492750000.0 -0.1522734977302811 -0.394559438680173 -0.04378920349914393 -0.09442879139701106 -0.04391576786327701 -0.09451177106511677 -0.1833711851229282 -0.37091987584811154
2493812000.0 -0.15431417822870722 -0.3935854857838635 -0.04626547742177961 -0.09288028094705471 -0.04637288326279555 -0.09298570387823411 -0.18624793100318848 -0.3684934818565903
2494875000.0 -0.15637658766122725 -0.39297235824885385 -0.048619619757064275 -0.09138797362479077 -0.04867061766449726 -0.09146550374918977 -0.1893876550722899 -0.3664929816755722
2495938000.0 -0.15854738354852393 -0.3920405465825997 -0.051013028624094604 -0.08975640450571931 -0.05092679278301403 -0.08991288517935436 -0.19296407242222072 -0.36487183687279784
2497000000.0 -0.16086934785982948 -0.3911641938260315 -0.05328005168023749 -0.08807424390591012 -0.05325318775891848 -0.08853406222604512 -0.19654816460736443 -0.36388810456625337
2498062000.0 -0.16305255375816952 -0.3903525601247207 -0.055578255521753404 -0.0866023417997469 -0.05556914686858046 -0.0871411918487732 -0.19998947010622906 -0.3633921843245665
2499125000.0 -0.16567570581800098 -0.3895797316917607 -0.05782917604446357 -0.08514182705154273 -0.05798944402023773 -0.085674992362218 -0.20342020243512032 -0.36337809701778523
2500188000.0 -0.16822162674929572 -0.38862881756530704 -0.06001916282009928 -0.08357740589223235 -0.06044271608979974 -0.08416005066841821 -0.20638046349463615 -0.3638340430936755
2501250000.0 -0.1709360359540919 -0.38788184533402914 -0.062330542731168476 -0.08204229146241826 -0.06290027673455997 -0.08254409848963563 -0.20865817999436162 -0.36420244889766007
2502312000.0 -0.17371031991450492 -0.38688978662122364 -0.06470995975417466 -0.08032483622467276 -0.06546749347023124 -0.0807801855221796 -0.21083976905876883 -0.36485838603466486
2503375000.0 -0.1765839601174585 -0.38593194667636876 -0.06709997701251585 -0.07845378342801973 -0.06800719566346501 -0.0787773414656063 -0.21266605853845866 -0.36519526988113055
2504438000.0 -0.1794200850398579 -0.3850862268926025 -0.06940359868748767 -0.07660489073044612 -0.07038403086734267 -0.07658819623623823 -0.21380892915246794 -0.3653551540633063
2505500000.0 -0.18221714306032477 -0.38398006194514744 -0.07173269433652661 -0.07455386336039212 -0.07267108700208086 -0.07419708453219338 -0.21500017457705664 -0.364726243235417
2506562000.0 -0.18525841824393255 -0.3830857986907543 -0.07411592112422705 -0.07233534632999611 -0.07486972454835175 -0.07174878685257763 -0.21592797748728465 -0.36401262796300793
2507625000.0 -0.18807699196864494 -0.3820937348254778 -0.07634082964933715 -0.06996913662169096 -0.07683860778906033 -0.069305493617403 -0.21681795989801092 -0.36265113989688436
2508688000.0 -0.19103976379255982 -0.381102007394606 -0.07840566964326529 -0.06760287637505048 -0.07868136408024008 -0.06679485273091525 -0.21783872626210332 -0.36104076931230394
2509750000.0 -0.19398912831975246 -0.380214340828317 -0.08041576460271342 -0.06512263410578269 -0.0802666245674483 -0.06437606958013295 -0.21891531651433435 -0.3587084064458383
2510812000.0 -0.1967087516462177 -0.37944265678524036 -0.08230991132852683 -0.06257484426009488 -0.08184883281863566 -0.06194283237102559 -0.2202784928745218 -0.35629437006414577
2511875000.0 -0.19948781495427356 -0.3786841004249173 -0.08396216656739733 -0.060066993856374436 -0.08323077852967661 -0.05971046596369754 -0.22200731172514857 -0.35345987140476176
2512938000.0 -0.20228274469514004 -0.3779618409890592 -0.08550961653837139 -0.05738676619346402 -0.08460924107846872 -0.05746135697257374 -0.22435937305951809 -0.35085450971262394
2514000000.0 -0.20524063277259205 -0.3771593837128367 -0.08693638837673592 -0.05482611344588445 -0.08611955963644738 -0.055256043128272835 -0.2271497388036738 -0.3482601898077077
2515062000.0 -0.2078237706701928 -0.37620457189844 -0.08824970207451152 -0.052215082930138296 -0.0874974147182747 -0.05308072357990477 -0.23035913794938667 -0.3462857907226442
2516125000.0 -0.21048307657661722 -0.3753279797169162 -0.08933989193402793 -0.049554873547750455 -0.08897624065289911 -0.050731159016683854 -0.23363776998521174 -0.3444999060475257
2517188000.0 -0.21309025648461064 -0.374371360417183 -0.0903450775939244 -0.0468807146055754 -0.09047196910861417 -0.04829478824539342 -0.23715115613172566 -0.3432561448272269
2518250000.0 -0.2155147407574596 -0.37320091407456807 -0.09136675662930795 -0.04440997242445504 -0.09196147129051095 -0.04575124796633196 -0.24044194494546636 -0.34306401209710635
2519312000.0 -0.21815633564312323 -0.3719525188283154 -0.09241185531106805 -0.04205689327004741 -0.09343493707403165 -0.04301333745944944 -0.24361621680754045 -0.34263274600040905
2520375000.0 -0.2206153457896081 -0.370664685508958 -0.09338010817700981 -0.039433845761042925 -0.09462364646431264 -0.04018500948904354 -0.2466275487299556 -0.3423064296684281
2521438000.0 -0.22334106676858564 -0.3692588055604864 -0.09429048942898327 -0.037042884614725796 -0.09583255627549737 -0.03721817283639671 -0.24891300353060414 -0.3423166011842249
2522500000.0 -0.22546836130938844 -0.3678548475865497 -0.0951611988515429 -0.034485444615140255 -0.09672388769645017 -0.03423204115312316 -0.25127085757839207 -0.3423302835730029
2523562000.0 -0.22806089140565275 -0.3662248826145928 -0.0958905047117869 -0.0319662584418363 -0.09746989066745694 -0.031242718972321535 -0.25323754804400017 -0.34162182996635915
2524625000.0 -0.2305894284813281 -0.36450769607406147 -0.09683020622436776 -0.029416705514160344 -0.09806096941218886 -0.028275659382966285 -0.2550874101217221 -0.340905550846979
2525688000.0 -0.2332276487846786 -0.36294053072438154 -0.09773419115270592 -0.02670697330498633 -0.09856775650972645 -0.025332478663644912 -0.25689921928152987 -0.3395479979007154
2526750000.0 -0.23595962012859795 -0.3612227757410717 -0.09862428998296825 -0.02390983904261055 -0.09881789386215553 -0.022465040245080812 -0.258835870100536 -0.3381197999076805
2527812000.0 -0.23870882926229683 -0.35959556324475395 -0.09924926999344717 -0.021157279344100176 -0.09911286233020836 -0.019830322169907287 -0.2606385759572117 -0.33624082642587205
2528875000.0 -0.24159573773729967 -0.35772886936922593 -0.10008051471351143 -0.018087093753837224 -0.0994883629635389 -0.017104274388976805 -0.26241855223995864 -0.3339250942601792
2529938000.0 -0.2445549589794606 -0.35579872938878604 -0.10067399440602341 -0.015137736594163773 -0.09979253357291071 -0.014476219416885918 -0.26479021674690917 -0.33174909774975186
2531000000.0 -0.24764438487428544 -0.3540621157117588 -0.10112483939674066 -0.012106971756421123 -0.1001853520439328 -0.011952914143114234 -0.2671156986671376 -0.3292041258138359
2532062000.0 -0.25088065113044555 -0.3522214986615807 -0.10156251876815639 -0.009118598568464432 -0.10050953804042356 -0.00928925633980522 -0.2697132577859004 -0.32665467069482096
2533125000.0 -0.25397903182364273 -0.35032938168915456 -0.10160329550213745 -0.006016080845624844 -0.10095846309008227 -0.006563165455080722 -0.2725411347793742 -0.32391442635782325
2534188000.0 -0.25717088686083256 -0.3484241458362189 -0.10169995659687334 -0.0030954273473297093 -0.10118649368638655 -0.003832587494732888 -0.2755114269640888 -0.3214773775569541
2535250000.0 -0.2605156212521317 -0.3463215438893511 -0.10154013034661886 -6.0736712206389705e-05 -0.10142191781259816 -0.0009749937544716724 -0.27905015210185347 -0.31958379270992526
2536312000.0 -0.2636680776732779 -0.34460204252799526 -0.1011620402567852 0.002926113918010348 -0.10147030887343962 0.0019976267933105485 -0.2828050447325703 -0.3180406104724793
2537375000.0 -0.26680424290753557 -0.34238371739772694 -0.10064786117441728 0.005893554755350327 -0.10130954878151359 0.005057126291183533 -0.2863611890461107 -0.3168251725544812
2538438000.0 -0.2700020176215517 -0.3405390362126818 -0.10018940549433902 0.008600596133185959 -0.10106757443975396 0.008104233032668818 -0.289981184362748 -0.3160594672384731
2539500000.0 -0.273311644053478 -0.33868206313270066 -0.09962022202273331 0.0113973122107825 -0.1006196113166693 0.011169741990462412 -0.2930864901192362 -0.3154852545547508
2540562000.0 -0.2763354990813582 -0.3369636626627594 -0.09902168448322439 0.014010686380866838 -0.10000724180617693 0.014136870469630835 -0.2960532909138448 -0.31531057616475183
2541625000.0 -0.2794085957383066 -0.3351376992413571 -0.09852083168725614 0.016736729965027515 -0.09938531154072633 0.016991186830913996 -0.2982176863249344 -0.3152076560472845
2542688000.0 -0.2824470423855102 -0.3332442933659871 -0.09780812948254566 0.01936933450285662 -0.09859926326282908 0.019758560898644903 -0.30060057761280956 -0.3146729059126421
2543750000.0 -0.285280840138882 -0.33173523335064714 -0.09718011417493876 0.02179256341154049 -0.09771803914657264 0.02248932749925643 -0.3025869908864326 -0.31375728671535646
2544812000.0 -0.28826926287591004 -0.3297251093585168 -0.09655506746137522 0.024391255593129144 -0.0968178158553648 0.025105070600924054 -0.30444395583474126 -0.31232679583014317
2545875000.0 -0.29110035195086337 -0.3279958016729827 -0.09597243821406538 0.02686657160306138 -0.09595659870862423 0.027667614025469755 -0.3062863881948924 -0.31081793474529673
2546938000.0 -0.2936700617713359 -0.32622827072279 -0.09529910576128385 0.029595396518975327 -0.0950923841071834 0.03022334346094225 -0.3085903013792544 -0.30876032330587916
2548000000.0 -0.29639124326907096 -0.3243615966546029 -0.09456543950896347 0.032154995171300826 -0.09427622378153155 0.03268872468910023 -0.3105772460704867 -0.3065193597008753
2549062000.0 -0.29908952160096536 -0.3223323394311743 -0.09378931206734135 0.03484405967607739 -0.09328168698522332 0.03529669511017428 -0.31333381166963375 -0.3041967752044308
2550125000.0 -0.3020459448636646 -0.3203934408316604 -0.09292647631070017 0.03762782843138607 -0.09243987351458148 0.037836895997928506 -0.31612749315783545 -0.3020031635668737
2551188000.0 -0.30439813207775696 -0.31842430398033 -0.09182449190946036 0.040345412075727505 -0.09153868666365488 0.040382186827265285 -0.3191564559955422 -0.29993455583025064
2552250000.0 -0.3071293213665899 -0.31620965238609716 -0.09077911808683124 0.043110332500407286 -0.09048371890189648 0.042916327257817036 -0.3219700076708455 -0.2976454333337991
2553312000.0 -0.3096309216243509 -0.31403134366096214 -0.08951304395011175 0.04572233878825479 -0.08928306005266007 0.045506025878568834 -0.3248819611380705 -0.2958724621485744
2554375000.0 -0.31224660441651564 -0.31199636862691005 -0.08811713847253017 0.04834132762110199 -0.08800529662499823 0.047921224235403584 -0.3278724075078444 -0.29406760525320763
2555438000.0 -0.31498662944908473 -0.30980699609815854 -0.0866343692220469 0.05070219989242854 -0.08663075648063323 0.05041158162404994 -0.33048674146464835 -0.2925007149484298
2556500000.0 -0.3177855736414724 -0.30737829431315417 -0.08507240971524584 0.05307004675936752 -0.08514823319506806 0.05274607928992569 -0.33295104339298265 -0.29122081585499965
2557562000.0 -0.3203467499769283 -0.3050942467021948 -0.0833382979635305 0.055294361519949736 -0.08352273111425461 0.05494898567760824 -0.335349619851024 -0.2899356064626844
2558625000.0 -0.3231059298975725 -0.3028222471123597 -0.08140493320102445 0.05740587553594365 -0.08177593673305596 0.05719743012668996 -0.3375008842538454 -0.2885153226020722
2559688000.0 -0.32584362333825934 -0.30040368262985645 -0.07961688923831314 0.05930363169845157 -0.07987414662604299 0.05937330042748492 -0.33889018970474455 -0.2870384277682122
2560750000.0 -0.32854213964183737 -0.2980226325271837 -0.07756343438464508 0.06132161124358313 -0.07805910670013806 0.061467246997619795 -0.3403715053555287 -0.2857558852447959
2561812000.0 -0.33138307065574385 -0.2956882534576349 -0.07570028205257356 0.0632393035057258 -0.07617980182382551 0.06345919454847793 -0.3414121134251131 -0.2840515147619993
2562875000.0 -0.3340578587708321 -0.2930846326013421 -0.07369887417944872 0.06513711907148288 -0.07417800791939953 0.06549413044422858 -0.3423169204333751 -0.28203255497925395
2563938000.0 -0.33659174668064606 -0.290824711705088 -0.07179706528940245 0.0671383787129713 -0.07207733419082557 0.06738946331660738 -0.34308683001866086 -0.2798188385269846
2565000000.0 -0.3391233829751127 -0.28833205669059603 -0.06983641802132354 0.06918452154489248 -0.06998400675690596 0.06943921812754296 -0.343822412040468 -0.277385659983235
2566062000.0 -0.3415987809245775 -0.2859582755847714 -0.06775277817015497 0.07100292404516674 -0.06792020602909772 0.0713430008131238 -0.34474469910112154 -0.2741913219348213
2567125000.0 -0.34399628430409745 -0.28345865745118537 -0.06579167130995532 0.0729053673481717 -0.06581884061190495 0.0732073638951272 -0.34580374521978613 -0.2709779115632252
2568188000.0 -0.3461857185994633 -0.2809973269225929 -0.06370487649305957 0.0747991762116433 -0.0635629403927694 0.07499527630277832 -0.34726165198567166 -0.2673117543436159
2569250000.0 -0.3486244358548174 -0.2787355639287771 -0.061526820948023864 0.07648955211160646 -0.061391069672524556 0.07678503365940671 -0.34896505165845215 -0.2634263443636843
2570312000.0 -0.3507718467051175 -0.2762783134782821 -0.05929129599433589 0.07844617718964594 -0.0591702249545282 0.0784290991637222 -0.35127078766177894 -0.25960622032393565
2571375000.0 -0.3530914288277386 -0.2739464612952584 -0.05697113021815613 0.08004036540209285 -0.05684916537602273 0.08001999594949326 -0.35365614578691695 -0.2558987622470206
2572438000.0 -0.3550931724122698 -0.271562622642399 -0.054622698250585466 0.08160298465976706 -0.054565751165757514 0.0816161065748891 -0.35671173194930533 -0.2525713875634438
2573500000.0 -0.3569638379776246 -0.2693073369635815 -0.0522575341012962 0.08325298921859146 -0.052427623212187247 0.08317349976888251 -0.3600751167720022 -0.24970736211310052
2574562000.0 -0.3590631129762751 -0.2668703642537834 -0.049821315325390365 0.08456524340897079 -0.05014329513085549 0.08459786489663142 -0.36291078698576734 -0.24706611182518678
2575625000.0 -0.36087359204091185 -0.2645696104812252 -0.04752050586101287 0.08589325009523589 -0.04794164721691616 0.08596390655459202 -0.3662584759708674 -0.24515640000072988
2576688000.0 -0.36263843012130953 -0.26196343129428035 -0.04521245989779724 0.08699143098211679 -0.04561778054606795 0.08721425135732709 -0.368804086525951 -0.2436521179374166
2577750000.0 -0.36454572643327304 -0.2594226178183421 -0.04268635994670765 0.08820531281741077 -0.043282387491379234 0.08841821107342134 -0.3710136356540978 -0.24222666980038562
2578812000.0 -0.36644046354890575 -0.2567246006843139 -0.040444621193334473 0.08916564392624605 -0.04082038427157346 0.08958485528212018 -0.372661064319031 -0.2409885115494374
2579875000.0 -0.36827292719005594 -0.2540973132386603 -0.03801473479232977 0.08999752570749725 -0.03828695567275735 0.09055149902485116 -0.3735309129018192 -0.23945014503228723
2580938000.0 -0.3701135918423584 -0.2515449640147245 -0.03576546918475821 0.09094514796402287 -0.035735339332688826 0.09149147559988201 -0.3744912050208166 -0.2376083412356898
2582000000.0 -0.371858715288637 -0.24881820614160285 -0.03319348379505655 0.09169021923829684 -0.03304082621306732 0.09227989551412191 -0.3744852419313145 -0.23534470945038075
2583062000.0 -0.3736052414989437 -0.2459863148526959 -0.030654152425672168 0.0926094981404254 -0.03037433157679456 0.09294053139237728 -0.3747074317686804 -0.23276733745702186
2584125000.0 -0.37528477418402484 -0.24313557871329458 -0.02816088369855675 0.09329975798619912 -0.027793268018676355 0.09361447197888546 -0.37470146901873796 -0.22979888895626957
2585188000.0 -0.37706405395404496 -0.24032519431299498 -0.02548742107703314 0.09412538955811098 -0.025075916734116778 0.09420987837934817 -0.37447904291273226 -0.22612754185728842
2586250000.0 -0.3787317150070029 -0.23730305341105967 -0.02279976055977127 0.09479295442920507 -0.022486089639150796 0.09476390922191591 -0.37479852423102583 -0.22241807683525877
2587312000.0 -0.38054516569194025 -0.2342817461559956 -0.020051909191458078 0.0955010745257817 -0.019769776172536464 0.0952186596670541 -0.3752211628593538 -0.21821633382116293
2588375000.0 -0.38208602733335895 -0.23141510140530028 -0.01724790640395772 0.09600423376936686 -0.017154663344989014 0.09571579446124208 -0.37588357612890755 -0.21376319287933743
2589438000.0 -0.38367536038497363 -0.22823502173474822 -0.014276903088017183 0.09648070095739064 -0.014421276366399402 0.09613417981627333 -0.37722455695322277 -0.20916252620289902
2590500000.0 -0.3851552982053555 -0.22531237830252052 -0.011348499636598057 0.09684755794085276 -0.01172821555997634 0.09655318254936518 -0.3789530552877731 -0.2047665854562316
2591562000.0 -0.3865472461898392 -0.22247608934793728 -0.00856198362502337 0.09707447830874792 -0.00894034708284137 0.09693547926664095 -0.3813148792028091 -0.20033675841703183
2592625000.0 -0.3880383367289072 -0.21956499267435167 -0.005652135278376712 0.0972487620630718 -0.006128038850475618 0.09731962554424045 -0.38371258345065073 -0.19659284265318097
2593688000.0 -0.38927373381226943 -0.21663851746621007 -0.002786875038396602 0.09719455607664218 -0.0032319228545322747 0.0975713105288352 -0.386665232578207 -0.1929610580157008
2594750000.0 -0.3905983314088073 -0.2141607462808704 -3.892807589771887e-05 0.0972196636964072 -0.00039978668395667034 0.0977177818715819 -0.38951362190514116 -0.1900595275030188
2595812000.0 -0.3916604594559525 -0.2113772763361417 0.002736443712540015 0.09695743413117014 0.0024866452240951426 0.09773261033436295 -0.3923072542221502 -0.18758010349277246
2596875000.0 -0.39281804893371125 -0.20859262378827065 0.0053664500489087365 0.09681722944936405 0.005309797832804912 0.09762021509837035 -0.3948541698129695 -0.1857568749265853
2597938000.0 -0.3940669766069076 -0.20587176690170456 0.007930924539259449 0.09671495753343651 0.008139446060350573 0.09742366497773758 -0.39676756392680945 -0.18402135166870273
2599000000.0 -0.3950569157987383 -0.20304673399425976 0.010518656735173207 0.0962903813014044 0.010960245952338679 0.09697929138640929 -0.3983517431335206 -0.18237526514900781
2600062000.0 -0.39601994898197174 -0.2004382366633706 0.013115539572678678 0.09592418644553756 0.013609624354060417 0.09654844851318611 -0.3994086166418379 -0.18087808408157977
2601125000.0 -0.39684916467248393 -0.1975769050069628 0.01557071841446321 0.09564121106778624 0.016153738409188493 0.0959711431985334 -0.39991003369900596 -0.1789413047718798
2602188000.0 -0.3977912001624548 -0.19474725504965726 0.017975370626246524 0.09525302870772998 0.018682133758591346 0.09542068234411963 -0.40008847257906993 -0.17700099610698677
2603250000.0 -0.39855124128878705 -0.19196403562588868 0.0204533825838112 0.09474269440776666 0.021118654517072254 0.09472571099610917 -0.4000422187775365 -0.174449554960019
2604312000.0 -0.3991750450570718 -0.1888883901881007 0.023005070862834716 0.09432824034375738 0.023515350753787672 0.09408714312790038 -0.40013531492767684 -0.17173613774898316
2605375000.0 -0.3999767321130568 -0.18595802486412705 0.025557455123265786 0.09377627635436872 0.025958485568591413 0.09345728832484847 -0.39976205740107446 -0.16857615209610996
2606438000.0 -0.4005210358851323 -0.1829611365430255 0.028138936198148203 0.09315395986381636 0.02838789004194683 0.09281105323923224 -0.39985448820506714 -0.16515851324933506
2607500000.0 -0.40111350308814925 -0.1799107834460776 0.030624851475806823 0.09246295375877076 0.030841263936713187 0.09221701629945617 -0.40022841786004376 -0.16164822635906728
2608562000.0 -0.4015194173732499 -0.1767703858770034 0.03339113114174313 0.091606438334874 0.03331618797997434 0.09141690990848261 -0.4007922387646756 -0.1578217188920655
2609625000.0 -0.4023514493334723 -0.1734392970101305 0.03606038618610908 0.09064704679240262 0.03594613637586545 0.09062017437763233 -0.40173770185352475 -0.15392909935605845
2610688000.0 -0.403066061533735 -0.17029226223349653 0.0385330008935057 0.08961686562438807 0.038520038953182255 0.0896916508159636 -0.403042722407465 -0.15033044578435126
2611750000.0 -0.4036051058977015 -0.1672089542652671 0.041293861267751676 0.08839168807115072 0.04116228153847043 0.08866927297779727 -0.40477423338226753 -0.1468610859513142
2612812000.0 -0.4042833567267547 -0.16396335833122255 0.04386042526955976 0.08717164060198769 0.04371960120295918 0.0874075866083854 -0.406524417575959 -0.14367902450137882
2613875000.0 -0.4048478938907778 -0.16048372523627355 0.04630776538628789 0.08587849563495051 0.046311290585965656 0.08604137780756069 -0.40863873308344506 -0.14086980318155817
2614938000.0 -0.4055766162909347 -0.15710454233002757 0.04883354588502393 0.08432108610487646 0.04879321920191051 0.08453427128759296 -0.4106562776510538 -0.1384322251101772
2616000000.0 -0.40626607575410517 -0.15385131101386418 0.051162931134484564 0.08274154329734637 0.05115228016733077 0.08295933691030874 -0.4122922218622839 -0.13617860490808947
2617062000.0 -0.40700565295855073 -0.15038502615405358 0.05338141932366508 0.08119621613679799 0.05337672208862062 0.08137683571070747 -0.4139954960129998 -0.13467785529585105
2618125000.0 -0.40754295304068633 -0.14712497828719398 0.05553361881032269 0.07941135884870411 0.05552641671802623 0.07961570013887687 -0.414968457997506 -0.133291684934722
2619188000.0 -0.4083582414016764 -0.14378080397330228 0.05768494587482191 0.07773754448420905 0.05762051564038453 0.0779418849556816 -0.41569870588546204 -0.13168495089715238
2620250000.0 -0.4089468184848008 -0.1405529507245814 0.05966673230807645 0.07596736200285033 0.059611371281334605 0.07629503867290449 -0.4157735496984094 -0.12995143370744938
2621312000.0 -0.40948720693977636 -0.13743945392368323 0.06155349508894286 0.07411172250429397 0.061612997544494896 0.07462559095095452 -0.4155558169874233 -0.12816831966867925
2622375000.0 -0.4098965154857764 -0.13447262290456938 0.06358179661202396 0.07243645220849498 0.06364461203948715 0.07290208467538321 -0.4152429020044232 -0.1259765016247024
2623438000.0 -0.4107526946749643 -0.13161838698100153 0.06551817147198048 0.0707731261686157 0.06569739428052385 0.07122159551169124 -0.414753495683527 -0.12363948697656661
2624500000.0 -0.41127940265590596 -0.12899155142073498 0.06731465368100444 0.06898856849014334 0.06771068348255783 0.06949806759381971 -0.41419200880382295 -0.12087914148931142
2625562000.0 -0.4118554385868835 -0.12633577271863458 0.06917726218120834 0.06726998486535785 0.06966215338347034 0.06769227279874653 -0.41392958438406235 -0.11782720674791224
2626625000.0 -0.4124781705168343 -0.12356486639022064 0.07105313726854484 0.06543880161352535 0.07164020784893847 0.06587329767184835 -0.41355580114545815 -0.11464003685057467
2627688000.0 -0.4128927918297151 -0.12079547857626795 0.07298067981234216 0.06382428552478596 0.07359051272792179 0.06379152783981709 -0.4137653867893376 -0.11156674245082084
2628750000.0 -0.41344494239724766 -0.11839590741477367 0.07474471456459586 0.06193912849191215 0.07542805440080151 0.061818086335560275 -0.41390383157489397 -0.10831578652530971
2629812000.0 -0.4140540885350734 -0.11583164829538478 0.07648517225186541 0.060015158180914664 0.07715791448547787 0.05970758775885181 -0.4141654848063625 -0.10501342046092736
2630875000.0 -0.4143266934989426 -0.11317444250622509 0.0782566034847054 0.057988236482880734 0.0786979084556309 0.05756069855596014 -0.41484448297420856 -0.10158655807304502
2631938000.0 -0.41472408009992967 -0.11070029063969555 0.08004203110450625 0.055854319450266726 0.08028017424277113 0.055374842862184574 -0.41581693891190447 -0.09862244140099354
2633000000.0 -0.414925964722286 -0.1080263327093532 0.0815700801626663 0.053652702296872405 0.08163898690092354 0.05316675370178545 -0.4165269338544496 -0.09552705732084166
2634062000.0 -0.41514629289306837 -0.10545883594820456 0.08305382362186557 0.051452274224758295 0.082852026052631 0.05095330384256416 -0.41757632537054634 -0.09258088772133309
2635125000.0 -0.4153232351297774 -0.1027665642117744 0.08448022239369381 0.049121313123286416 0.08412955349432485 0.048787375319812636 -0.41879966536386204 -0.09022158298282257
2636188000.0 -0.41550581068590386 -0.10001157247123763 0.08596773848677203 0.046621807177364444 0.0853273131627789 0.04653806166971556 -0.4194095169562956 -0.08789796570958981
2637250000.0 -0.41572690546743996 -0.09741542915192622 0.08703277871709231 0.04414677935018746 0.08656711689270642 0.044278707711744095 -0.4200781674271475 -0.08591686551032157
2638312000.0 -0.41574272479345525 -0.09438603024116096 0.0881445637088181 0.041531164520603084 0.08762061867999386 0.041852822640208134 -0.4200050048581019 -0.08381596898613654
2639375000.0 -0.41585442627292923 -0.09162213464693611 0.08921139569969508 0.03886425409772835 0.0888666589189209 0.03948114542191312 -0.4198523588710756 -0.08186165615942326
2640438000.0 -0.4162761390294542 -0.08870459080038035 0.0900439427160904 0.03625767425434809 0.08996311309432094 0.03694138785956291 -0.41889198738878225 -0.07941237669617567
2641500000.0 -0.41666760676601644 -0.08579725065117522 0.09087993823895817 0.033583928946009645 0.0910908036049053 0.03439281083822439 -0.4178287575774054 -0.07656570956485874
2642562000.0 -0.4169073450029094 -0.08261333947335248 0.09185858317399678 0.030912548946213456 0.0921705052969432 0.03165685197551663 -0.41670768451643425 -0.07352457198859272
2643625000.0 -0.4174579364681952 -0.07970349181793823 0.09240870545539898 0.028287166618477005 0.09318484629071389 0.028863796758232897 -0.4157459356868349 -0.06970143013551197
2644688000.0 -0.41801259005473024 -0.07665331358385997 0.09328147979698852 0.025693552362571145 0.09400897329305508 0.026056076956724333 -0.4151115289410865 -0.06606585388574941
2645750000.0 -0.4185206821421086 -0.07385308998681568 0.09391860951739506 0.023022307954097463 0.09484464414317241 0.023144161356206214 -0.41460192611517777 -0.06201633414333872
2646812000.0 -0.41902172535969057 -0.07092375268768067 0.09463177417603279 0.02037750244885248 0.09545699671914447 0.02024834600157686 -0.41460476109089967 -0.05795707122232586
2647875000.0 -0.4195626553551605 -0.06811751175987403 0.09538967930692126 0.01772908979891129 0.09604526634563064 0.017481723298677462 -0.4147235881677783 -0.0539194198649883
2648938000.0 -0.4200382210658172 -0.06548512815685895 0.09582892037064894 0.01517283104714546 0.09647038588785996 0.014706291560802944 -0.4152960876535691 -0.050148519683326696
2650000000.0 -0.4208337390162265 -0.06279844995212402 0.0963774913528605 0.012642480860677935 0.0968001838751795 0.011971461918226348 -0.4158838759606165 -0.04647147525273852
2651062000.0 -0.42128344928489897 -0.06005909089227594 0.09682575340983489 0.009949224168545255 0.09709469790497774 0.00947210938904638 -0.4169064476011637 -0.04304446040647581
2652125000.0 -0.42198297132403323 -0.057411577065034206 0.09734003021711739 0.007364363112521965 0.09737131028127621 0.006795738405508946 -0.41841182766020735 -0.03987051192066284
2653188000.0 -0.42254885179180374 -0.05495341949821042 0.09767609451836548 0.004783349410075995 0.0976107695432005 0.00429202773677109 -0.4198108565602674 -0.03685776427606129
2654250000.0 -0.42327043194319725 -0.05224747094133486 0.09794682039006869 0.002062683122893021 0.09780253040548587 0.0017557343243502122 -0.42123950715503683 -0.03425840359102489
2655312000.0 -0.42402788988248646 -0.04989413257359368 0.09813583977298408 -0.0006190671671554745 0.09793529926079499 -0.0008013021871835018 -0.4224936231319762 -0.03224593351183078
2656375000.0 -0.4248495421269011 -0.0473862657887181 0.0982624899336147 -0.003329032362153108 0.0979590070864296 -0.003446420401612886 -0.4237488737635651 -0.029944626179815314
2657438000.0 -0.4253958105873362 -0.0449378900939026 0.09818023018253905 -0.006070256049013065 0.09797060243044353 -0.006100235758055182 -0.4243869593140791 -0.028218107978803773
2658500000.0 -0.42617657413860177 -0.04248844867760694 0.09807939189195794 -0.008869875476678701 0.09793549932933075 -0.008809567889253444 -0.4248642240166397 -0.026099066330144628
2659562000.0 -0.42673657251061364 -0.04003567709279565 0.09783869417476344 -0.011712066043341005 0.09777567822158764 -0.01160703109748484 -0.4248841009838317 -0.02407027602352428
2660625000.0 -0.4272726492016386 -0.03763683906830824 0.09737677861194197 -0.014559451035085243 0.09748581099074155 -0.0143976033340944 -0.42452127228788017 -0.02195873198751637
2661688000.0 -0.4278269976898969 -0.034946934228214946 0.09706586987077696 -0.017390423996326766 0.09714941097090275 -0.017228724195022912 -0.4242795480524602 -0.019111571921994332
2662750000.0 -0.4281546960886708 -0.032589340349404416 0.09643225295218914 -0.02031431262761696 0.09667404194860083 -0.020061808043635734 -0.423438274388042 -0.016279573860920885
2663812000.0 -0.42823576473391345 -0.029922207627097068 0.09580602572692541 -0.023101473579462056 0.09611108527456867 -0.02301059676257681 -0.42258783207416606 -0.013044229115977718
2664875000.0 -0.4286368067099564 -0.027321460794399687 0.09524599494124855 -0.025978197549170398 0.09552622691323222 -0.0257887897638904 -0.4224299534158508 -0.009571887133881086
2665938000.0 -0.4288240457171167 -0.024652920108364833 0.09456650897234252 -0.028792445705100155 0.09486730182091532 -0.0286646341978006 -0.4221207799697136 -0.00596954886625844
2667000000.0 -0.4288896813180811 -0.02195274301447136 0.09367393775239148 -0.031423491157972695 0.09408957209838464 -0.03146555768087085 -0.4223008439367277 -0.0024026856600353683
2668062000.0 -0.42896773022024637 -0.01911970015364385 0.09292566497634147 -0.0342645990317628 0.09326980503709834 -0.03420061218086611 -0.4223942700872424 0.0009761916563637852
2669125000.0 -0.42895256596378484 -0.01629054174599413 0.09205918132592722 -0.03684363565829937 0.09231154277986726 -0.03697143905404138 -0.42287324468284637 0.004167457691802773
2670188000.0 -0.4288500556966352 -0.013369372877976519 0.09116759294332916 -0.03944913550904355 0.09129312966578408 -0.0396940390229065 -0.4233052897925879 0.0073299710297804015
2671250000.0 -0.428613289377929 -0.01046708736615783 0.08995042087105917 -0.04203973018193559 0.09017880307084598 -0.04225246132086157 -0.4238045115095821 0.01001785810018109
2672312000.0 -0.4286236207611174 -0.007414446919778681 0.08879430589444332 -0.04451769527838118 0.08903104497530662 -0.044830908055581827 -0.42434517199241256 0.01253843524114282
2673375000.0 -0.42844674634596497 -0.004522541772170877 0.08765549166003826 -0.04699917598828249 0.0877905118468579 -0.04727734463248028 -0.42480931319778165 0.014718397686127694
2674438000.0 -0.42846521271706234 -0.0016369081176824934 0.08633172991185202 -0.049460330205142816 0.08655597264579651 -0.049695335849114126 -0.42515252312998814 0.016817087565960235
2675500000.0 -0.4282820592116048 0.0015205943840558055 0.08503649787356617 -0.05187232703072915 0.08511318115726549 -0.052108478159807126 -0.4253245666587402 0.018608065214419666
2676562000.0 -0.4282375432095347 0.004340325775941854 0.0835639559816934 -0.054267973587529966 0.083681593111001 -0.05436466636854931 -0.42512905188811834 0.020252179998370288
2677625000.0 -0.427955387110081 0.007406053379190347 0.08199471421211463 -0.05660138619903471 0.08213101593605356 -0.05662843691380827 -0.42445565811334823 0.021724099582229164
2678688000.0 -0.4280178593512247 0.010300391117291953 0.08038833090716442 -0.058939393630348266 0.08049303046432489 -0.059003766742676 -0.42322584329348156 0.023287116347712987
2679750000.0 -0.42784340879851107 0.013305935319168174 0.07866257751722586 -0.06120009791496028 0.078723211563362 -0.06123264521369918 -0.4219450969078556 0.02514265816770691
2680812000.0 -0.4276928338146861 0.01615941069189168 0.07675546349084279 -0.06351137629776164 0.07698395014657386 -0.06353159708771411 -0.42009448406148975 0.02753949115262337
2681875000.0 -0.42734928807363265 0.019236009166013823 0.07488000146001353 -0.06578035797583734 0.07504528790795556 -0.06587826528389185 -0.41815323758150524 0.03022049556658479
2682938000.0 -0.42706224261729 0.0221353540629782 0.0730138814664502 -0.06782232630012455 0.07312769951697269 -0.06812113576455905 -0.41601657107844403 0.033088766671025296
2684000000.0 -0.4270090991236899 0.025152418819035786 0.07099271278345523 -0.07004158587842144 0.07115058028019168 -0.07040012003614096 -0.4140559317085009 0.036775055953096505
2685062000.0 -0.4264989399180613 0.028041464092738555 0.06891215433206735 -0.07229743215892312 0.06899075601204065 -0.0725998344503914 -0.4128264710886225 0.04070571558675413
2686125000.0 -0.426022467633447 0.031207422316105078 0.066902422735764 -0.07441375735661168 0.06689434588249239 -0.07476292940135146 -0.41176778454950125 0.04443854824051042
2687188000.0 -0.4256309056400846 0.03396302588716787 0.06478466213012302 -0.07662335804680748 0.0646546267770516 -0.07690112177032492 -0.4110954091439677 0.04819011894785848
2688250000.0 -0.4249925474622261 0.03696378117058915 0.0625673307366558 -0.07863580781260832 0.06239459358921251 -0.0788273103716783 -0.41067562809859826 0.051769993168525506
2689312000.0 -0.4241262792523271 0.03985435126681002 0.06031016940369355 -0.08072028462446267 0.060119897505521734 -0.08070716028635423 -0.41015693209462134 0.055047084886871635
2690375000.0 -0.42349010244409485 0.04266147377459096 0.05809313250808777 -0.08264631522214846 0.05797660485490448 -0.0824924975102939 -0.4102271723710565 0.057951223833821085
2691438000.0 -0.42265845481793396 0.04550436238074277 0.05581627158691996 -0.08445528287289907 0.05571393346785505 -0.08407312806019508 -0.40989101630858654 0.06066216807391403
2692500000.0 -0.4217007103112727 0.048627462413074495 0.053504130194666155 -0.0860574997454517 0.05351346656953102 -0.08568108083228582 -0.40949668179007126 0.06291802097347579
2693562000.0 -0.4207911190295984 0.051505589713428654 0.050948253317590814 -0.08763936928436344 0.05124904748771372 -0.08719205330557783 -0.40904716785694506 0.06476401695107763
2694625000.0 -0.4196485676367355 0.05432989399659917 0.04838665697362673 -0.08916489501942683 0.04897975532342383 -0.08874228017586425 -0.40828852616969813 0.06662404909626535
2695688000.0 -0.41843354794317417 0.057083815969279986 0.04590917428792151 -0.09035151737134071 0.04654637871318027 -0.09014785740359539 -0.4066553525881456 0.06786728790028879
2696750000.0 -0.41724319880725097 0.05997800104405569 0.04325204380939104 -0.0914894324054907 0.04406985009741843 -0.09150341888443346 -0.4056480290796459 0.06937681292131324
2697812000.0 -0.4159957667582128 0.06301161356610958 0.040614889505321536 -0.09251191677812486 0.041558463030744536 -0.09298769839725039 -0.40383021906867594 0.0706543957009479
2698875000.0 -0.41452099976276635 0.06582340020170502 0.03793003936158901 -0.09343578259315319 0.03885545320432139 -0.09411816543420443 -0.4011925185862968 0.07179726083968693
2699938000.0 -0.4131754730769893 0.06856863454615772 0.035207626471527434 -0.0944384301548338 0.035894402454995256 -0.09530060669637756 -0.3983941830301702 0.0734708290594786
2701000000.0 -0.41154887792903116 0.07124302469999882 0.032413637400989355 -0.095138739632042 0.03293214908819861 -0.09621689379174696 -0.39472519808838563 0.07515248215708778
2702062000.0 -0.41012186425053254 0.07392859474905393 0.029785396804613937 -0.09585017683127249 0.02980237785623855 -0.09703490069827451 -0.39103044580373875 0.07780611335931563
2703125000.0 -0.4085097538204402 0.07673164873132061 0.026860308819594236 -0.09670292216211157 0.026646672146956214 -0.09768379695121307 -0.38730671907897635 0.0807357965346396
2704188000.0 -0.40712091250796284 0.07935176796158522 0.024027648227395438 -0.09724877489611106 0.02346572657650847 -0.09817009948418838 -0.38428193768896307 0.08462788871821833
2705250000.0 -0.4056939960012714 0.08170341191126516 0.02120348925228375 -0.09781927943723306 0.020399747996873 -0.09846701111575111 -0.3811299946461368 0.08848391884922305
2706312000.0 -0.40418742192620943 0.08431316340364031 0.018329848547766862 -0.09849966091432534 0.01732586670381518 -0.09885403033837041 -0.3787351402107743 0.09257381204310298
2707375000.0 -0.4026691095613117 0.08691872293816393 0.015421852344493316 -0.099238573660796 0.014426812734620348 -0.09914977926812939 -0.3770703808529333 0.09681578685603894
2708438000.0 -0.40122508548681324 0.08937304550096223 0.012442613167834179 -0.09975503844046199 0.011550832401598397 -0.09941566019901034 -0.3757704150852296 0.10076824598072803
2709500000.0 -0.39980094347548456 0.09171141275345382 0.009426337893937094 -0.10037945351649989 0.008868491650172524 -0.09981186666717756 -0.3748819490068873 0.1043369802577318
2710562000.0 -0.3983173105909547 0.0941992036953897 0.006350016396577191 -0.10069782979880945 0.0061823721154779885 -0.10006913612325663 -0.3743125147578149 0.10732000001771287
2711625000.0 -0.3965118838614905 0.09669705426534554 0.0032897156628394564 -0.10102450308063 0.0034348228054909835 -0.10041226066106339 -0.3737773206646798 0.11000481662800281
2712688000.0 -0.39502085651424207 0.09920276379719026 0.0002540674110902498 -0.10120531896592061 0.0006987760254470041 -0.10078073090817899 -0.37356657137839583 0.11216427427293217
2713750000.0 -0.39328996132501254 0.10158272328993512 -0.002831505693868112 -0.10131766835710562 -0.0021139525988742125 -0.10112165604917076 -0.3728491323793632 0.11468780195550951
2714812000.0 -0.3916197365744164 0.103943693371812 -0.0058033190239745805 -0.1015134228461276 -0.005033462896399312 -0.10138790341944692 -0.3724766575763321 0.11655998608599301
2715875000.0 -0.3896863081927184 0.10636290153525205 -0.008850795337774307 -0.1014057754030002 -0.00806710034805341 -0.10155904768635544 -0.3714625156311433 0.1184172772090343
2716938000.0 -0.3879103417235955 0.1086861191880032 -0.011853385076418943 -0.10104293778367268 -0.011094004481930646 -0.10162878998410597 -0.37084607020133153 0.1196691479213517
2718000000.0 -0.38595243875272667 0.11091166817426096 -0.014891311719671764 -0.1007236521443439 -0.014267290242588352 -0.10130941627013465 -0.3696837178585256 0.12103229861124568
2719062000.0 -0.3843630389487474 0.113185687691194 -0.017783797631837264 -0.10009301923620488 -0.017569767437908577 -0.1009265336714871 -0.36853176614164507 0.12229689081427848
2720125000.0 -0.3826400945718283 0.1154932338227538 -0.020632073425239178 -0.09931621025726756 -0.020648586602306583 -0.10035928321861431 -0.36649812443879365 0.12355845345932545
2721188000.0 -0.38078908640099546 0.11758785054390979 -0.02344938462835591 -0.09854331455003597 -0.023808566211019927 -0.09956560065118013 -0.3649245132142946 0.12509473884946415
2722250000.0 -0.3790082787386619 0.11976990565883255 -0.026173439660806718 -0.09766241081505381 -0.026844243489438705 -0.09851529568984209 -0.36179828811176895 0.12665101031438245
2723312000.0 -0.3772063081679957 0.12202018387988332 -0.029028574813405542 -0.0968193175544975 -0.029618633193504492 -0.0973857280163245 -0.3596392414492675 0.12851888058702762
2724375000.0 -0.37572195905261363 0.12425216086357638 -0.03166424051556407 -0.0959229576722081 -0.03231764306736237 -0.09609424961891809 -0.35742977088422656 0.1308637356029218
2725438000.0 -0.3738337265466484 0.12645669111890342 -0.03419148851253165 -0.09490718135455431 -0.03486442345671812 -0.09483904366772258 -0.35482863229149064 0.1333274321314312
2726500000.0 -0.37194915872021295 0.12854623666704124 -0.03688819636230691 -0.09362575152583463 -0.03740436069629608 -0.09359708223983745 -0.3529351227169654 0.13586892424721472
2727562000.0 -0.37021968725620824 0.1306169072518252 -0.03960461725425622 -0.09282238083615953 -0.03987967393411155 -0.09240988492462444 -0.3516377155002639 0.1385242455088792
2728625000.0 -0.36837039578549324 0.13289871636066775 -0.04190106077213509 -0.09174155619381291 -0.04229093999304344 -0.09133800617854963 -0.3503723946114724 0.14101580065241506
2729688000.0 -0.366713761401649 0.13476900571972725 -0.04471127256958397 -0.0905957627695803 -0.044764563692673245 -0.09034933561916303 -0.3499442011406203 0.14348226461254224
2730750000.0 -0.3647757112892222 0.13679938380924858 -0.04735884527531039 -0.08934460251071198 -0.04734894611657151 -0.0892615922743215 -0.3496611985844468 0.14469915019544097
2731812000.0 -0.36301443535082256 0.13861293804967087 -0.04989123585566614 -0.0882150300000568 -0.05002657326919514 -0.08802760693086314 -0.3494434075216489 0.14656499096762265
2732875000.0 -0.3613461581518231 0.14054889231088316 -0.05265147813991936 -0.08667728139634497 -0.0526223452350203 -0.08674617193141275 -0.3491917752327612 0.1475669608716141
2733938000.0 -0.3596727133005301 0.1422362480257313 -0.05539394138804607 -0.08529992303507102 -0.055390698162345466 -0.08543249245636497 -0.34899483522653335 0.14812796816939178
2735000000.0 -0.35804372497599074 0.1438621660931139 -0.058127395858025926 -0.08362550468211347 -0.05801470897879389 -0.08390588591503026 -0.3486937583700363 0.14874183214576464
2736062000.0 -0.35639019611424894 0.14549645977343448 -0.06072059292593488 -0.08209154819873261 -0.060770991577299364 -0.08212839494152716 -0.34812105477845673 0.14898282992914097
2737125000.0 -0.35482667148729885 0.1468408756320073 -0.0632621559844003 -0.08012761849747192 -0.06336304084315122 -0.08026978324749252 -0.34718914750934604 0.149045190197839
2738188000.0 -0.3534064386572249 0.14831234863959508 -0.06577323464109058 -0.0781375835655739 -0.06589164224207199 -0.0782264598021973 -0.3459727583189847 0.14932014680494712
2739250000.0 -0.35159166654871243 0.149759230971547 -0.06810644875913865 -0.07610653790564746 -0.06816743522317542 -0.07613850264681624 -0.34455447583699556 0.1492745248462145
2740312000.0 -0.3498888371535129 0.15103177141520996 -0.0704041109916959 -0.07395319916063375 -0.07036869005350908 -0.07393248946044496 -0.3429044300018739 0.14979831625748613
2741375000.0 -0.3482884892993251 0.15229131059482448 -0.0725013215023485 -0.0717279777526859 -0.07245066904994159 -0.07176455943829765 -0.3411063599554074 0.15016460677979204
2742438000.0 -0.346534677712283 0.15362486386953417 -0.07441560319212488 -0.06941784960983159 -0.0744617699838965 -0.06959065436296574 -0.33911567465223996 0.15088489041003034
2743500000.0 -0.34463272247153803 0.1548227857844702 -0.07639151232070941 -0.06715263416617233 -0.07633677716955836 -0.06741811596950842 -0.3370226313233057 0.15150928108154188
2744562000.0 -0.3427982551529539 0.1559207712544029 -0.07835624764073892 -0.06490770139665025 -0.07831610341235419 -0.0652630869687207 -0.3347815313692213 0.15258992873438446
2745625000.0 -0.3409763326926759 0.15687054328102285 -0.08005872615987976 -0.06255499722388935 -0.08017621525178678 -0.06303264711830138 -0.3328362888729025 0.1537145533091599
2746688000.0 -0.3391606638964006 0.15820804975555913 -0.08191419535070417 -0.06039917433205784 -0.08214321572363785 -0.06090737612158939 -0.33132490116267727 0.15508125320374525
2747750000.0 -0.3372737559083848 0.15908733551835427 -0.08357372274360146 -0.0581591114079531 -0.08386265250955888 -0.05863409589733004 -0.329887573485671 0.156539601001433
2748812000.0 -0.3354341699000009 0.16003405503206317 -0.0851326794730403 -0.05590105794369162 -0.08577746102072642 -0.056288442000834375 -0.32873968186256197 0.15774905191483352
2749875000.0 -0.3336121688448662 0.16090199682210224 -0.0867108907015263 -0.05357749936523502 -0.08741456218576728 -0.05383810501491329 -0.3277601235399053 0.1586887117381112
2750938000.0 -0.33182008073827857 0.1617173405652784 -0.08828712894598889 -0.051184817680349784 -0.08905251946163718 -0.051144165503860486 -0.3270794031450381 0.1593886595025909
2752000000.0 -0.33012729366531873 0.16266398448920474 -0.08997918138258176 -0.04867691860295403 -0.09064725774665047 -0.04856591109503482 -0.32636715001691435 0.15982900072165795
2753062000.0 -0.32847828631042997 0.16359802984747593 -0.0913907018460113 -0.04607180558288419 -0.09195080902837482 -0.0456716379024484 -0.3254751378180233 0.1602056056589853
2754125000.0 -0.3268832411267312 0.16437168082709397 -0.09278756726059326 -0.04336997861910702 -0.09315251904439871 -0.042879106964467846 -0.324332288490999 0.160332208727175
2755188000.0 -0.32525055400333164 0.16520619788134897 -0.09416849118089829 -0.04056822357350033 -0.09423144856878816 -0.040085167337759235 -0.3231983458930152 0.1603218071802336
2756250000.0 -0.32383346144793906 0.16612527035119723 -0.0953467509268764 -0.03756741140564889 -0.09526636527837978 -0.037196701745293104 -0.321678007596317 0.1604754478418609
2757312000.0 -0.3222545707986452 0.16697300091366254 -0.09644672634695511 -0.034625704310119555 -0.09610180753594874 -0.03430945101420692 -0.3200827243518024 0.16052758488282837
2758375000.0 -0.3208485233286949 0.16768079939960545 -0.09736258681618214 -0.031579525546737056 -0.09689433093015096 -0.03152244927367072 -0.31830117820587567 0.16063120405130094
2759438000.0 -0.31960396737636365 0.16858741125456722 -0.09826915205799519 -0.02858633537896162 -0.09785879075173762 -0.028762631689786666 -0.316373857475422 0.16082725704016682
2760500000.0 -0.318323996525704 0.16925037349764208 -0.09891850899892947 -0.025511729449609753 -0.09859104823608832 -0.0258874490002898 -0.3141633298564996 0.16116689515470428
2761562000.0 -0.3171680677801699 0.16997500875225638 -0.09945427284255105 -0.022426212473465774 -0.09937207669008245 -0.022938083276832943 -0.3121445667356622 0.16168549980809266
2762625000.0 -0.3159938803654434 0.17051686526728324 -0.09983356750294085 -0.01921368785935166 -0.10016270260406357 -0.01996142276082871 -0.3098745083787772 0.16225939752448446
2763688000.0 -0.31507979131271535 0.17105815355653953 -0.10039136522797085 -0.01629549598976973 -0.10084461064600644 -0.01689281742276144 -0.30769828087933787 0.16333766952430462
2764750000.0 -0.31397206659889665 0.17162455272027283 -0.10076981547530572 -0.013308040363374135 -0.10137647033722365 -0.01377261239559689 -0.3054116567186069 0.16455315893303188
2765812000.0 -0.31305757490210734 0.17221743562752048 -0.10110968084813082 -0.010272883090641532 -0.10187624042394272 -0.010593637496180306 -0.3037009868997293 0.16579243047495698
2766875000.0 -0.31202135782054974 0.17274775135316545 -0.10149446280912462 -0.007413777568549626 -0.10224531429594506 -0.007362225585342829 -0.3021440970832266 0.16724987815805822
2767938000.0 -0.31121485944795324 0.1733078175213109 -0.10163703858492794 -0.004502013107016743 -0.10234389516111687 -0.004161353075843222 -0.30110564753582164 0.16895914187652375
2769000000.0 -0.310319855759062 0.17361574455775805 -0.10193105919931898 -0.0016136182859446972 -0.10249324621672337 -0.0011531862133134273 -0.30043700698658155 0.17043675188731114
2770062000.0 -0.30915187058003174 0.17387270485201195 -0.10218988455502394 0.0013734198554322728 -0.10249723725743884 0.002007357992455731 -0.2999733796521846 0.17166813422790111
2771125000.0 -0.3083209287710087 0.17402946736927336 -0.10212041781224873 0.004422423813820579 -0.10220567211115934 0.004774436773548266 -0.29940989998951795 0.17289113206205878
2772188000.0 -0.3073917631208042 0.17427341723763762 -0.10209252606391159 0.007152455268593071 -0.1019594812248904 0.007655755331726384 -0.29931214810772755 0.17368313038184782
2773250000.0 -0.30632077972119315 0.17446641387860018 -0.1019984840978082 0.01022061217312955 -0.10164123517145379 0.010541182596174087 -0.29892297822703034 0.17437618675940542
2774312000.0 -0.305308351852318 0.1744737152302009 -0.10158236628453474 0.013286362370836285 -0.10128661960747364 0.013353194499323384 -0.29869646321083326 0.1746114488488024
2775375000.0 -0.3042172383931237 0.17477326658018702 -0.10108155625875519 0.016302573836375133 -0.10087293255080522 0.01623097349740428 -0.2977095763516241 0.17539006653394634
2776438000.0 -0.303324207747226 0.17483413036428597 -0.1005163419092396 0.019412410713262038 -0.10032597895926831 0.019143064865185327 -0.2967285880791745 0.17544794900717145
2777500000.0 -0.30220163544300715 0.17493683529040843 -0.09961168408454919 0.022471016500927723 -0.09971954352553543 0.022050097886861252 -0.2952617486134832 0.17598160586881773
2778562000.0 -0.3013070561392081 0.17521274237656642 -0.09891226154926237 0.02549000444799835 -0.09913795918547672 0.02507535677075247 -0.2942175577543978 0.1765332794886085
2779625000.0 -0.3002579137020096 0.17537341842739562 -0.0980088783535036 0.028525476511518 -0.09831485110734356 0.028114084748760624 -0.29263628581921186 0.17695421397478805
2780688000.0 -0.29926075734897084 0.1756413822290937 -0.09694260586464674 0.0313831330725644 -0.09736614590514067 0.031226320790805277 -0.2911927927056479 0.1777561350241601
2781750000.0 -0.29838427231783415 0.17616167585785905 -0.09570414898313559 0.034299910543058185 -0.09624232023653538 0.03436627337159848 -0.28952103076153407 0.1783789641053837
2782812000.0 -0.2975572177311133 0.17658978086930663 -0.09453911880197173 0.037204736568450456 -0.09492079380023163 0.03736776515985856 -0.2880243778946176 0.17939136343366135
2783875000.0 -0.296572135593257 0.1769415441670042 -0.09307912657666477 0.040014645495179725 -0.09350740596603932 0.04034181337464251 -0.28636682221534443 0.18064211559855073
2784938000.0 -0.29543332442112746 0.17739489131630937 -0.09164804892032972 0.04274885171067149 -0.092069604882961 0.04322334449661705 -0.2848856670679054 0.18176514670938979
2786000000.0 -0.2947423250294405 0.178056513716351 -0.09037066418074015 0.04551001332419753 -0.09053368245844841 0.04587252100554602 -0.28384351133874897 0.18338988300501236
2787062000.0 -0.29382249320986265 0.17858157512347445 -0.08887700214402298 0.04808215175720603 -0.08898056616871747 0.04837656489476999 -0.28288984075831125 0.18467087221166925
2788125000.0 -0.29307035418501476 0.17906820697155884 -0.0872062606799398 0.0506042936771594 -0.08734430146684354 0.050883068148483014 -0.2823341421744093 0.1863071255550496
2789188000.0 -0.2923519438642667 0.17970796703435826 -0.085702333650021 0.0531001542533493 -0.08578995829232644 0.053285418092355666 -0.2821610544994059 0.18797545408642513
2790250000.0 -0.2917092342025823 0.18028296614418504 -0.08411910325306957 0.055611366433838405 -0.08423032315822397 0.05564881806477195 -0.2821245525075175 0.18943800754858262
2791312000.0 -0.2910581196103771 0.18077446212686887 -0.08251973461311166 0.05785741999581716 -0.08257460108728455 0.057893578307455965 -0.282415738317018 0.19073092020423316
2792375000.0 -0.29050023825795146 0.18157703123385815 -0.08073561795185015 0.06029409016940345 -0.08098159220672321 0.06024256084940058 -0.2825149415917621 0.19140394804006833
2793438000.0 -0.2899880776750451 0.18253806093275765 -0.07902152438854154 0.06257279942794286 -0.07927110208328712 0.0627244426216078 -0.28280459233839267 0.19242639446871446
2794500000.0 -0.28924531838578843 0.18318914319858873 -0.07733485407542186 0.06480187086500507 -0.07735293489870544 0.06507195755343546 -0.28288447695548097 0.19278164664855543
2795562000.0 -0.2888330762521769 0.18398731849393132 -0.07528271400687479 0.06711012917455102 -0.0754519322537556 0.06746654060377161 -0.2827485208208664 0.19312906038910432
2796625000.0 -0.28825059787226043 0.1848051010179665 -0.07315867896673552 0.06941665936958828 -0.07336297111180694 0.06978339197545726 -0.2825819520048741 0.19367319925334833
2797688000.0 -0.2875610874771202 0.18558022252333098 -0.07098768061299165 0.07164924281834577 -0.07108514678774054 0.07208348556613776 -0.28191023302415685 0.19394931916528624
2798750000.0 -0.2869824934491933 0.18644236586845242 -0.06875102852335094 0.07389422842278245 -0.06868037608723343 0.07422526486482853 -0.2809607538705164 0.1943211443302827
2799812000.0 -0.28629580202957877 0.187021226037912 -0.06640744807556052 0.07601555029917019 -0.0661955821825939 0.0761300595997424 -0.28019567557667324 0.19473263634185212
2800875000.0 -0.2857218850094097 0.18798253421350217 -0.06394371441972106 0.07808675049995635 -0.06364860924794859 0.07809211054350725 -0.27894320031074016 0.1952861719018586
2801938000.0 -0.28520851955819787 0.18873956657344754 -0.06121570916941997 0.079885907984807 -0.061150031108148706 0.07970206364275828 -0.2778173827969208 0.19609235067047207
2803000000.0 -0.2846498897682124 0.18927294716577084 -0.058649933538689455 0.08174431213058929 -0.05859236333977705 0.08130327067374321 -0.27638840965660494 0.1968354660314591
2804062000.0 -0.28385318615259786 0.19007878551199509 -0.05598024482293667 0.08344529346110804 -0.05604434091733204 0.08277246569503763 -0.2752046854968812 0.19768139194093873
2805125000.0 -0.28333691300013364 0.19100001196751532 -0.05336387675463588 0.08485889152016766 -0.053675101362903245 0.08422737363366418 -0.27394974621433366 0.19903185070600093
2806188000.0 -0.2829288987612787 0.19178579811066102 -0.05051385373083131 0.08629808213291908 -0.05127842153327131 0.08570268970975643 -0.2732314101919619 0.2002166990172399
2807250000.0 -0.2823701730525275 0.19265971513831343 -0.04795041613533828 0.08731059253060167 -0.048842687928790436 0.08711951274898236 -0.2725384608663296 0.20182932016648666
2808312000.0 -0.2817233636430825 0.1938387505164113 -0.04525098374716498 0.08836363210229366 -0.04642579720295587 0.0885544020221095 -0.2717900320414595 0.20307124906865198
2809375000.0 -0.2810261227176022 0.19478494120659842 -0.04275896337981963 0.08928910121960659 -0.04389098908140393 0.08993454047670664 -0.27191149774388695 0.20454078381222537
2810438000.0 -0.2802684234348894 0.1958234951261388 -0.040247502600168475 0.09021770087735771 -0.041277884674880104 0.09114803671418241 -0.27159792202155253 0.20549060196499683
2811500000.0 -0.27950883585034125 0.19682048887783038 -0.03779936450914578 0.09120254971908334 -0.038431881916424174 0.09242650375580364 -0.27144554079689687 0.20656918530646307
2812562000.0 -0.27888792946046914 0.19792801694826315 -0.035435830059961836 0.09198169602546388 -0.03555818633468647 0.09344424542209705 -0.27144348186498807 0.20695315163406858
2813625000.0 -0.2781177642425352 0.19926545370542922 -0.0328352995655641 0.09285209409738689 -0.032562883325941955 0.09420155178632215 -0.27092053974493263 0.20712574495242236
2814688000.0 -0.2773298616568111 0.20032721400976683 -0.030439053391601814 0.09369801737690618 -0.029578430039380623 0.09483328506453338 -0.26999667258346643 0.20716028513100684
2815750000.0 -0.27659880942954357 0.2014149096862598 -0.0277133695594512 0.09437406425417451 -0.026657291803187832 0.09518520567977445 -0.2687740379132744 0.2074304358509914
2816812000.0 -0.275833632100293 0.2026021048392768 -0.024966430174507434 0.09525423097972678 -0.023716570678148783 0.09554793429378369 -0.2672981890916412 0.20762059275481437
2817875000.0 -0.2750547430726528 0.20357422116706034 -0.022091718121889297 0.0957828555922885 -0.020820649643505128 0.09566256733504906 -0.2654170369069741 0.20828004672383238
2818938000.0 -0.2742921244331896 0.20479340078978625 -0.01899132447397195 0.09629221733531867 -0.018103590709429462 0.09575734934361084 -0.26366990585635935 0.20866125392757548
2820000000.0 -0.27357776632492226 0.20591203433770214 -0.015981292613605147 0.09682251739391029 -0.015393005032808644 0.0958874525611888 -0.26153713098147874 0.20901614185456382
2821062000.0 -0.27276303253318873 0.20721953989239789 -0.012700229831928435 0.09715052760668133 -0.012700817666518135 0.09602465130180482 -0.2593807831462222 0.2100491239341891
2822125000.0 -0.2720826748366318 0.20837726307038246 -0.009649164296687242 0.09730801770538348 -0.010097329448358604 0.09632188996836012 -0.25741295261690833 0.2109315327027557
2823188000.0 -0.2712889720936566 0.20976445310483705 -0.006514143672303165 0.09735497343336362 -0.007408938874140195 0.09657299666010248 -0.25531223872740627 0.21232307649538634
2824250000.0 -0.270256201481964 0.21102308928276864 -0.003468207814502699 0.09723394644739315 -0.004727964136780936 0.09689270383930282 -0.25319351627601877 0.21394034052921312
2825312000.0 -0.2694941829047808 0.21236861171019072 -0.0002592348332011346 0.0971558528485641 -0.0017959514692357083 0.0972234670215679 -0.25155643164432645 0.2158404916043904
2826375000.0 -0.2686062753568982 0.21369072347783064 0.0027013593584426297 0.09655783467052009 0.0011805428964707207 0.09739249423354802 -0.24983614385117353 0.21774012851638666
2827438000.0 -0.2677488870408291 0.21514469785367324 0.005389013629842577 0.09644125239026224 0.004308124596249854 0.0974646973861856 -0.24852871449551994 0.2200933441977688
2828500000.0 -0.2667747825309526 0.21627695687196305 0.00801856643841963 0.09590080202394696 0.007347750349999991 0.09733100672614842 -0.24786935803392735 0.2225583030886399
2829562000.0 -0.2657888986536411 0.21755909505875196 0.010739817713704644 0.09543162890212913 0.01052287143527068 0.09707480033854907 -0.24704914650487522 0.22483714704886526
2830625000.0 -0.2649317249066147 0.21864784004331164 0.013255817184228963 0.0950528472863808 0.01356329576568381 0.0966124459599051 -0.2466361224948838 0.22691572751059633
2831688000.0 -0.26422562188755183 0.21993160954677904 0.01580154557266075 0.09451162127128902 0.016540358895523348 0.0958107900632331 -0.2463680244211707 0.2287570734150154
2832750000.0 -0.26341360966426847 0.2209954454621759 0.01822516450282949 0.09404360996670307 0.01931260703847974 0.09504927391744906 -0.24630868426141003 0.23043476140747718
2833812000.0 -0.26262228684805733 0.22205109428817216 0.02061971436017456 0.09343276840923405 0.02195175803787324 0.0940277358050879 -0.2461272159510496 0.231273632061042
2834875000.0 -0.2619018635159142 0.223307859907121 0.023007062256814148 0.09299509634924369 0.024341919046397573 0.09293896645395276 -0.24542869452327906 0.23173473175797835
2835938000.0 -0.26126676161349405 0.2243807703554565 0.0254909254989624 0.0922349877905304 0.02657130030051127 0.09189747913753533 -0.244257792121577 0.23246168636543366
2837000000.0 -0.2606760916639177 0.22555286331953375 0.02800025845843238 0.09144302781019703 0.028764290494851616 0.09073408310098217 -0.2426500832615535 0.23291556903269114
2838062000.0 -0.2598086098030251 0.2267538957502549 0.03047314532700425 0.09055691572577836 0.03092533939280729 0.08962706252650395 -0.24091850266665835 0.23348980703946448
2839125000.0 -0.259143626773218 0.2279547406136038 0.033164709285245855 0.08954902874454414 0.03307374847272303 0.08858005426283633 -0.2391331352416599 0.2339114608752189
2840188000.0 -0.2583670096630247 0.22915382559383457 0.03578737336874546 0.0884532024208704 0.035275648445387275 0.08771564247892835 -0.23718673479624766 0.23504482400543916
2841250000.0 -0.25779083407737663 0.2302114319333225 0.03827992880079516 0.08723379169342252 0.037619102147152014 0.08671888287725994 -0.23561947720381657 0.23587975526743837
2842312000.0 -0.2570759699058164 0.23133033086600932 0.04084638793086663 0.08592176829529125 0.040086057225361585 0.08577539725945961 -0.23395361014251115 0.2367387769656213
2843375000.0 -0.2562030652511512 0.232442595096647 0.043478687769681994 0.08454165294976854 0.04256341837210692 0.08468001483449483 -0.23235596726592014 0.23862945440291236
2844438000.0 -0.2556821874289903 0.2334819634795123 0.04576724030400511 0.08293194763632099 0.04510985239154039 0.08349611397842349 -0.23076759080764275 0.23962391292258678
2845500000.0 -0.2550246420202424 0.2346056904633551 0.04824828734752316 0.08138932679051256 0.047828403723559836 0.08206481019999681 -0.22959039761206423 0.24138383493490992
2846562000.0 -0.2542903746554847 0.23550826266684102 0.050572678399079536 0.07976763150737338 0.050346393533668474 0.08065610737304865 -0.22837428938177906 0.24289386762842047
2847625000.0 -0.2538497532582903 0.23653741138659806 0.052787826837814585 0.07803697977397411 0.052860406770295965 0.07883416374172215 -0.2268083654926973 0.24480121143912775
2848688000.0 -0.2531583816440131 0.2374520320072957 0.05506823220398601 0.07637563856626496 0.05529536623290699 0.07710965724452014 -0.2262671392270974 0.24671861693913086
2849750000.0 -0.25258581776921724 0.23844961058865088 0.056986968451922984 0.07439045069459306 0.05756325911381282 0.07507288380428778 -0.22581152006949282 0.24864671191161503
2850812000.0 -0.2518120613360256 0.2392891544954921 0.05908945216039987 0.07279661528994982 0.05956549242328835 0.0729854358378386 -0.22549887162436813 0.2506165989656048
2851875000.0 -0.25104741751609544 0.24024373310635672 0.061068367266871364 0.07092726721268439 0.0615844029888207 0.07103158202344559 -0.2255630471672161 0.25218485537011426
2852938000.0 -0.25039260429996024 0.24124149161033684 0.06297456871213782 0.06906835718699489 0.06346131484728439 0.06907967381535632 -0.2256561847060906 0.2529845016088514
2854000000.0 -0.24967769981517496 0.24218854240637872 0.0647295329966971 0.06729977913832377 0.06519406215554192 0.06711255685863934 -0.22554834582671504 0.2538394211074671
2855062000.0 -0.24902515296717095 0.24312003386733763 0.06653698940655854 0.06555097883286709 0.06690506458219315 0.06526201784792031 -0.2257037785779351 0.25427469384731954
2856125000.0 -0.24817456627311307 0.243997343860371 0.06834235368757496 0.06347064341852805 0.06854699083939604 0.06337029375623504 -0.22538473250767765 0.25422248567692063
2857188000.0 -0.2473216127104553 0.2446832373183645 0.0701042726706512 0.06153845156251198 0.0702138611502205 0.06155777568616914 -0.22488728265611138 0.2541233366634214
2858250000.0 -0.24635288390255045 0.24564279892891785 0.07176570610239294 0.05957838208342025 0.07185280230124796 0.059557390951145706 -0.22397696866176564 0.2539458732366212
2859312000.0 -0.2455343181981466 0.24643239237779535 0.07357934629555167 0.057540107416072434 0.07353526710218791 0.05764463554347267 -0.22308645330381707 0.25358960587179785
2860375000.0 -0.24458231963450924 0.24733523590151224 0.07514660751273124 0.055398637182116316 0.0752660672832699 0.05552935955114979 -0.22170286728056232 0.2538701675649863
2861438000.0 -0.24385602513251267 0.24814016105253311 0.07665577917272752 0.05323242317928966 0.07683175731335257 0.05338988190951805 -0.2203302639638338 0.2536405982312676
2862500000.0 -0.24283025153813861 0.24898017856232504 0.07832213295489392 0.05094235703302707 0.07848192174910376 0.05112274269236915 -0.21898613116768936 0.25383402445200237
2863562000.0 -0.24204351574473937 0.2497303016274973 0.07978797352442603 0.04860304709835466 0.07995366118894641 0.04866668576598597 -0.21756964477242977 0.25417317286816105
2864625000.0 -0.24130742615828157 0.25066708903949414 0.0811138414367464 0.04625038638155759 0.08127281519656814 0.04624294165898283 -0.21642114152186936 0.25439556480358316
2865688000.0 -0.24023995059196834 0.2514683959581907 0.08246343126646843 0.043807202393354304 0.08265313511065714 0.04375949094557809 -0.21499524689377789 0.25468850678334953
2866750000.0 -0.23955967733065478 0.25230807007474837 0.08369662511814784 0.0414444387625414 0.08362393150808044 0.041290226010610886 -0.21385181359160038 0.25554200258177967
2867812000.0 -0.23841339817203544 0.2532103057439153 0.08486295837465656 0.038842431895447165 0.08474799527741952 0.038825084528584776 -0.21281610439888599 0.25600393376345965
2868875000.0 -0.23743551159105458 0.2540913142318533 0.08557835598765641 0.03636649137346535 0.08559487573242712 0.03633823381143704 -0.2118467109233919 0.25666668693269334
2869938000.0 -0.23655377675504777 0.25494298069961496 0.0865454725789568 0.03375348275040436 0.08643435155615715 0.033950086487967004 -0.21104646629631327 0.25731650667648465
2871000000.0 -0.23579931759560935 0.25576872976391385 0.08726621923800235 0.031286263244721 0.08723178705467043 0.03145208144416486 -0.21042613771115004 0.2577935618424649
2872062000.0 -0.23476929358275514 0.256576414715805 0.08781578612033313 0.02879248458330928 0.08786370294357643 0.02900692956423528 -0.20989566996672995 0.25794077128743315
2873125000.0 -0.2338902364760067 0.25741102406018596 0.08846615495089569 0.02595260246501379 0.08854216760019795 0.026516410285749345 -0.20932600177837912 0.25795435693113977
2874188000.0 -0.23302136204893756 0.2581520816514306 0.08893318652365484 0.023405051443600194 0.08920037536811794 0.023883866581408873 -0.2087443506094882 0.2577013061182145
2875250000.0 -0.2320703936201404 0.2588824909759821 0.08936055334494487 0.020728352583349423 0.08974419607906016 0.021248679630009627 -0.20777565101510242 0.25720083476560907
2876312000.0 -0.2312045912322022 0.2596384556680646 0.08990990935130133 0.018282231825225963 0.0903068851286463 0.018464151104890983 -0.20691291161561975 0.2566330337233237
2877375000.0 -0.230364908897014 0.2603313067143547 0.09009919004515082 0.01566413011225938 0.09072045924358674 0.015699876086796637 -0.20566489317004905 0.25594043301645764
2878438000.0 -0.22963177913683858 0.2607863926239401 0.09054641240587234 0.013068119221950787 0.09110474540522824 0.012955249478873119 -0.2042280163915436 0.25543674819334394
2879500000.0 -0.22874178780254018 0.2614133788515185 0.09090353146766711 0.010386602760798166 0.09132907978442387 0.010167819224321584 -0.20269960797135755 0.25496336679219483
2880562000.0 -0.22778939470524925 0.2619159565606923 0.0911861337887605 0.007777076075548729 0.09151598236568288 0.007447801175767565 -0.20114727996757495 0.2549882067493519
2881625000.0 -0.22701294240666048 0.2623089198109502 0.09130528036513662 0.004972747337193535 0.09158407165112624 0.004765220318869903 -0.19956276357965977 0.2550163437085758
2882688000.0 -0.22601995910520895 0.2629122578754342 0.09143182076418044 0.002310270706428109 0.09156888739255901 0.0021193495880512283 -0.19779386180250338 0.2552859692029805
2883750000.0 -0.2251447059191742 0.2632363517202425 0.09144170992537404 -0.00032045514453446326 0.09154594385493159 -0.0005439358529582304 -0.19648152957398918 0.25551519914931087
2884812000.0 -0.22414564218385072 0.2635020526625858 0.09149541511729738 -0.0030646726760383716 0.09140626752417721 -0.0031025856686233894 -0.19492982370539996 0.2558605729834987
2885875000.0 -0.22327901708796402 0.2639114181836295 0.09126774772740318 -0.005817776149946201 0.09130319520570127 -0.005706025822301153 -0.19389976157717653 0.2565807655494448
2886938000.0 -0.22226182652636065 0.26418439262732385 0.09102993208391535 -0.008514770450467538 0.09110971965593218 -0.008362315677545008 -0.19260978502927403 0.2572699771045333
2888000000.0 -0.22132009543688108 0.2645323526254778 0.0906327509431636 -0.010935115333343931 0.09086962677188118 -0.010923848470120994 -0.1915051592781325 0.2580574141171497
2889062000.0 -0.22024720382772942 0.26491732908074933 0.09017585979982859 -0.013566109610875536 0.09051804484815172 -0.013428576115177138 -0.19048733300694987 0.2588956863872717
2890125000.0 -0.21937116108912624 0.2653723882225883 0.08953943702258263 -0.016083422080993493 0.08994022567310822 -0.01608155624326155 -0.18970210326191728 0.25976136356175095
2891188000.0 -0.21847075715064382 0.2657838155073405 0.08894199517397976 -0.018618680367709 0.08938675641506415 -0.01873173118379312 -0.18909903377742754 0.26058450918303344
2892250000.0 -0.21746036058415327 0.26618702350180273 0.08831767862879349 -0.02109545233752831 0.08866036039169012 -0.021150123143065663 -0.18880702908551977 0.2613108960118538
2893312000.0 -0.21662530182690415 0.2668114905117603 0.08749400760267242 -0.023471375341934546 0.08773351432388665 -0.023748709290666695 -0.1883528319001231 0.26134464706168997
2894375000.0 -0.2156496069549799 0.2673146026732154 0.08644445768819836 -0.02598554208697908 0.08676492287525302 -0.026196068325445472 -0.18789358315323096 0.26140311999508187
2895438000.0 -0.21463359346139396 0.26773663364911154 0.08548138701443658 -0.028300419000563803 0.08564383933339871 -0.028636992097116464 -0.18726745937187966 0.26161491046497626
2896500000.0 -0.21374529111098908 0.26838342969062945 0.08443361624899906 -0.030794911632463576 0.08450005980617448 -0.031040987210916908 -0.18654143585876085 0.26094772767861635
2897562000.0 -0.2129303293398696 0.26896097141823566 0.08320914289256395 -0.03316435405983706 0.08329149678506635 -0.03339207214372638 -0.18532507418417352 0.26035251970151685
2898625000.0 -0.21193310877356086 0.2695528325908246 0.08220263393444478 -0.03556341765751979 0.08208408902570818 -0.03565112507097162 -0.1841663060842164 0.2605994566330046
2899688000.0 -0.21115301460042854 0.2702178472476698 0.08098509131013736 -0.03799907093585896 0.08091419503508687 -0.0379550363969446 -0.1825796849118812 0.2611162116625969
2900750000.0 -0.21030391403009105 0.27059099355322247 0.07963811294224185 -0.040439278399085204 0.07973778820923956 -0.04019313616667341 -0.18104819893988774 0.26132004289589855
2901812000.0 -0.2094023842487067 0.2712842405977836 0.07832100684354246 -0.04270016213690763 0.07847497653236186 -0.04260530053656468 -0.17981443183144386 0.2621222681622322
2902875000.0 -0.2088029901684048 0.2719452892073561 0.07692364841988163 -0.04485977885048693 0.07713913487731244 -0.04478043120596736 -0.17868517496389485 0.26330568238677976
2903938000.0 -0.20818357614076158 0.27277052007037395 0.075511675209905 -0.047143304245478086 0.07578807370692817 -0.04712586118751497 -0.1775318951559726 0.2647050694142086
2905000000.0 -0.20756252137993564 0.2734590759169024 0.07404339761210367 -0.049189691946628866 0.07443188563306334 -0.04929988659645865 -0.17705021403542132 0.26630656344476267
2906062000.0 -0.2068255520987982 0.2743346433470092 0.07249770683478055 -0.051487384797417955 0.07284145767355536 -0.05147716893259849 -0.17652250230797967 0.2680308102014904
2907125000.0 -0.20628781878035926 0.27498763816577054 0.07098823081326151 -0.053517344379688116 0.07127968785352227 -0.05369925430602628 -0.17622058971669066 0.2697973545161517
2908188000.0 -0.20589486434939258 0.2758507235134597 0.06916093169694774 -0.05542460456278914 0.06958582269291509 -0.05575937184452552 -0.17631419611028445 0.2716167518865691
2909250000.0 -0.20525143733946383 0.2764783352043594 0.06742892387998958 -0.057329455491833006 0.06773063594333233 -0.05768335774849802 -0.17671695533570064 0.2732569278717736
2910312000.0 -0.20477935417005158 0.2773367648059619 0.06569381738304389 -0.05916283908713559 0.06586189087748699 -0.0595523522965819 -0.1771736593402112 0.27498483145352154
2911375000.0 -0.20442568663294367 0.2781129257674075 0.06385826843156177 -0.060948582533904075 0.06392455049761268 -0.06125350941395975 -0.17765614481149464 0.27647093776709525
2912438000.0 -0.20395497291935716 0.2789146838674542 0.061996884715492966 -0.06269965112876057 0.061935349337707245 -0.06280791079031453 -0.17859688189294987 0.27752840330216255
2913500000.0 -0.20358618814423524 0.27974479239008737 0.060126374467199616 -0.06418844775732307 0.05998503384818058 -0.06433725356619896 -0.17926542438092327 0.27835775484938224
2914562000.0 -0.203082166330129 0.2805837924808537 0.05793359279957257 -0.06577850346495906 0.05799941612975931 -0.06580193261869575 -0.17990818138972042 0.279069797167582
2915625000.0 -0.2028614644710136 0.2815374105290999 0.056016104517190884 -0.06730038396377129 0.05602574413462638 -0.06729960696826066 -0.18037075113155315 0.27948054259611355
2916688000.0 -0.20235233659915036 0.2823185895873914 0.05400961547429078 -0.06869621873722646 0.05404732448417772 -0.06870925646005535 -0.1803883827534364 0.2795662310854976
2917750000.0 -0.20207920903917395 0.2831311315833452 0.05189850519282335 -0.07012742105640851 0.05199071820406654 -0.06998790577000948 -0.18020005765064853 0.27944835572768933
2918812000.0 -0.20163982461833752 0.2841946581203093 0.04983737187896158 -0.0714069725194352 0.05000043769295606 -0.07141496234074102 -0.17982485923939773 0.2798647797183866
2919875000.0 -0.20134956745962027 0.2852366765230169 0.047521779339477044 -0.07269612822420102 0.04785865635869899 -0.07289640304847003 -0.1789021885645176 0.28014369280751683
2920938000.0 -0.2007590520576072 0.28644228687098566 0.045372099553392484 -0.07398920106606172 0.04558907114309852 -0.0743141165574877 -0.17796627933261094 0.280790876319752
2922000000.0 -0.20046036650901528 0.28771601269140384 0.04318559275865665 -0.07521864201137272 0.04341219042413714 -0.07563506939553966 -0.1767376604798967 0.2816210626647367
2923062000.0 -0.19983861828899982 0.2888330668740668 0.040839189945228484 -0.0764851752453611 0.04106738217694746 -0.07681257758998007 -0.17569506621491968 0.28282796177097563
2924125000.0 -0.19941833219611887 0.290049840720911 0.03862968765671594 -0.07763389858879692 0.038669429642667966 -0.07793475523347303 -0.17462442299334274 0.2845800721102464
2925188000.0 -0.19900716938404264 0.29149541219318376 0.036273549158922724 -0.07863471705057529 0.03616060084210194 -0.07894355624841391 -0.17398222947454595 0.28627888703814586
2926250000.0 -0.19865517633575402 0.2928335971831904 0.033895362439865566 -0.07959955638740487 0.03384278500102768 -0.07979242139950862 -0.17342727095372748 0.28801244035373025
2927312000.0 -0.1981484448900683 0.29401979036151593 0.03152623699446242 -0.08042348027113251 0.03140348136848684 -0.0804702628314142 -0.17322263045756459 0.28991290531702535
2928375000.0 -0.19783177673691224 0.29540556760610315 0.029237391767789982 -0.0811358648873937 0.029082621559000245 -0.08114331972498402 -0.17302952950025463 0.29169136517765754
2929438000.0 -0.19718026131793118 0.2965711843915728 0.026737861574127608 -0.08180642445926051 0.02676439695937205 -0.0816001882011143 -0.1732273794607036 0.29327239565095814
2930500000.0 -0.19692673319413917 0.29816206112724275 0.024349089229486965 -0.08229028256602292 0.024492773942693356 -0.08204554951897422 -0.17334674906688516 0.2948206513590349
2931562000.0 -0.19666458615883214 0.29971603090074034 0.021908974638901558 -0.08256181511632038 0.02222121409229817 -0.08252894381164597 -0.17364808938972814 0.2960934667078886
2932625000.0 -0.1960255863238719 0.30127687006165127 0.01941321074214689 -0.08289672537652772 0.02000723674724999 -0.08293120379937016 -0.1738814873133679 0.29720449914655883
2933688000.0 -0.19560103630324374 0.30273870414295545 0.017016545978668574 -0.0830060692592692 0.01769382516826983 -0.08323601389271951 -0.17428139763068756 0.2977375045308318
2934750000.0 -0.19513019579973778 0.30451459122515057 0.014692616816612374 -0.08331668662650048 0.015322510819696954 -0.0836365048019474 -0.17417606502100075 0.29811535473517903
2935812000.0 -0.19462436410972433 0.3061212707595515 0.01228992254360287 -0.08332966273553516 0.012802229903257818 -0.08394454951037655 -0.17366956510457282 0.2983117084498277
2936875000.0 -0.19415273612915487 0.30774919081254526 0.010019011853438757 -0.08349423907211327 0.010242244436967501 -0.08411337981798442 -0.1730008767682625 0.2984828340354153
2937938000.0 -0.19349547951176424 0.3094991442719859 0.007522602612168004 -0.08351586185887455 0.007732615147932588 -0.0842389475200189 -0.17155442527057457 0.2986709658128327
2939000000.0 -0.19298259416394276 0.3109918695815341 0.00523569657539814 -0.08348225055911565 0.0050968626557228135 -0.08425871877038865 -0.16994047499821674 0.29917979897925645
2940062000.0 -0.19224503335484766 0.3126465830564915 0.0029521019321040276 -0.08347962346598677 0.0024217370070467995 -0.08423937730215955 -0.1680935919590937 0.3002448737734505
2941125000.0 -0.19174888648017738 0.31441001531906254 0.0004562680831599739 -0.08353285233301463 -6.817941852549173e-05 -0.08392683489773248 -0.1659072469591264 0.3014661718927481
2942188000.0 -0.19090785861005966 0.31600765456214064 -0.0017622772577832954 -0.0834180286909862 -0.0026008019155028404 -0.08370352144993601 -0.1639799874070362 0.3031109135415555
2943250000.0 -0.19024773960386854 0.3176964103229225 -0.004357360161274452 -0.08338071325724457 -0.005039728419262868 -0.08328902137009027 -0.1621702519189138 0.3051805040485084
2944312000.0 -0.18954593184388785 0.3193425554234649 -0.006805233514771796 -0.08309977390258046 -0.007320596364957044 -0.08297097360846407 -0.16066208760691794 0.30753925557343814
2945375000.0 -0.18871174760163015 0.3212895405098267 -0.009212646196300524 -0.0829409513368588 -0.009571876715597375 -0.08255758991189378 -0.15960086512847482 0.3099411634257928
2946438000.0 -0.18794625942345017 0.32311178063094653 -0.011635321439086218 -0.08265909744937822 -0.01172761579105558 -0.0821697084052591 -0.15859650589921848 0.31234873209467756
2947500000.0 -0.187124715972048 0.3247947356994398 -0.014028938900605093 -0.08222386966556061 -0.013826263721182007 -0.08178052147811055 -0.15744374131532418 0.31457902051290193
2948562000.0 -0.18625418901513613 0.3266743833424094 -0.01629164213998852 -0.08168003903091285 -0.015896968558249656 -0.0813078630727478 -0.15693513220827796 0.31636826013681024
2949625000.0 -0.18538578156085614 0.32870416734832636 -0.01858672166033303 -0.08104024996097255 -0.018017169101276393 -0.08091532076288899 -0.15635352639763514 0.3184076970941682
2950688000.0 -0.18444534423808867 0.33028849092649576 -0.020756530908544082 -0.08029121157604144 -0.02003897063677426 -0.0803047559393131 -0.1559448318857988 0.3203668550059955
2951750000.0 -0.18352944912750416 0.33213748750259314 -0.022830726950693776 -0.07945573839982052 -0.022211357920484856 -0.079745897050285 -0.15541492765950057 0.32206372950371237
2952812000.0 -0.18240366489694965 0.33383196074034777 -0.024861757865618218 -0.07846397185695698 -0.02434195127611073 -0.07901654841165556 -0.15510993435252868 0.323312836059685
2953875000.0 -0.18139322519198103 0.33549636957754136 -0.026849873732760408 -0.07737871239727329 -0.026586329406048475 -0.07809195671572906 -0.15465218969328834 0.32400140910131475
2954938000.0 -0.1804019305127916 0.3373174747717699 -0.02881592756981878 -0.0762644756810862 -0.02871954470781916 -0.07709623926229357 -0.15404757884156814 0.32448634871720955
2956000000.0 -0.17928969872203293 0.33876091423374166 -0.030703362791467202 -0.07511466642414498 -0.03088615417271269 -0.07589949011174006 -0.15263635054668268 0.32451935122450437
2957062000.0 -0.17818024151552514 0.3404953641556248 -0.03264697103975067 -0.07392716068395626 -0.03298049808841446 -0.07461966568026604 -0.15101428925580523 0.32434296192905376
2958125000.0 -0.17701960048702817 0.34202245842479223 -0.03448252896919472 -0.0727242979499012 -0.03505302147302397 -0.07327083701257427 -0.14898710284074265 0.3245664858682253
2959188000.0 -0.17599288718030334 0.343524662228375 -0.03635914784615156 -0.07151371307763978 -0.03697515415694824 -0.07186265717711357 -0.14627845379235996 0.32470067846970285
2960250000.0 -0.17466080439094323 0.3452974943307412 -0.038287768327416136 -0.07027580333291764 -0.03886553238538825 -0.07038082444794955 -0.14293486747321332 0.3260523717390836
2961312000.0 -0.17345314455378816 0.34696944818756625 -0.040147841004829134 -0.06898104213096201 -0.04066555869628713 -0.06893789636649575 -0.13961812862455947 0.3267403910916413
2962375000.0 -0.1718861772255452 0.3483902294316169 -0.04197069528707751 -0.06770148798911067 -0.042422533683924256 -0.06739391235905896 -0.13658170214066614 0.32855367450427503
2963438000.0 -0.1706208053550166 0.34999547259923924 -0.04381545628432561 -0.0663645189125394 -0.04410876506280048 -0.06606435759466216 -0.13347324922298157 0.33114988150433505
2964500000.0 -0.1692399591919101 0.3514006604834674 -0.04563430839124491 -0.06498998415753152 -0.04578975458533485 -0.0646179216894973 -0.13101784420814575 0.3337769807751136
2965562000.0 -0.16766456013538478 0.3530879150790923 -0.047448577099608695 -0.06354691472809154 -0.04739645429632363 -0.06323516148587921 -0.128830431262008 0.3368404212314455
2966625000.0 -0.16596274468475183 0.35463269780777323 -0.04915573018245388 -0.06203001335610267 -0.04906053226411017 -0.06191322245939261 -0.12691467206136273 0.3401123921099036
2967688000.0 -0.1643186196559919 0.356132501252712 -0.050792470665385385 -0.06055439729281581 -0.050591526549071765 -0.06047450919768585 -0.12617310479416796 0.34320154502100086
2968750000.0 -0.1625257483508835 0.3577820886001405 -0.05241931737262048 -0.059016175605980985 -0.05215948523092334 -0.059035910988460276 -0.12528890775489787 0.3461678225597291
2969812000.0 -0.16060318568762533 0.35933845369297535 -0.05404471746056999 -0.05745538953942046 -0.05375797450778066 -0.05761359425535425 -0.12499056149842834 0.3491455355768635
2970875000.0 -0.15866811708722395 0.36086692413781785 -0.055556345197316656 -0.055853657957575534 -0.05546276776577577 -0.05617868644371019 -0.12464959370671307 0.3510191930059476
2971938000.0 -0.15673199165698848 0.3623351580148757 -0.05695323021886428 -0.054192953170613116 -0.05684451407313948 -0.05457561339689751 -0.12433391585163626 0.3529424943799836
2973000000.0 -0.15467762417743644 0.3638295635839806 -0.058289874642335114 -0.052545081597521144 -0.05836732610716401 -0.05289600385020934 -0.12410121477262831 0.3546521898345496
2974062000.0 -0.15250820932416406 0.3653568536735276 -0.05958125832005666 -0.050865096353396255 -0.05966970250379079 -0.05116135551679435 -0.12370838466078142 0.35566849600400946
2975125000.0 -0.1503987780518229 0.3670049857800534 -0.06079953092616719 -0.0491878518043741 -0.06096593637270198 -0.04934343787475108 -0.1232326970105072 0.35651944836952676
2976188000.0 -0.14826865963970162 0.3684305895188505 -0.06190113466129822 -0.047356173521957604 -0.0621445547474226 -0.04755538703380816 -0.12255916678484606 0.3569497060844416
2977250000.0 -0.14590631682915053 0.36975353161961055 -0.0629856202828096 -0.04555671611047944 -0.0632538526464131 -0.04572343518347993 -0.12130717923538087 0.356919630042587
2978312000.0 -0.14372800592791055 0.37117060145557423 -0.06403398486877698 -0.04376857836907268 -0.06428072444617867 -0.043873987225597794 -0.11968318637932637 0.35681429058268804
2979375000.0 -0.14146338603135358 0.372650955890725 -0.06504715739550321 -0.04193626211669187 -0.06526971741423293 -0.042051708826389214 -0.11775943876965404 0.35676764864111055
2980438000.0 -0.13932368706647721 0.373963711003365 -0.06597571902280068 -0.04009453267329115 -0.06621817602134278 -0.0401908209522037 -0.11521763687864593 0.35681302007152765
2981500000.0 -0.1369741699177588 0.3752425030745892 -0.06697251111631779 -0.03827386949002703 -0.06711880891809166 -0.03833636182391636 -0.11247844660470548 0.3567550572118029
2982562000.0 -0.13459727242730096 0.37658310912106496 -0.06781846549701016 -0.03644990106715364 -0.06793568838923791 -0.03641440585696549 -0.10900561964361187 0.357322116166094
2983625000.0 -0.1322326661935727 0.37783953931130954 -0.06863442542661259 -0.03457273196501423 -0.06882443227536265 -0.03452284075872608 -0.10611307638589677 0.3585666437417595
2984688000.0 -0.1298416171288346 0.3790925174547122 -0.06946889631348421 -0.032651962634403106 -0.06959089712287846 -0.03266751377348929 -0.10299733822712984 0.36013310235789603
2985750000.0 -0.12762774771635232 0.380371557595876 -0.07016947736763951 -0.03073547678254007 -0.07021543230726865 -0.030814140017699686 -0.10041276788235069 0.36207838578224844
2986812000.0 -0.12516684421698412 0.3816054499239258 -0.07087175777395316 -0.028810318136248715 -0.07099076991497295 -0.028885411542579023 -0.09835577208604093 0.36401688683853484
2987875000.0 -0.12284796999961331 0.3824497193807076 -0.07151321720423244 -0.02689507677618291 -0.07155868052395485 -0.026906721653267858 -0.09666947305578581 0.3658109765648538
2988938000.0 -0.1204293274838759 0.3837961509627067 -0.07208661673661346 -0.024860994443470813 -0.07208522409795641 -0.024911877734908987 -0.09548131289424479 0.3674401082207205
2990000000.0 -0.11823650963438263 0.3848618076552432 -0.07257913987121409 -0.02280132376383634 -0.07263526328846844 -0.02294951081502789 -0.09425077977196192 0.3688414085464732
2991062000.0 -0.11558426473069466 0.3856469341120533 -0.07306892583008619 -0.020809538437548798 -0.07314017928332102 -0.020868803955775707 -0.09325561118569915 0.3699451152947866
2992125000.0 -0.11331890402686211 0.3864571900963005 -0.0734482358525831 -0.01877050190714597 -0.0735733642458078 -0.01895461238027441 -0.09232953361534324 0.37047486939553187
2993188000.0 -0.11071664719403239 0.3874629122147343 -0.07383215792127923 -0.016753139053983762 -0.07395715933190784 -0.016877402306963444 -0.09116494203204648 0.37081348308477313
2994250000.0 -0.10819913475915578 0.3883907133653707 -0.07416923126627238 -0.014746984299839548 -0.07428381708927274 -0.014944917334981236 -0.0896381995621393 0.3707290515648909
2995312000.0 -0.10576719015717768 0.3891589567741139 -0.07446786694173463 -0.012770199487716913 -0.07468124404893899 -0.012821770763893667 -0.08819464787631466 0.3704975941601743
2996375000.0 -0.10303169436506648 0.38985682881241945 -0.07467603116557961 -0.010730882076075424 -0.07493794904968301 -0.010805699170113672 -0.08626067350379263 0.3699771129953037
2997438000.0 -0.10068302293604174 0.3906338232613695 -0.07483992387054494 -0.008753115917403076 -0.07520185890299431 -0.00883860432299956 -0.08415947832173194 0.369268095011366
2998500000.0 -0.09796917260856677 0.3913043452445035 -0.07498927396472968 -0.006727068406630857 -0.07537972010225971 -0.00668496706235837 -0.0817326947163348 0.36867487432842677
2999562000.0 -0.09528721651949806 0.39200708212035285 -0.07514989041751054 -0.004707295269945825 -0.07547081476051191 -0.004659356637409969 -0.07884527076439805 0.3679935614602033
3000625000.0 -0.09225590837082444 0.3928070760941062 -0.07533676124238234 -0.002705140309369515 -0.07550439366279882 -0.0024165860119038664 -0.07579793788769229 0.3675542181450696
3001688000.0 -0.08940962985876316 0.39354365760426835 -0.07540406799210095 -0.0006499543912385744 -0.07557984953941863 -0.000273132830527423 -0.07262477020951248 0.36763615115988346
3002750000.0 -0.08689107315556553 0.3939054773241626 -0.07541418964406528 0.001340440055096828 -0.07546050813083709 0.0017036909511047946 -0.06892013378786321 0.3677092965670764
3003812000.0 -0.08399434287871313 0.3948213140033139 -0.07542720423254844 0.0034222647036413084 -0.07529197597000552 0.003622197492772389 -0.06552767712945873 0.3685434047273698
3004875000.0 -0.08117720652847497 0.3954146993793909 -0.07536542941419509 0.005452333232914119 -0.0752346926923311 0.0055102590716703224 -0.06247044820596973 0.3694909089844757
3005938000.0 -0.07849080491004061 0.39604305182816907 -0.07517585202784023 0.007452306202201998 -0.07500957511069702 0.0073717734749801965 -0.059754105093808345 0.3706065202068668
3007000000.0 -0.07598509687910245 0.3968962129335222 -0.0749236673102364 0.00942708041894224 -0.0747673977411668 0.009193528799466354 -0.05746492662789938 0.37190803343052126
3008062000.0 -0.07298575262948215 0.39718186885247714 -0.07459353154180927 0.01144086555710587 -0.07463723583196631 0.011187994779622491 -0.05544862016970909 0.37291678049241084
3009125000.0 -0.07054096893997168 0.39804621596297585 -0.07411232069170369 0.013342073234435032 -0.07433723542669106 0.013006609006495588 -0.05391026062937667 0.3734288937108873
3010188000.0 -0.06775693637779245 0.39849967191005614 -0.0736231939725601 0.01531218635838891 -0.07396522265417362 0.01511070507253673 -0.052115024929116495 0.3740056418053972
3011250000.0 -0.06504588054898433 0.3992547371448341 -0.07311058147592338 0.017270756114372246 -0.0736204220961577 0.01704806413617195 -0.05082324758292559 0.3740399691787308
3012312000.0 -0.06267072922024898 0.4000107971775689 -0.0724777646926657 0.01919164631255313 -0.07321122800852115 0.01912081084121683 -0.04933724879411886 0.37392403832846977
3013375000.0 -0.060061337322282395 0.40070039185553 -0.07181952606981633 0.02108044757530089 -0.0726462946610673 0.021206850740142467 -0.047697038401988495 0.37333982808981464
3014438000.0 -0.057397040146664996 0.4013510750243523 -0.0711972853362504 0.023056716506619543 -0.07187849995573956 0.023438724052316284 -0.04540711463913383 0.37279501439184237
3015500000.0 -0.05487857052611446 0.40196777049502735 -0.0704932264302019 0.02491026045911833 -0.07103633368664783 0.02542393455277936 -0.043533888703685485 0.371947190669388
3016562000.0 -0.05260568694406755 0.40277579409375724 -0.06978246680205107 0.02683101823832321 -0.0701536416560074 0.027523028877501358 -0.040989124071778106 0.3711062508297869
3017625000.0 -0.0502183930515524 0.40321190507863713 -0.06904101996410607 0.028781904015556237 -0.06921277833380271 0.029493283163315835 -0.03817679243541285 0.3708139573959347
3018688000.0 -0.04775676772976455 0.4037219271625788 -0.06814803735719625 0.030604395253096193 -0.0680937095704993 0.031355782696854816 -0.0353614635418059 0.3701512784938251
3019750000.0 -0.04541563895699155 0.4043028909368842 -0.06729620903162763 0.03253075262791124 -0.06702225342917466 0.0332177200988462 -0.032379386173522345 0.37025730071340424
3020812000.0 -0.04298407647564952 0.4045182649977386 -0.06641144492242253 0.03452295319164023 -0.06591868705510767 0.0350056277074237 -0.028561354578034985 0.37098349484610643
3021875000.0 -0.04095564990799335 0.40473138910241246 -0.06543420693683687 0.03644822178276785 -0.0648824189374555 0.03668527638067569 -0.025098831124574034 0.3715575245384988
3022938000.0 -0.03872298925583242 0.40495492092123075 -0.06434623393709175 0.03836765988890712 -0.0638924513271758 0.038328583133239724 -0.02197530254843956 0.372896492965641
3024000000.0 -0.0367739885589936 0.40513707353244366 -0.06328045415604204 0.0402163517094346 -0.06290522456700408 0.040062973115618426 -0.019329633375579983 0.3742910332818738
3025062000.0 -0.034151880923452546 0.405025377887657 -0.062068456261288804 0.04209161546354593 -0.06196367756011417 0.041693275746317836 -0.01647119839469279 0.376592948123855
3026125000.0 -0.03221684397690795 0.4051499422412264 -0.060832971477253375 0.04385871211231162 -0.060939585219022374 0.04346446172014458 -0.014322675751529602 0.37859330738166214
3027188000.0 -0.02996760507092439 0.4051046257823022 -0.05955363240029672 0.0455668329263467 -0.05977019574044022 0.045185167027550543 -0.012864815789274259 0.3807867446217651
3028250000.0 -0.027962742644411336 0.4048890733990025 -0.05829056046422374 0.047147831051642365 -0.058630637731560235 0.04688524744026378 -0.012364351212133756 0.3827887861865657
3029312000.0 -0.025748096782613174 0.40495195003930884 -0.05679604632824259 0.04865059863946611 -0.057255051352604606 0.048552696161851434 -0.011644339894971741 0.3839510910711338
3030375000.0 -0.023845931473001736 0.404925435428959 -0.0552881898065297 0.05005061626141871 -0.0558390100037897 0.050213133362744626 -0.011137383623362654 0.38445571383104576
3031438000.0 -0.02175530717628307 0.40506512580910153 -0.053774456965023594 0.05142877298718616 -0.05433830995937786 0.05174274347368888 -0.011210161034981691 0.3850401606122577
3032500000.0 -0.019653765801209137 0.40503590332386497 -0.05216621282093976 0.05273208397575605 -0.05252316797316447 0.053311657272924196 -0.010671618401394843 0.384556755201047
3033562000.0 -0.017654201028213155 0.40482335497432714 -0.05046528014642662 0.054049402540290864 -0.050800758910783644 0.05466230553980427 -0.009781037128254807 0.38343487593985737
3034625000.0 -0.015800772857499017 0.40481992045070736 -0.0488061026668855 0.055254254788384846 -0.048952569990542774 0.05595303837229992 -0.009039512988894648 0.38206524356530186
3035688000.0 -0.013834388942280871 0.40489116044631007 -0.04713536841331027 0.05650824785493124 -0.047139026649617534 0.05713121726919387 -0.007104220866680106 0.38100215891227224
3036750000.0 -0.011998747500670284 0.4044661401381744 -0.04542337068276771 0.05768187615656154 -0.04529128354351298 0.05815444388029413 -0.005247647837368198 0.3797028751071733
3037812000.0 -0.010172459280260355 0.40462480465989736 -0.043721629462928034 0.05893169922935187 -0.04352626759446149 0.05930341215255163 -0.0028534587768153253 0.37832662595525146
3038875000.0 -0.00827940253052612 0.4044983972364196 -0.04201843868690919 0.060070195662495995 -0.04179554908869872 0.06026867997605449 -3.5449514301413176e-05 0.3774271637036849
3039938000.0 -0.0066403107371981965 0.40450009814381677 -0.04030827605286418 0.06121554895232757 -0.04011854111390853 0.06128669742684754 0.0030396207562185854 0.37695535517318457
3041000000.0 -0.0049498522246843 0.40432894945751435 -0.03863562859594533 0.0622661125398191 -0.03856023934030497 0.06216064720833036 0.0061402340269214265 0.37670390197410614
3042062000.0 -0.0032171794231739 0.40453812029937286 -0.03683412143174722 0.06338679049624596 -0.03683758471317407 0.06323576627330096 0.009109075692421503 0.37727718472511745
3043125000.0 -0.0014101329624475927 0.4043985654866393 -0.03507988453322657 0.06437412291359627 -0.03509159301914786 0.06427409278807908 0.01210281951276428 0.3780124929088546
3044188000.0 0.00016726127040096723 0.40465428013561594 -0.03330376864164715 0.06536698467483462 -0.03335787690386726 0.06531603157869913 0.014624616201043206 0.37945478957269985
3045250000.0 0.0018207547019758609 0.4047730701282458 -0.03148175395356615 0.06631342850463999 -0.03164666083181977 0.06639611184418305 0.017051594395605545 0.3807565799058964
3046312000.0 0.0034592429043887544 0.40478612004520326 -0.029629499076823006 0.06718228709403572 -0.029796232790890765 0.06734406765892245 0.01841564868772189 0.3823576125872667
3047375000.0 0.005079454709912818 0.40511764598691785 -0.027714563046234406 0.06806783109660886 -0.02780872825929121 0.06835554270737756 0.019498906598043864 0.38384186448433927
3048438000.0 0.006607762265437556 0.405094639213682 -0.02574813270329648 0.06887507250371001 -0.025792233023275202 0.06908479308843504 0.020165062091559334 0.3850863063497101
3049500000.0 0.00822933524626617 0.40531561973097824 -0.023743920699882876 0.06961499537165676 -0.02373513549731313 0.06981807698506962 0.020530175670557965 0.3856033516693551
3050562000.0 0.009739584722760123 0.4051838937222032 -0.0217070700695108 0.07024468198680493 -0.021622610875824864 0.07033719323577288 0.020958350650959696 0.38592209844007536
3051625000.0 0.011190290155348951 0.40528458887750907 -0.019639124498250272 0.0707753094844742 -0.019604192933011192 0.07088402784711569 0.02109482403723369 0.3858880957543209
3052688000.0 0.012675063114155683 0.4051791833192221 -0.017590935412291092 0.07116389617260746 -0.017559589024998337 0.07119970599307415 0.02141221727670405 0.3849694092018433
3053750000.0 0.014367346541144597 0.4050689870491279 -0.015442071645334551 0.07154335723656079 -0.015403797806406487 0.07143667578963958 0.022207914898291593 0.3836921153340657
3054812000.0 0.015914195333777435 0.4051801168239126 -0.013374416733897273 0.07172784749332127 -0.01337414133004702 0.07166043081833257 0.023272845161358885 0.3821010593513444
3055875000.0 0.017601262914914026 0.4051423990841614 -0.011217557979697437 0.07185767195924414 -0.01138011697004729 0.07188160799829163 0.024904881362273083 0.38060311711539185
3056938000.0 0.019223329925719384 0.4050538012558075 -0.009116278054368349 0.07198084377440676 -0.009349084046854066 0.07206543678310383 0.026983429561366516 0.37924958997585745
3058000000.0 0.021014804314721785 0.4052759369520362 -0.007032381994709492 0.07204259706460356 -0.007275870344431422 0.07225659095984258 0.02956896729975131 0.377667667607445
3059062000.0 0.022680533356585143 0.40525537540895346 -0.004956464536107212 0.07206688493928394 -0.005299651500260777 0.07248093144727734 0.03205019095518597 0.37651778584995044
3060125000.0 0.024362063617103427 0.40528011557773846 -0.002936622595300171 0.07208612676998664 -0.0031806096988823357 0.07256510818956463 0.03500927351797224 0.3758047465379142
3061188000.0 0.026092293215656218 0.40531149007433326 -0.0009316988777828048 0.0720677217848867 -0.0010929049883978226 0.07267835276321526 0.03849491154733833 0.3756135875454745
3062250000.0 0.027984484492784182 0.4052812602536168 0.0010721383817983835 0.07205342250904109 0.0011045680573682334 0.07269767548973192 0.041393828787882725 0.37556544266405584
3063312000.0 0.029720764566686753 0.40554639278297394 0.00300788122095499 0.0720014289513119 0.0031688267234346573 0.07255063193292978 0.04422676031729891 0.3761860245697288
3064375000.0 0.03155830709160074 0.40547184919636714 0.004919043175334943 0.0718894744376716 0.00528605348523006 0.07240299073913697 0.046918513815299136 0.3772006556661454
3065438000.0 0.03329172499579752 0.40568174015657205 0.006916378030817502 0.07172683189791852 0.007343419326706382 0.07208085729686531 0.04908435609029036 0.3782865817221168
3066500000.0 0.03477041565175497 0.405604266008739 0.00890475322817843 0.07149026330511263 0.009350815696602866 0.07169656800487069 0.05076129301448302 0.3794941657180212
3067562000.0 0.03689027118646094 0.40554999479940956 0.010863332043245863 0.07125147299219321 0.01141751008221208 0.07126750283719281 0.05221180634756354 0.38029493649511975
3068625000.0 0.03859932277185414 0.40546104583454284 0.012838498654003152 0.07088204417141557 0.013246625970702364 0.07078467086872502 0.052948404346703934 0.38099401656949783
3069688000.0 0.04041664025027872 0.40549906686461196 0.014893535878445371 0.07044982301806191 0.015142412342106901 0.07034672732385922 0.0535559745991279 0.3810860403101049
3070750000.0 0.04231349404092431 0.4054852820449148 0.016885963134552703 0.06986342010897406 0.01698507245475375 0.06970424925702044 0.05427331203168512 0.3807410391850186
3071812000.0 0.044169927536439856 0.40531713783247786 0.018879728397712264 0.06919689150294102 0.018755989588348232 0.06905145598905713 0.055040159500607554 0.3797084030301616
3072875000.0 0.046389757581127324 0.40549126928015883 0.02077442198264975 0.06849468636587745 0.020599904037479914 0.06840901346322482 0.05625249304082004 0.3783187007885389
3073938000.0 0.04836272897790458 0.4053621902603487 0.022642002922503342 0.06762380739447099 0.02244676137729724 0.06772345516728558 0.057757642810617196 0.3771097099086649
3075000000.0 0.05035649333531799 0.40545989249354936 0.024494646606986716 0.06668470044287625 0.024272562218982472 0.06684422478810288 0.05976204108655439 0.3754152003703572
3076062000.0 0.05222284695616571 0.40548808503129724 0.02627329543490214 0.06568975808436973 0.026049621633224978 0.06599885888194454 0.062278055488097506 0.37434401454741206
3077125000.0 0.05433129364558472 0.40524466595297004 0.028005140004860676 0.06468605860321325 0.02798527549153046 0.06509956154874698 0.06534261236181972 0.37321868072119185
3078188000.0 0.05631571564894819 0.4051801346515672 0.02964733882659139 0.06364979000079607 0.029820517582088268 0.06408657345164093 0.06881163031225036 0.3725660565291217
3079250000.0 0.05851053073541597 0.40515173043554803 0.03126862352560446 0.06259268842575429 0.03156001385102538 0.06315692219898328 0.07240433779468827 0.3724866499633424
3080312000.0 0.060806412573325266 0.4050829793864542 0.03287443566063975 0.061529719599314345 0.03338819491045446 0.06187661572328864 0.07595394960992598 0.372992372998403
3081375000.0 0.06310105776881746 0.4047903608817039 0.034504839279862275 0.060552446752233965 0.034955102990587635 0.0607418235391216 0.07935377459709932 0.3740681998712241
3082438000.0 0.06485095368477817 0.4046235224344412 0.03607647525699621 0.05940790688851099 0.03656014681333334 0.05959565408612205 0.08271540925789095 0.37511170732468574
3083500000.0 0.06716563196122635 0.4046130730524823 0.0376215401450687 0.0583250397127113 0.03802967901887479 0.05837851552546312 0.08579889182210282 0.3768726923152144
3084562000.0 0.06941030612127727 0.4043100707652374 0.03913929254345123 0.057250988497778516 0.0394529111452078 0.057171751562959575 0.08856864584119727 0.3788802234894469
3085625000.0 0.07177173383915142 0.40408689343503135 0.040631187057104876 0.056149990401974895 0.04104325726691327 0.05606682667228495 0.0906671332424275 0.3810253709928888
3086688000.0 0.073862044790667 0.4038389113825019 0.04210889118650664 0.05493705392367942 0.042200596628205106 0.05485285367857429 0.09245376041391111 0.3831331273043647
3087750000.0 0.07628602724257882 0.4039059253504055 0.04358754371654774 0.05375918374396359 0.04360264532204926 0.05364665824057901 0.09352760188806046 0.38516209928581707
3088812000.0 0.0786151814843978 0.40386890836346573 0.04493999021815408 0.052462356259985986 0.044981307687575606 0.05252668759084334 0.0941388735677244 0.3864988941979131
3089875000.0 0.08103693969801636 0.40382353132058796 0.046263853266826825 0.051134329815460344 0.046307808483632085 0.05120428630931719 0.09455928778803767 0.38731600614123396
3090938000.0 0.08330790710951849 0.4038398627713966 0.047541445994906936 0.04972317681367063 0.04761598330549159 0.049858454092905645 0.09474536299296031 0.3879629114081254
3092000000.0 0.08578426667323495 0.4040236765773261 0.04873775811926983 0.04834577928652642 0.04891428188711669 0.048479917735973856 0.0955820719624667 0.38725564389830874
3093062000.0 0.08813294594533583 0.40427278551931145 0.049879106492164905 0.04683200936421408 0.05011763226968261 0.046988889372764076 0.09599626918225121 0.3862889143808364
3094125000.0 0.09062810383370608 0.40437522399458997 0.050987408718795084 0.045368020120517626 0.05128959574455135 0.045515780480355095 0.09716847161832595 0.38482859761399957
3095188000.0 0.09290250056641013 0.40496277173545514 0.05202635588148119 0.0438710108857068 0.05234003198895056 0.043968489260551635 0.09931670892581414 0.38356362899724766
3096250000.0 0.09544307545837813 0.405153365403188 0.052975412565985716 0.04230911585044681 0.053203037453987086 0.0424086908136813 0.1016082153985691 0.3821894343695862
3097312000.0 0.09780904563232427 0.40560988988841584 0.05393050240474752 0.04074985767087408 0.054206809079134846 0.040814170644174814 0.10457379005833603 0.38106061229329624
3098375000.0 0.10000260897195608 0.40592608796837026 0.05481505660034623 0.039269846047712394 0.05503078839678215 0.03925648747039485 0.10781220830866177 0.3803502879778456
3099438000.0 0.10241713075377724 0.406043845688154 0.055633443535486306 0.03770504426377913 0.05577510914488236 0.03763914398015471 0.11131602613888954 0.38008168847212304
3100500000.0 0.10461413187243872 0.40654358552598036 0.056423738500530764 0.03618198653970468 0.05658352816106361 0.03617798174054242 0.11504818025085534 0.38045201644944243
3101562000.0 0.1072913697372524 0.40691872282679514 0.057246558388543464 0.03461831875064127 0.057395286719958326 0.03465376462755425 0.11813471149912536 0.38106054387850313
3102625000.0 0.10947709864609684 0.4071102845441314 0.058036302551354266 0.0330555519126351 0.05806953325366097 0.03310758772569868 0.1214028242164361 0.3820735186944368
3103688000.0 0.11213006449870597 0.40711722953105306 0.058773290945552385 0.03144187758311955 0.05880220390671077 0.03158950095721082 0.12371578959099014 0.3837302225382552
3104750000.0 0.11458038655404038 0.4072780300883142 0.05949357992213533 0.02984010844692594 0.059536360728884685 0.030006109427759775 0.12591463424681792 0.3846775128382112
3105812000.0 0.11713253429238267 0.4075739978822001 0.06015168784414323 0.028228928182088543 0.060340158355660416 0.028356303481205113 0.1280996214568278 0.38595283085623433
3106875000.0 0.11965238611105629 0.4073431930206669 0.060911988444038744 0.02650932749239048 0.061111488046512605 0.026744132944928285 0.12930953936155942 0.3876993362242575
3107938000.0 0.12216820077750157 0.4072004629227843 0.06143939832522733 0.02490501414310634 0.061704897241902014 0.024957853521837128 0.12987453200455218 0.38822069834708733
3109000000.0 0.1250024202186795 0.40708919666646637 0.062089872214164434 0.023169722147437746 0.06235038891725488 0.023098583918207734 0.13063456359503212 0.38850651872119185
3110062000.0 0.12757077634461086 0.4068750082992242 0.06258639760075779 0.021420850234621577 0.06283927010891555 0.02125953044088004 0.1312439821506108 0.3881782788149528
3111125000.0 0.13005313107962652 0.4066073211164337 0.06303449011496386 0.01960793125536338 0.06323646334828396 0.019420404872254292 0.1320627543277823 0.38703351338354763
3112188000.0 0.13271269764046098 0.40652742981592077 0.06343810789241107 0.017809546817848434 0.06362623723667182 0.01767230633629695 0.1331163646170094 0.38602779332260173
3113250000.0 0.13575163759193573 0.406252005387289 0.06380532336367066 0.016013437629209475 0.06388248732812155 0.015931035386597202 0.1345788392594057 0.38439196022733146
3114312000.0 0.13837418816844563 0.4061705995299245 0.06406683716442162 0.014215040175864014 0.06410650291158708 0.014243356523978153 0.13650941177977904 0.3824713692636658
3115375000.0 0.14120997256664616 0.4058323248201208 0.0643159140284449 0.012402073923437588 0.0642824969847901 0.012431416638203059 0.13892616225785812 0.380496961588046
3116438000.0 0.14374188272173977 0.4055713401460247 0.06448518244795183 0.010677413157706669 0.06446685430026694 0.010854232036704752 0.1418910237202897 0.3788970384667156
3117500000.0 0.14655078675301267 0.4055371141277639 0.06458899132241616 0.00896762388981515 0.06464899929015912 0.009220856081509628 0.14527036807568516 0.3771743204066515
3118562000.0 0.14956721981348745 0.4051731847068927 0.06464414962210081 0.0073085278927278174 0.06471734294378712 0.007591596474846649 0.1489727859962 0.3761493653675822
3119625000.0 0.15227489697863458 0.4051214534873516 0.06472173611186759 0.005674282108861968 0.06498934085111023 0.005999186649389192 0.15305864201198738 0.37552034554355546
3120688000.0 0.15531264928513167 0.40487901870306825 0.06475198867480644 0.0041057460356067905 0.06512985909881902 0.004357188072672379 0.1570887939005016 0.37520583079412234
3121750000.0 0.15824078478523448 0.4045661289110046 0.06470723367792455 0.0024797464990191937 0.06528968113120458 0.0025741305245746866 0.16036682306615205 0.3752624969064245
3122812000.0 0.1609447818778816 0.404552029673092 0.06470429827572599 0.000958525410977196 0.06528213742122797 0.0008822077718615853 0.1640114411295707 0.37567862861176016
3123875000.0 0.16386311887544133 0.4043525553865328 0.06469187615186572 -0.0005847655500096447 0.06535083968558983 -0.0008402536987440319 0.16671716057128855 0.376519867369624
3124938000.0 0.1669066368479784 0.40423487903051936 0.06465381304377885 -0.002222620495046966 0.06524267632284712 -0.0026798636186022174 0.16917958502751618 0.37702016523314297
3126000000.0 0.16976773850618715 0.403996839456121 0.06454322639691891 -0.0037748047353186004 0.06496113743673543 -0.004274189264801509 0.17100332317708603 0.37738082413166396
3127062000.0 0.17239774017008613 0.40396879211785724 0.06441721020631569 -0.0054060044836543395 0.06470843431024863 -0.00605974483285382 0.17248342562152197 0.3773571324962074
3128125000.0 0.17536104617983206 0.4038278366050345 0.06429583388667252 -0.007092220516597281 0.06429120329542953 -0.00769262343213124 0.1736427764695673 0.3771265055218505
3129188000.0 0.17828524611305308 0.4039379581489744 0.06409861283810243 -0.008833517525647165 0.06390990795314104 -0.009260970654071925 0.17503901259725782 0.3760789987277424
3130250000.0 0.18082523521609242 0.4037281918975534 0.06388796901954848 -0.010539744770952193 0.06347677631772115 -0.010751063524311145 0.1761006774847302 0.3749394184052114
3131312000.0 0.18361923379528058 0.40289396908577746 0.0635202037264162 -0.012281342207074128 0.06299656613879383 -0.012486064148865947 0.17761470470447518 0.3730531908372377
3132375000.0 0.18601365280073684 0.4024633169116664 0.0630563173443138 -0.013972812103179556 0.06260481566474406 -0.013889392756457968 0.17894883992511235 0.37074051667253954
3133438000.0 0.18850868634606185 0.4017958669200304 0.0625004164010461 -0.0157590921354474 0.062251375162844326 -0.015455909699065993 0.18131221378488613 0.3681405870290086
3134500000.0 0.19086130159393555 0.40094755022057654 0.06189148068961904 -0.01741946296722158 0.06172896731696782 -0.017059876393298236 0.18401832115805528 0.3653923586259745
3135562000.0 0.1933597752828709 0.4001398250002314 0.0611806974783598 -0.019093353549270924 0.06137999555901353 -0.01862379743806085 0.1876426015125789 0.3626814789902072
3136625000.0 0.1957204789706923 0.39878179183223467 0.060456336944742624 -0.020748673277404327 0.06096259072544555 -0.020301781322837494 0.1915878981055444 0.36000188412854023
3137688000.0 0.19822995661839252 0.39792023690309497 0.05974150361937882 -0.02229449014742296 0.060352608776617384 -0.02188432728191226 0.1960068732131824 0.35861830522043586
3138750000.0 0.20078553458158505 0.3967909807596025 0.05898516244922531 -0.023766265081453724 0.05977686792010771 -0.023637289784655336 0.20051069653916476 0.35709645902899384
3139812000.0 0.2031536338688797 0.39548587267179514 0.05827565742963199 -0.025188132117136566 0.059102711746758456 -0.025276713867327376 0.20519517421779737 0.35669811940919116
3140875000.0 0.20568669212631002 0.39426301352083826 0.05759356879739355 -0.026578132905530846 0.05850233576283881 -0.02689544758857768 0.20955938221754847 0.3567532417547329
3141938000.0 0.20820804073036966 0.3931033741981266 0.056917389851320346 -0.02789222654533753 0.05753854036383232 -0.028415957289665013 0.2136215274355538 0.3569847511560332
3143000000.0 0.2107005186034695 0.3916636638554053 0.05626335982849955 -0.02914578329482847 0.056656504805264414 -0.0298816631638867 0.21675040606265855 0.3579846564649653
3144062000.0 0.21329248075693466 0.39059849475861086 0.05557679991400044 -0.030430138110252403 0.055674433040098066 -0.031227438276123586 0.21930357813125564 0.3583411455644891
3145125000.0 0.21587352198502646 0.38897671018835106 0.054896008005633004 -0.0317156186212464 0.05479611448501286 -0.03253890265532814 0.22141417598399377 0.3591684433271791
3146188000.0 0.21836517832297006 0.38790342105536063 0.05416454684067387 -0.03297329515070299 0.053940032786347104 -0.03369913495298104 0.22286577515442502 0.358864194043299
3147250000.0 0.22108119194271195 0.3862387424245306 0.05337587123109444 -0.034302952572773174 0.052927093517461075 -0.03491198762815204 0.2237540643340122 0.3585418934296658
3148312000.0 0.2232922327665228 0.3850144974576078 0.05252013459351131 -0.03568076893781611 0.05211263112431399 -0.03605431966199682 0.22489728141300175 0.3575554322372166
3149375000.0 0.22612137840019036 0.38323002893179475 0.05163177735243665 -0.037016298749195084 0.05120233293504244 -0.03714057417360184 0.2255430854026524 0.3562736533125685
3150438000.0 0.2287087554342316 0.3816928006238805 0.05075803841026997 -0.03841668017343086 0.050403353144157705 -0.038466300525226094 0.22643170222283956 0.3542481978264637
3151500000.0 0.23123949512812353 0.3800831392018436 0.049677127720353334 -0.03981943084893539 0.04933752724335264 -0.039559690922245636 0.22766749099056777 0.35172478939676066
3152562000.0 0.23371461798221607 0.3784512154861586 0.04852433026365741 -0.04114568379183235 0.04844664476724409 -0.04079322754665562 0.22909365457506659 0.34873743311988437
3153625000.0 0.2363397702699827 0.3765144742836452 0.047395476369289646 -0.0424883481322963 0.04737892877946737 -0.042135971149107034 0.23107445270919058 0.34593872276253285
3154688000.0 0.23895388748315452 0.3750260494779565 0.04616274801064078 -0.04374090814727187 0.04629206981339572 -0.043468954393858575 0.2338476105596831 0.3427708853421111
3155750000.0 0.2415405768169235 0.3734118985962002 0.04487328284424868 -0.04496798484144641 0.04506942936173446 -0.0447724254909818 0.23701052532553035 0.33995363685808866
3156812000.0 0.2438473192878968 0.37173985666731313 0.04354843085191309 -0.04609805094395795 0.04396142058040806 -0.04601848409615464 0.24078163553807155 0.3375128107228201
3157875000.0 0.24612681153623733 0.36996230806261904 0.04230225010337392 -0.047193940899351715 0.042617082659653326 -0.047362982621636567 0.24477343895013748 0.3356792542016909
3158938000.0 0.24887427584003452 0.36829651710486994 0.04099302603818999 -0.04826384305299206 0.041279447532137664 -0.04847314905598826 0.2490761856564673 0.33417338786961404
3160000000.0 0.25109102276834167 0.36667099353425714 0.039676976566032564 -0.04921066210240332 0.04003557947132624 -0.049602905806427816 0.25286774767315345 0.3332767380356322
3161062000.0 0.2534888618122434 0.36481379297704825 0.03836156082662374 -0.0501645555602405 0.038694174781943244 -0.05062068953889337 0.25658480937764655 0.33277553591649756
3162125000.0 0.255569342631187 0.36306481080538433 0.037124152649259674 -0.05108180798089701 0.03732849692692415 -0.051428091788183264 0.25978947382590745 0.33326769277598217
3163188000.0 0.25748563684711306 0.3611674187747349 0.03589619879999771 -0.0519402281654685 0.036076739748318154 -0.05229988417795266 0.26237950370161256 0.33367996842514924
3164250000.0 0.2595311656784656 0.3592641804117203 0.03467540568895663 -0.05280870333210984 0.03474702217960192 -0.05316715219094195 0.2642730752496355 0.33402044236416567
3165312000.0 0.26134192510524734 0.35708515152785053 0.03348233216629771 -0.05364248768634346 0.03336257674157767 -0.053909964337203804 0.26537512071097036 0.3341244775536628
3166375000.0 0.2634420757748159 0.3550197857901474 0.03224512597678767 -0.05447725337782946 0.03225282584429769 -0.05463237886761559 0.2656412495151924 0.33399138989431415
3167438000.0 0.2650277127357484 0.35271775023826524 0.030983441409649436 -0.05526865750903324 0.030784462425538926 -0.05546146806403009 0.2657411608354237 0.3329719491577199
3168500000.0 0.2670888417807164 0.35046916740565853 0.029637480080010624 -0.05607602230973876 0.029494011084087463 -0.056270753440126955 0.2656577561145745 0.33121823966683633
3169562000.0 0.26921079568825057 0.34845903191402694 0.0282677356121556 -0.05681292238244397 0.028162621246521267 -0.057093437086387255 0.26537550595039516 0.32896240490361695
3170625000.0 0.27099531595584153 0.346038107811683 0.02684234864596976 -0.05759259594611096 0.026720795391349143 -0.05773664714132207 0.26570250583336996 0.32580065427297994
3171688000.0 0.27293303540002867 0.3438775132313549 0.025273569904006008 -0.058287139509616274 0.02512860601793249 -0.058592032149281145 0.26624990068736076 0.32220707510283014
3172750000.0 0.27510646214653495 0.34150326620205185 0.023719493213203106 -0.05902866603701379 0.02369275108844084 -0.05913637529313158 0.267302410666108 0.3185751880691713
3173812000.0 0.27725124690621883 0.339441911541333 0.02209091783999434 -0.059672396959086785 0.022043803166354486 -0.05977993655212455 0.2688760166386184 0.31461681057776664
3174875000.0 0.2793057050342161 0.3373498778091607 0.020392186620376496 -0.06038909422816616 0.020421630190725366 -0.06029760692995269 0.27106914251777187 0.31078852829122805
3175938000.0 0.28116739878554464 0.3351231218177251 0.01876047301662032 -0.06091042467391611 0.018849676916518152 -0.060916212127469636 0.2737485176339847 0.3071288901889008
3177000000.0 0.28330619966640364 0.33289911471212547 0.01706332529514955 -0.06151434904035796 0.017150069843080814 -0.06133577324938593 0.276956878419332 0.303863468222771
3178062000.0 0.2856164707248071 0.33109111137805586 0.01539673149987583 -0.06195335449320998 0.015556503586012623 -0.06187350052732423 0.28010348265813256 0.30121567885572237
3179125000.0 0.287359505765106 0.3288017536133862 0.013691422429661504 -0.062414443798111494 0.01384659825255301 -0.06226963827640794 0.28343149931926137 0.29853929645625926
3180188000.0 0.2893937386392329 0.3265439721490059 0.012032520982399266 -0.06275499591098617 0.012220093453127434 -0.0627655777513748 0.2864732997921742 0.2966743976714904
3181250000.0 0.2913429322314386 0.32428005196819076 0.010389819784029865 -0.0630827283327386 0.010629415282346994 -0.06313875062521304 0.28964039894855675 0.29551072353998686
3182312000.0 0.29330454194250644 0.3221028712250309 0.008795732047120208 -0.06341922693409205 0.009028307534647777 -0.06364232972327026 0.29210009816335875 0.2942439886157717
3183375000.0 0.29518141731253333 0.3197625107302562 0.007149735355919317 -0.06364193473997691 0.007408977855496269 -0.06402179590055973 0.29428983068799236 0.2933699020842198
3184438000.0 0.2973081814993361 0.3176285352225034 0.005561864964211636 -0.06389229693265681 0.005719293330012783 -0.06433474798947907 0.29570457153361207 0.29240353731032664
3185500000.0 0.29915246144158847 0.3155378060202254 0.003996490644874206 -0.0640912950957611 0.0040006737471562975 -0.06458918816636768 0.29648524781287405 0.2913312901585079
3186562000.0 0.30095884491600133 0.3134364498628444 0.0024234749631942896 -0.06430305642510854 0.0024466533238286722 -0.0647809516551857 0.29673291525735396 0.28983112534572497
3187625000.0 0.3029182797236669 0.3111742620233868 0.0008146731340060242 -0.06441218270177212 0.0006970231307520525 -0.06493846254792066 0.2968674764089302 0.28752466799366305
3188688000.0 0.30493749594476616 0.3091839106063229 -0.0008192652545410288 -0.06457314278823853 -0.0009768686621896769 -0.06494499036731392 0.2971793070599324 0.2849089138103165
3189750000.0 0.3061988556576759 0.3068220215360298 -0.0024008054305213857 -0.06466240286462387 -0.002726326748179455 -0.06490816487149269 0.29743521223613867 0.2816978225144895
3190812000.0 0.30772025454485274 0.3051034537143363 -0.004038539098671828 -0.0646891876165474 -0.004368610005872533 -0.06485573637133625 0.2981814910599865 0.2782939226822741
3191875000.0 0.30929407642192186 0.30300641407514084 -0.00569557222629788 -0.06469798157686406 -0.006009867183866503 -0.06479598374890026 0.2992281073840921 0.27439079131411415
3192938000.0 0.31091253168279 0.3008407382297772 -0.0074187592859256205 -0.0646076066035603 -0.007674692145911301 -0.06462705488203087 0.30074102554722837 0.2704910819675178
3194000000.0 0.31238719862153047 0.2987420040602309 -0.009152214094233613 -0.06451244940659022 -0.009268490216224038 -0.06451490271008974 0.303084921554293 0.26653907972666624
3195062000.0 0.3139413583521439 0.29661806717112066 -0.010944448371394981 -0.0642915258081469 -0.010987744415636057 -0.0642627955721715 0.305743992601552 0.26279929182677153
3196125000.0 0.31538329612200416 0.29489107585145297 -0.012725778879780278 -0.06401438114575414 -0.012712640209899942 -0.06407143872427001 0.30891439419232636 0.25981354120465816
3197188000.0 0.316775316997864 0.29283365185228627 -0.014499131234611459 -0.06373012620091863 -0.014387080425086258 -0.0638198448774333 0.31237019993631154 0.25709839602283696
3198250000.0 0.31815280732175116 0.2907960234698211 -0.016316250347165454 -0.06334677601519303 -0.01609120726704757 -0.06345050317439539 0.31570627100149495 0.25481304036112895
3199312000.0 0.31966470971093675 0.2887361987235117 -0.018062664606325364 -0.06293438388421678 -0.01789291342111181 -0.06317008784663121 0.31893310375098616 0.2531033542859683
3200375000.0 0.32101923178290104 0.2866100300097305 -0.019844127763883945 -0.062469548404256094 -0.019807771747117 -0.06271369881682883 0.3218898417371475 0.2519480756334846
3201438000.0 0.32254227516537864 0.2845937837498187 -0.021526073375503847 -0.06200215513992498 -0.021568724124114168 -0.062272622241594265 0.3246162761997063 0.2514894214805881
3202500000.0 0.32441692141276607 0.2827900211363821 -0.02319237913205399 -0.0615271000922087 -0.02332959037687751 -0.06192051673810726 0.3266250953602015 0.25079242527256046
3203562000.0 0.3258010137085668 0.2809526453530675 -0.02485046643753801 -0.061033194830343515 -0.025080087694500514 -0.06134016915104278 0.328353737400429 0.2507171420406048
3204625000.0 0.3274225168258841 0.2795411846109758 -0.026440895957661047 -0.060546865129707875 -0.026775563512525462 -0.06077705368274113 0.32930320600720375 0.2503066746034743
3205688000.0 0.3289953035021441 0.27777929116915595 -0.02801077699833295 -0.05993334907160926 -0.02835509605522606 -0.06011250153742428 0.32962285409294123 0.249649950170258
3206750000.0 0.3303479344031963 0.27588294817662895 -0.029556437162359617 -0.0593146035397185 -0.02984116817114415 -0.059349896298399214 0.32934940459093887 0.24811961799311125
3207812000.0 0.33150569402462515 0.2743187721412177 -0.031154632805714462 -0.058675811310079734 -0.03140471911134286 -0.0587117404945349 0.32917215450057413 0.24620324571702573
3208875000.0 0.33311391136938767 0.2727381894349869 -0.03274155781186046 -0.05798284318111369 -0.03295383873077564 -0.057962531280758 0.32906556760480954 0.24367566784480227
3209938000.0 0.33413217260558165 0.2711379298306297 -0.03430591703048382 -0.05727016387030756 -0.03444692545821508 -0.05717082520641608 0.32924125373875845 0.24069567591622293
3211000000.0 0.335345671834543 0.26955646594095567 -0.03586504612485906 -0.05646975355288093 -0.035939710549968695 -0.05648671801230615 0.32978207746101584 0.23763931042468706
3212062000.0 0.33645554342595413 0.2680402368896708 -0.03743002420367489 -0.05560750813473862 -0.03739068597079824 -0.0556064706654839 0.3308593229599417 0.23406713502383356
3213125000.0 0.33738638596600723 0.2665211454551475 -0.0390241220902638 -0.05463390329605878 -0.03889904319803294 -0.054649503590397774 0.332711603352277 0.23088751252129391
3214188000.0 0.33832941744062733 0.26509216754923165 -0.04049703021625119 -0.05365007762173465 -0.040408047113558485 -0.05375018323086302 0.3342658319259128 0.22805762161124915
3215250000.0 0.3390284235891227 0.26331967632408065 -0.041993688392075026 -0.05256022288238263 -0.04193605585961561 -0.052725505493220276 0.33678460563400875 0.22514051554121048
3216312000.0 0.3401919838132323 0.2616740005372959 -0.043511940571139496 -0.051359155292815976 -0.043470643253828184 -0.05165626758369851 0.3392248525439902 0.22330184059451416
3217375000.0 0.34080386645420163 0.2600640315982683 -0.04485191963389493 -0.05016176452867413 -0.044982569663925324 -0.05042160237046038 0.34138780691706677 0.22189277816139139
3218438000.0 0.34168400411738076 0.2585238016274153 -0.04629333820879279 -0.0489047897466961 -0.04643787302731062 -0.049260787345866905 0.34355827296781455 0.220680146799898
3219500000.0 0.34292952271952915 0.25682994016941674 -0.04762629843963864 -0.04758018041234619 -0.04778641574551563 -0.04783326263297047 0.3455982390377721 0.21995764217171862
3220562000.0 0.34371258703187374 0.255086391797898 -0.04894776716739726 -0.04625373560553629 -0.04918298139077915 -0.04643612572689492 0.34701653580113734 0.21996940867956463
3221625000.0 0.34428151982972116 0.25354960785495495 -0.050224183024893634 -0.04485233135778495 -0.05043417686765946 -0.044999208813642125 0.34817191684463983 0.21922075011389
3222688000.0 0.34495829936844485 0.2520028233448949 -0.05149334726206018 -0.0435128755596662 -0.0517150025059503 -0.04360445509367839 0.34862784039381606 0.21927611371827296
3223750000.0 0.34571852104171463 0.25044666198040016 -0.05271196777093342 -0.04210597165508432 -0.05291667822460635 -0.042106552019554294 0.34853938118333966 0.2191980850772696
3224812000.0 0.34685814250370295 0.2488211809628512 -0.0539445079600516 -0.0406606965604964 -0.05403145011677151 -0.04062144630811486 0.34810215335395 0.2183671980016913
3225875000.0 0.3476407580515053 0.24715601975715915 -0.055154319411346665 -0.039217715396775064 -0.055172389335211354 -0.03927484307915315 0.3473290185969622 0.217316184348667
3226938000.0 0.3486183146378472 0.24542659644285925 -0.056253685531254496 -0.03774954909867024 -0.05637006320638647 -0.03777387468880178 0.3461095529193457 0.2158341910503913
3228000000.0 0.3494952303046236 0.24402312292336412 -0.05736459379929705 -0.03619125785480448 -0.05748296438700383 -0.03631248300428678 0.34512400727488135 0.21362067506038906
3229062000.0 0.3505330486523737 0.2423666604985022 -0.05840570745203 -0.03462979337012777 -0.05851693421055854 -0.03470950391711611 0.3441136112744555 0.21054736056603862
3230125000.0 0.3512786315592936 0.24073373428830722 -0.059426359352434496 -0.0330583363113525 -0.05958412180957354 -0.03319447389075948 0.34335887280884614 0.207674679942163
3231188000.0 0.3521621398828001 0.23888011943985651 -0.060428432244618024 -0.03137529946631674 -0.06056169628163502 -0.031489763998590825 0.34330061756545854 0.20413631834839036
3232250000.0 0.3534132422948307 0.23711637606763133 -0.06134746320055788 -0.029738884279479808 -0.061493864362844555 -0.029821018306469698 0.3438047797348277 0.20019305923637415
3233312000.0 0.35440528130985566 0.2354340344580586 -0.06230393581706491 -0.028022549643351994 -0.06238911698472408 -0.028114374735632924 0.3453731569688298 0.19638809195951681
3234375000.0 0.35543359056428697 0.23380951959471066 -0.06320276550207538 -0.026303644215158416 -0.06322698680246654 -0.026361982262512813 0.3472864335137759 0.19296436357290978
3235438000.0 0.35645188901109703 0.23212097829571676 -0.06400028829143588 -0.024536091037683127 -0.06400288109659603 -0.024585648790548014 0.34923646610521947 0.19045562121124834
3236500000.0 0.3577393280123782 0.23059287821460572 -0.06472125023659625 -0.022706909012526148 -0.06482287022851353 -0.022791209008088155 0.35172852208912264 0.18813659964954044
3237562000.0 0.35879881177148487 0.22914329737960046 -0.06546833086144281 -0.020889988075684325 -0.06555186040442355 -0.020976818124638683 0.35402103031791343 0.18682866988916683
3238625000.0 0.3598502474086627 0.22741856636556668 -0.06602580177475631 -0.019064481486667798 -0.06616210859330032 -0.019160055224585772 0.3558979080010377 0.18590029501560126
3239688000.0 0.36074883106724115 0.22573412645502539 -0.06661606887237694 -0.017176647611908114 -0.06669100284858612 -0.017436561331253365 0.3573381477252142 0.18528233604753674
3240750000.0 0.36169136900665916 0.22434962528016741 -0.06706894397257929 -0.015328580226652578 -0.06719993287623324 -0.01559694000769706 0.3581181675164256 0.18467768549785948
3241812000.0 0.36287568688542116 0.22289416846835386 -0.06750328195767152 -0.01342154174999697 -0.06768499152858637 -0.013720431603052786 0.3584878892249494 0.18415742821145306
3242875000.0 0.36374896799810796 0.2216906579286889 -0.06790426543787403 -0.011555427844348645 -0.06805282467455953 -0.011865938614524825 0.3584080973670706 0.1837028082092109
3243938000.0 0.36457056611046157 0.22003114334942112 -0.06819461281651529 -0.009638331392258974 -0.06848331193600793 -0.009821455487231784 0.3579329973985859 0.18260624553285
3245000000.0 0.36532145802782207 0.21854269792963593 -0.06833570340795751 -0.007758347368113185 -0.06868349023628394 -0.007973377962979 0.3565888960031797 0.18090209222525946
3246062000.0 0.36585710883340217 0.21689789921860714 -0.06850632084165648 -0.005876904347654574 -0.06891673517306271 -0.005928937036245447 0.3555228401396371 0.17956767035509222
3247125000.0 0.36638489220896986 0.2150498511858264 -0.06863416888331494 -0.003949281772615531 -0.06909501348768177 -0.003895630745449964 0.3541560671436273 0.17675105481372208
3248188000.0 0.3674159916125417 0.21325177488815003 -0.06865125129546815 -0.0020285673231845453 -0.0691984773119695 -0.001953427847177773 0.3531201853285306 0.17352821682527667
3249250000.0 0.36795259359512456 0.21157715912546804 -0.06873578288671434 -0.00010364366528989575 -0.06909628960222698 3.601199710269241e-05 0.352935722867439 0.1693443868965961
3250312000.0 0.3686363919823046 0.20942519528091358 -0.06871083502011223 0.0017954354780680575 -0.06908451137529067 0.0019888831013898053 0.35258328398291056 0.16486367591462392
3251375000.0 0.36938247556653225 0.20738927129074283 -0.06869217123971423 0.003679453618161251 -0.06897277489022778 0.003900630041236692 0.35316221222608724 0.16066206249253734
3252438000.0 0.37032147287761596 0.20537331114839946 -0.06865516027346844 0.005605438980146752 -0.06880787072753561 0.005867157707974824 0.35473475469489796 0.15592284695575356
3253500000.0 0.37128948332365985 0.20322866336372905 -0.06856571634936877 0.007550042970504656 -0.06863469429640148 0.00778864776246091 0.35692414852809895 0.15124507229496845
3254562000.0 0.3722674716041805 0.20121090659859067 -0.06845043541002108 0.009443622648434773 -0.06838420587858346 0.009630998576627291 0.3596788903355694 0.14752778049944876
3255625000.0 0.3730782654432999 0.19873284152353973 -0.06827711438126687 0.01143843243567082 -0.06816537164291893 0.011636937276372075 0.3630151783360642 0.1442738266716621
3256688000.0 0.3744865432323352 0.19663953630373573 -0.06808730226850589 0.013381203350946738 -0.06793567164643599 0.0134190329348331 0.3663306999379825 0.14154434627491336
3257750000.0 0.37551076741231665 0.194331803316614 -0.06780922964286075 0.015383726679966792 -0.06769037871268792 0.01535584131460003 0.3697364061686484 0.13995677557145786
3258812000.0 0.3767726053586556 0.1921408250771373 -0.06743535118083736 0.017323653248256278 -0.06740716797106686 0.0172725271489008 0.3725276583156341 0.13871505827881847
3259875000.0 0.3781814421745755 0.18964033039162567 -0.06706640951361009 0.019267837752545466 -0.06711700129728032 0.019189731821037732 0.3753751383615199 0.13808497915800952
3260938000.0 0.3792721059148592 0.18727489019594545 -0.06654633405891003 0.021194326161893692 -0.06671549539958382 0.021097444403387705 0.3769561185451048 0.1376933049492632
3262000000.0 0.38099653948180734 0.1846419957566054 -0.06596525053369862 0.02315245033781655 -0.06624437845742125 0.022970100244748486 0.3781171186604566 0.13687805372395076
3263062000.0 0.38211697905121433 0.18177337184684073 -0.0652860523350704 0.02498418653202929 -0.0656067115139379 0.024950606949333244 0.37863317089811854 0.13633275093706784
3264125000.0 0.38368604836914527 0.17927517025475714 -0.06457060252085968 0.02681571965723209 -0.06499157967500874 0.026742608599771525 0.3786190254527837 0.1355750315421203
3265188000.0 0.3850249207670607 0.17694282873388897 -0.06379145966766234 0.0285530491874724 -0.06424869812603098 0.028565643103523785 0.3784309781288284 0.1344506473384719
3266250000.0 0.3867861264341036 0.17419300217628222 -0.0630319436970954 0.030222222117673964 -0.06344353011591082 0.030376935117380703 0.3776556799176328 0.1326102633919409
3267312000.0 0.3880266667754955 0.17166152969249887 -0.06218536583655215 0.03185710669799143 -0.06252721665589879 0.03201604383255062 0.3769722979055844 0.13011887943593042
3268375000.0 0.38994497477913664 0.1692997837554867 -0.06131298533756432 0.03346765980996891 -0.06161530211817143 0.03369178247469602 0.37670164632760844 0.12709156018533346
3269438000.0 0.3913196193750415 0.16687466891545635 -0.06038497290418517 0.035072836444133344 -0.060725091716189436 0.035495463295436076 0.3765709305568406 0.12301328291695382
3270500000.0 0.39280482462010236 0.16454513884593866 -0.05948408317968035 0.03665677578381484 -0.059642629235420595 0.03703648626316744 0.37706898831879376 0.11912126479644089
3271562000.0 0.39444797109484014 0.16207093628914354 -0.05855471314304717 0.03834345838951505 -0.058611256361532256 0.038707891144537626 0.3782272480061453 0.11508997091339489
3272625000.0 0.39564199538415734 0.15947519794929285 -0.05759557213251754 0.0398766373624315 -0.057553896344169644 0.040221328094639075 0.37985818356688184 0.11107247742254116
3273688000.0 0.39729072148903005 0.1571079043101614 -0.05661152090202753 0.041494118741064366 -0.05656640965614936 0.04177281402962276 0.3824375545869745 0.10746272667539286
3274750000.0 0.3983448646162162 0.1548764289634986 -0.05563458376459419 0.04308800320560825 -0.055568146176677456 0.04332693304356529 0.38523415870139793 0.10450463519012446
3275812000.0 0.3995458557571257 0.1523428707652424 -0.05455231970128356 0.04472847647449664 -0.05446809107728232 0.04486461129350102 0.38831086585945174 0.10195204990596372
3276875000.0 0.40086521612147086 0.14984905404779375 -0.05338232004608566 0.04633031135651647 -0.05330655854229655 0.046445173941011816 0.3914532435351155 0.10018934775389464
3277938000.0 0.40183158738236335 0.14728614352904199 -0.052108821868469754 0.04793628202114681 -0.05206008220623557 0.047972660926444144 0.3944476777460698 0.09901924595036166
3279000000.0 0.4027953021309687 0.14463181260710092 -0.05086450358388179 0.049486537007784374 -0.05094539372754861 0.04949516343619387 0.3964995325592445 0.09887008358486096
3280062000.0 0.40412136839698054 0.14185482653785056 -0.049527718455850196 0.05098971749738434 -0.049619346338817275 0.05101248391142163 0.39815051910175664 0.09862005500205755
3281125000.0 0.4050419562246741 0.13894931759939083 -0.04812477483920359 0.052443085095105015 -0.048181014459068985 0.05260090158617935 0.3987303463662777 0.09852582881845168
3282188000.0 0.40626757577844774 0.13617401293168865 -0.04670051520784218 0.05380458056359994 -0.046742945147197144 0.05384297405335138 0.3989473182052771 0.09828054750102568
3283250000.0 0.4073302169997703 0.133177816194023 -0.04520835204808403 0.05511597436291175 -0.04535957812163936 0.05516281050302382 0.398619281356172 0.09783093522896343
3284312000.0 0.408442190518964 0.13036890752107214 -0.043678307775519384 0.05631930125184026 -0.04388597259681318 0.05646668179761005 0.39759460225854193 0.09691867115291754
3285375000.0 0.40965319902512015 0.12739792772518438 -0.04209073514494813 0.05748633963911276 -0.042394424650571555 0.05766288664940874 0.396242972854531 0.09517837710434203
3286438000.0 0.4110734243964019 0.12458452234917483 -0.04053941032176707 0.058631383945694206 -0.040824766897113035 0.058783359643571766 0.3947781701050187 0.09330162298523047
3287500000.0 0.4119820188966514 0.12183329394815459 -0.03890921679758716 0.05968321778327746 -0.039138294336203056 0.059790861703574116 0.39344571365681374 0.09015287579365293
3288562000.0 0.41308703838500105 0.11867672393374538 -0.03730695757402018 0.06063392261117416 -0.03747567282633508 0.06084222698251016 0.39208602895282524 0.0867278630339784
3289625000.0 0.41433060486879364 0.1159071732316067 -0.03569492042296178 0.061631457013807664 -0.035822483499361304 0.06172956565445131 0.3914307729854416 0.08293236469476019
3290688000.0 0.4153767810446123 0.11296766423088893 -0.033992735225380606 0.06255423454500228 -0.03416897914184201 0.06279026643861575 0.39089599309683776 0.07877899706110779
3291750000.0 0.41650631438121327 0.1098690190919371 -0.032221422221101144 0.06350199823691184 -0.032281219601968496 0.06381679455480471 0.39105286808488954 0.07442696793273153
3292812000.0 0.4173123620612612 0.10721321348560217 -0.030441668711601564 0.06437399036057992 -0.03048867488459316 0.0646649503778462 0.3915158130895889 0.07030123607735694
3293875000.0 0.4185910191550511 0.10421497060618058 -0.028649182357539663 0.06523606200889144 -0.028622759997191376 0.06553076913819984 0.39265952819847005 0.0664748574743935
3294938000.0 0.4196083383442209 0.10137740903349299 -0.026828012996105283 0.06615524489767878 -0.026851985604360393 0.06638570653358386 0.39416786402264 0.06282367515364767
3296000000.0 0.4206266313244053 0.09857587540989948 -0.024913962568578783 0.06691000601968451 -0.02495603473444703 0.06721083075258732 0.39539053948559955 0.06005010428487032
3297062000.0 0.42154429119943615 0.0957397781316431 -0.022996232175938738 0.06776254135726352 -0.023024414314367216 0.06790079338539255 0.3970740130991354 0.0571049203121351
3298125000.0 0.42258035515099207 0.09274167787227702 -0.021056079105117143 0.06846655467041597 -0.02114805328871201 0.06861990771688417 0.397715723947658 0.0551683691581622
3299188000.0 0.42347267214199474 0.09009747739569028 -0.019133319585808405 0.06924141286376645 -0.01925620320466532 0.06934741496414243 0.3985384752872806 0.05350891857849954
3300250000.0 0.4242559181251023 0.08743389901122384 -0.01721914674326369 0.06982683566421688 -0.017269007700043804 0.06995694745554315 0.39851710549739017 0.05198902143982794
3301312000.0 0.4252288795587024 0.0849092884113462 -0.015186415732302712 0.07036395929089963 -0.015349434310869691 0.0705163252902672 0.39772125542662934 0.050474996979721576
3302375000.0 0.4263503200641294 0.08240554190933001 -0.01322826137589277 0.07088585136506793 -0.013353689306554001 0.07102133373909339 0.3968430914553681 0.04858686532043473
3303438000.0 0.4269613138058825 0.07979530747413019 -0.011273750572173733 0.07130705746766484 -0.011311188345997326 0.07143039715852273 0.39502736285528495 0.046563003477887305
3304500000.0 0.42780493342373854 0.07731466707676962 -0.009342232347135 0.07161625894740149 -0.009363413992749047 0.07185221129179668 0.393485554846078 0.04379374475263302
3305562000.0 0.4284169730595756 0.07480782587969571 -0.007334948806922231 0.0718959930824995 -0.007365154421119488 0.07224517560045762 0.3919401607000322 0.04032308595363557
3306625000.0 0.4291248824558489 0.07230837354822842 -0.005406727285290451 0.07212085925481028 -0.005329665529568274 0.07246265292531313 0.39077425311004477 0.03697050140382835
3307688000.0 0.4295679566976039 0.07009480445814452 -0.0035019314224383584 0.0722349273887631 -0.0034452244519559247 0.07255270920572655 0.3888415853862378 0.03285169645920203
3308750000.0 0.4301780612439521 0.06724692981318126 -0.0015465315622333776 0.07231316285792105 -0.0015161906520786944 0.07260175318462908 0.3881815182950845 0.028277685613960754
3309812000.0 0.4304205840151991 0.06478749360410926 0.00046041836875589884 0.07239820088921427 0.0004883692175125928 0.07263944116921196 0.388152054102247 0.023420066416602242
3310875000.0 0.4307303065403436 0.062045396392351265 0.0024308193634824003 0.07232151882026641 0.002492018858597536 0.07246292114533007 0.38833482118163937 0.019176877189794266
3311938000.0 0.4309572568521094 0.05968272183406383 0.004378011286079836 0.07220794135195857 0.004433506857708506 0.07234188504624867 0.38839215400066335 0.014502488955316292
3313000000.0 0.4309952245207427 0.056836682048071345 0.006472234992460032 0.07204830315558049 0.006444082351944697 0.07215958289662665 0.38892817288265613 0.009742327941115294
3314062000.0 0.43121181160558103 0.05392134955699962 0.008463533710223393 0.07191153265582653 0.00850693175609174 0.07196471592450013 0.3898878380978527 0.00615789955324718
3315125000.0 0.43142137109059364 0.05136167508670678 0.010492332282703838 0.07166141724345196 0.010498341921209419 0.07184886830099839 0.3913937613278585 0.002459262374263335
3316188000.0 0.43138160235029877 0.048743021800145 0.012524490474846975 0.07134035985060118 0.012516489788138683 0.0715269347235626 0.39232502080694853 -0.00048572172167562285
3317250000.0 0.43121514531974475 0.04596637533477203 0.01461560578402818 0.0709680657587899 0.014511996362471758 0.07117690524509228 0.39312613016817144 -0.002837751919142625
3318312000.0 0.43156991402011347 0.04308315163386897 0.016681242178068285 0.07053939708704515 0.016705996891693584 0.07085950030707695 0.3933157300034212 -0.00520375802261646
3319375000.0 0.43151445994836723 0.04044275780569187 0.01881513673153016 0.0700692841591575 0.018764628119530155 0.07031257449684625 0.393209099615199 -0.006968245576205698
3320438000.0 0.43142164117126364 0.037831497922982224 0.020782907776852686 0.06947756456338658 0.02084628632369863 0.06982636417282827 0.3923989566898287 -0.008670110602977576
3321500000.0 0.4311501925491671 0.035176824290828426 0.02277384112860249 0.0689360109251721 0.022855326735518315 0.06930003558903318 0.39147906421137757 -0.01069742003748861
3322562000.0 0.43110794344917447 0.03250487694766427 0.024784327393520447 0.06823354591216589 0.024914098480279298 0.06859857837822955 0.3894901672501359 -0.012919091461760445
3323625000.0 0.43078985812955 0.029848194927219927 0.02667914400455355 0.06756971724259692 0.02691136427903808 0.06789199075530665 0.3876622776517603 -0.014958631038399917
3324688000.0 0.43046113811230335 0.027400975753379107 0.028591246243883345 0.06686667270262274 0.028760041170435437 0.0671395374665902 0.3858886388278094 -0.0182163007528569
3325750000.0 0.4299756437329601 0.024800636695876194 0.030442585278140255 0.06608612805624921 0.03074338845282809 0.06631124525230117 0.3840035077005371 -0.02197674030531117
3326812000.0 0.42975243487834613 0.022169573403333104 0.032259425575540235 0.06525143529061922 0.03260537107214359 0.06543175802215975 0.3824894729286881 -0.026138748575504533
3327875000.0 0.42925525166735234 0.019925255214948815 0.03402890168590179 0.06445016468773392 0.034311587874851564 0.06447671213535687 0.38133749041775955 -0.030777903660477387
3328938000.0 0.42874090426555594 0.017315782981176316 0.0357732199224963 0.06365710926129604 0.03602438363689644 0.06368369074722066 0.3815647834923306 -0.03488495144014577
3330000000.0 0.42813965055933934 0.014621749766014446 0.037425950967248316 0.06280707066115924 0.03773322150762129 0.06269500462144759 0.38190280323216075 -0.03891175265819861
3331062000.0 0.4274394337193595 0.012141178848925944 0.039174501820699016 0.061820300264088524 0.03932291638761209 0.061873108735777844 0.38279431236816946 -0.04321033342135089
3332125000.0 0.42681889737474416 0.00957633425244127 0.04083626000534136 0.06087530040246404 0.04084316777925512 0.06090103158438873 0.38422299020558576 -0.04635705975261659
3333188000.0 0.42604272387670966 0.0069643649381464215 0.042546855264660496 0.05984451245201877 0.042557971242257 0.05984781822657082 0.38594348286306535 -0.04965330131041
3334250000.0 0.4252000820125122 0.004214431048384753 0.04422288837629363 0.05872122703901136 0.04418965882941749 0.058780121190217575 0.3875015968385008 -0.05190416370587691
3335312000.0 0.4245216360752597 0.0017050469624985114 0.04587866306344174 0.057534670529140186 0.04576042908905455 0.057637101126591234 0.3888758099694536 -0.05349795259315835
3336375000.0 0.42383157673909555 -0.0008463546593701939 0.04751491887487475 0.05628341973999883 0.04757270841314812 0.05646224997665797 0.3901737705560064 -0.05467345439480882
3337438000.0 0.42280017178532325 -0.0034080035892548655 0.04909825035075183 0.05496148550757257 0.0490818883737594 0.05516845420060269 0.3904801316541394 -0.05518613366193719
3338500000.0 0.4219752333572939 -0.0062996624335196925 0.050627889030463856 0.05350670500670328 0.05079247636239273 0.05372327720598298 0.3905044488262467 -0.0555816243001192
3339562000.0 0.4209803103449024 -0.008862077094624134 0.05215427166566529 0.05213922118841783 0.052341833613322834 0.05228767717812404 0.3898704818067417 -0.05581768338585564
3340625000.0 0.42010923736672007 -0.011415059760681074 0.0535993017456426 0.05058908329299695 0.05381075095174818 0.05078629476969342 0.3879775481186944 -0.05632788694994517
3341688000.0 0.4189920953831797 -0.014243912590705076 0.05496566755686381 0.04902138108099522 0.05515435220514121 0.049232951211646704 0.3857163634238498 -0.056811938845890066
3342750000.0 0.4178853623294433 -0.01715830173612329 0.05629296017561454 0.04743848278344656 0.056544716945967195 0.04753400032394339 0.3829995103652724 -0.05798645487661047
3343812000.0 0.41685842197605744 -0.019925201428372903 0.05756306430987523 0.04584981443558238 0.0578348391612137 0.046131390105528414 0.37999103868277884 -0.05988183709620075
3344875000.0 0.41589291739550194 -0.022715017759215625 0.05881317163253869 0.044267304102034 0.05904420170933921 0.04444658038420794 0.37694566023140463 -0.06233021765178709
3345938000.0 0.4147362020874361 -0.025527505502632226 0.05999159302467608 0.04268240599305221 0.06014672657394852 0.042918408052642514 0.37416235310607693 -0.06528449904455556
3347000000.0 0.4137133150091506 -0.02857607696269167 0.06115910667339801 0.04113876656468063 0.061331172851263265 0.04135949884990875 0.37178548400657935 -0.06891151709405817
3348062000.0 0.41283870931564065 -0.03142469912699465 0.06229685217578944 0.039520676507205595 0.06252752403900347 0.03965738890461941 0.37003977662937804 -0.07286609024268094
3349125000.0 0.41169789170809157 -0.034153568584257124 0.06341977737409728 0.03796547464948506 0.06374073729322648 0.038025022430268875 0.36888459390661565 -0.0766718730378686
3350188000.0 0.41043189283244186 -0.03712339915140127 0.06451838312869841 0.03630856516419874 0.06488172516443867 0.03644756582824586 0.3682341860359602 -0.08006237674355568
3351250000.0 0.4097522851536216 -0.039953192499393025 0.06569346534989315 0.03465811841816189 0.0659552384638155 0.03473459472537201 0.3682309501978391 -0.08308785752613965
3352312000.0 0.4087302582055982 -0.042562657056845005 0.06682972960382948 0.03297824061774055 0.06712378954435763 0.03302265436845781 0.3685903907091731 -0.08572578850250186
3353375000.0 0.40751435614704484 -0.04528602265281271 0.06786693309766421 0.031190231617778716 0.06812534434281804 0.031214731629320917 0.3688923871969854 -0.08742803018856875
3354438000.0 0.40664580093614006 -0.04806746568828939 0.06887418040136611 0.0294029504917563 0.06909728239648227 0.029461924006580074 0.36870872086614875 -0.08867562754302406
3355500000.0 0.40521677324896166 -0.05065824053184846 0.06975785490380908 0.027526993370717494 0.06992511643254552 0.027469656400442445 0.3685032927565354 -0.08949340167808284
3356562000.0 0.4040422037377682 -0.05330660442407672 0.07057286112006787 0.025570973105840784 0.0707798990744357 0.02555503316379623 0.36756943211700865 -0.08970758739175913
3357625000.0 0.40272608234108526 -0.05584084130032624 0.07128444131608117 0.02362853115967166 0.0714195467462829 0.0236353530116615 0.36591790169686356 -0.0894185747092415
3358688000.0 0.40161938664518215 -0.05870799132046916 0.07194125770398024 0.02158938112933216 0.07196102537961872 0.02170225929585934 0.3635359050357125 -0.08926068366550963
3359750000.0 0.4000358600391644 -0.061215799308289055 0.0725501649473672 0.019507431066661567 0.07257722539015872 0.019623409110270825 0.3604107457143774 -0.08917390092727688
3360812000.0 0.3985153676908248 -0.06380070080721413 0.07307482324907018 0.017516226378832572 0.07318780415554975 0.017636603803959705 0.35697518172774656 -0.08916138998510294
3361875000.0 0.39730747574143577 -0.06638538515278618 0.07347302094441392 0.01541619259665009 0.07364202425198935 0.015620599315906168 0.3521224079689252 -0.08989144825586776
3362938000.0 0.3959811063528177 -0.06904614704358367 0.0738911870661256 0.013414216251386288 0.07399590072111896 0.013587536657105923 0.3471804271128297 -0.09160948565016688
3364000000.0 0.39426883732444234 -0.07154969040955507 0.07425597403807571 0.011284420330211235 0.07458588818400319 0.011555534236543567 0.3420724707185349 -0.0938416108491939
3365062000.0 0.39288592327396094 -0.07409013814188563 0.07455047751277812 0.009295698435319227 0.074957621687548 0.009477764423401565 0.33778824788639045 -0.09695430450545595
3366125000.0 0.3913794176171056 -0.07677082481002241 0.0749104866494075 0.007209774618484925 0.07524049815827037 0.007444500822549142 0.33366693528691255 -0.1009502012046268
3367188000.0 0.3900215973100089 -0.07927920890784058 0.07510869642330839 0.005129182827016915 0.0755598400779613 0.00528238794200472 0.33046789051209824 -0.10512423193534835
3368250000.0 0.38832869834692907 -0.08192868880779547 0.0753093829606673 0.0030231773429753536 0.07578136222009191 0.0031304078684991155 0.32837472793896405 -0.11057514901800734
3369312000.0 0.38707638819173523 -0.08438216200674567 0.07547862318456526 0.0008906277641138215 0.07583649557472086 0.0008196902588517785 0.32642379773559604 -0.11539375409409056
3370375000.0 0.38564671165692005 -0.0872057844565329 0.0756701389087282 -0.0013420769586733783 0.0761081026393269 -0.0014114241591080229 0.3263506018767115 -0.12007904247952009
3371438000.0 0.38408822184853664 -0.08955010490539954 0.07576090046670227 -0.003440193954283082 0.07617152584219168 -0.003665016001613422 0.3267148542854964 -0.12418486972010415
3372500000.0 0.38252371072612473 -0.09209105358200173 0.07586095839163416 -0.005630069509032073 0.07610852432028714 -0.005853417828906279 0.3279704603718164 -0.1265482569910772
3373562000.0 0.3810284659492916 -0.0943504155288103 0.07578791691360622 -0.007895632636517743 0.07591526912354912 -0.007993495429523203 0.3282565589417734 -0.12916726971379294
3374625000.0 0.3796373451028901 -0.09701866879168691 0.0757960184740504 -0.010057643488480938 0.07580783333157165 -0.010129928248470057 0.3282753068878749 -0.1308805209984085
3375688000.0 0.37833291315793727 -0.09949003829560456 0.07565845539315148 -0.012208793858461327 0.07569628611338931 -0.012151288762803065 0.32869641108343045 -0.13151367947665857
3376750000.0 0.3770582657053453 -0.10189325799154644 0.07553731907287713 -0.014379112996056253 0.07552312470080211 -0.014329936118445186 0.3286220306061624 -0.13185462784760332
3377812000.0 0.3758102134439347 -0.10429139250276348 0.07523002671009418 -0.016527959666258446 0.07523616236638937 -0.016395000955629648 0.32725393445454726 -0.1318286486441618
3378875000.0 0.37457218219405175 -0.1065498542227788 0.07486866305435792 -0.018574229259461 0.07498039772457588 -0.018471572376451077 0.325939317270004 -0.1310868619452063
3379938000.0 0.37355541494003003 -0.10883721851149838 0.0745266010454524 -0.020724856766646486 0.07459930736648542 -0.020590168303982623 0.3227946211954632 -0.13043959778133035
3381000000.0 0.3724360506677458 -0.11097022392582735 0.07400136938355467 -0.02283375865619918 0.07419119743709358 -0.02287126174466252 0.31936272117627695 -0.13074472502320478
3382062000.0 0.37149613667042514 -0.11295099743906363 0.07344462615437675 -0.02498658451338422 0.07366059594621523 -0.02492021373953383 0.31625141457596706 -0.13066976876144037
3383125000.0 0.37042976437685904 -0.1149790467398717 0.0728121545515186 -0.027149615870335393 0.07314564132685374 -0.027075329499637247 0.3119006748268841 -0.13173557697201424
3384188000.0 0.3695268927038448 -0.11692445947460925 0.07204278227121248 -0.02928674086325128 0.07231706189490655 -0.029285670803103767 0.30807016186158304 -0.1338550252686982
3385250000.0 0.3682933212802832 -0.1187867395641824 0.07119346013849054 -0.03146359789118773 0.07150617302500346 -0.031440470789944885 0.3041511755676235 -0.13659022753505512
3386312000.0 0.36731771897617405 -0.1202708907125519 0.07041906353748911 -0.033532761694089405 0.0706541129358346 -0.03371625752198207 0.3011694857228362 -0.13927397217899362
3387375000.0 0.3661894664266388 -0.12181765832508054 0.06955910486727124 -0.035727830526938086 0.06970815277453815 -0.03573247294758876 0.29878240675283785 -0.14277141392580528
3388438000.0 0.36544250969310493 -0.12346715180174869 0.06848221618005833 -0.03776141349103671 0.06870761122669672 -0.03792213577787973 0.297163601856587 -0.14734766368106467
3389500000.0 0.3639938159117901 -0.12487184650597308 0.06748793313326344 -0.039842523013296 0.0675392012494192 -0.03980030353376455 0.2972167412821594 -0.1510975743243695
3390562000.0 0.36308740998017597 -0.12650264628303776 0.06631548983833888 -0.041788958099077865 0.06646489132601029 -0.0418183100375277 0.2977671017735033 -0.15505513675054475
3391625000.0 0.361911924326152 -0.12805531659520522 0.06515414816144705 -0.04374482302904655 0.06545811045328256 -0.043820858490353595 0.299132753538182 -0.15802975083138185
3392688000.0 0.3605567196292309 -0.1295953094938448 0.06396387929210816 -0.045689329247745915 0.06419437428288115 -0.045706519644728744 0.3008266847457612 -0.1604683174867768
3393750000.0 0.35938942323669953 -0.13107088385023444 0.06275170998656306 -0.047565588145405555 0.06298209256506049 -0.047608398368579205 0.3030285630929989 -0.1622032481971651
3394812000.0 0.358197046515694 -0.1325092511261694 0.06153851743141459 -0.049428294933152525 0.06170890263012559 -0.04946345855584437 0.30538307179740015 -0.1626813348057448
3395875000.0 0.35716927835005147 -0.13377765030638075 0.06028354019937537 -0.051275299071943344 0.06054722160822326 -0.05135098124650826 0.30608555033751317 -0.1611742125105528
3396938000.0 0.35579321011323045 -0.1354033737479849 0.05903739406839009 -0.05312479351392424 0.059302083510943196 -0.0533043066927361 0.307290470655658 -0.16042862619447076
3398000000.0 0.35454832759887484 -0.13654431015023047 0.0576694908008236 -0.05498453322029891 0.05798454909237587 -0.05512047898615879 0.3078525940496534 -0.15943222814388944
3399062000.0 0.3534256617650739 -0.1379231467004211 0.05638950247414007 -0.05674871979341453 0.056651570421527894 -0.05700337376920938 0.3062882954017618 -0.15790073577361602
3400125000.0 0.3522842064927388 -0.13927945215737136 0.054900188310921624 -0.05855667472990135 0.05507011985405678 -0.05876195342502336 0.30518601927489153 -0.15597800389095845
3401188000.0 0.35080442979254495 -0.1404000228802344 0.05336499158135282 -0.06018787492583425 0.05354353664662498 -0.06042478964231783 0.30265011700374767 -0.1549711195235254
3402250000.0 0.34954527312386086 -0.14181825237766096 0.051702214979758625 -0.061863958065002736 0.05179152647126676 -0.06199232859653301 0.29993278367379655 -0.15434649418848181
3403312000.0 0.348035523646385 -0.1429400282081251 0.04996374792446659 -0.06343309355607404 0.04992111962680954 -0.06357422118380052 0.29680967033390665 -0.15387194193589868
3404375000.0 0.34680068112865947 -0.14453416512575848 0.04807706552390503 -0.06501269823339735 0.048021715980917326 -0.06517447615666094 0.29371213411378927 -0.15484914799744817
3405438000.0 0.3453878803974205 -0.1456305389282372 0.04611276666411727 -0.06644811187286367 0.04610172978177406 -0.06650746061885754 0.2905272271164721 -0.156177036001047
3406500000.0 0.34412694609677935 -0.14719405419724932 0.04401295761992116 -0.06785460920676534 0.04409242375652475 -0.06796438674251606 0.28797191407048367 -0.15803870147310162
3407562000.0 0.34291487907920254 -0.1482981169825544 0.04200428635455841 -0.06915299868457209 0.04213020076015584 -0.06916306965020941 0.28567213630279437 -0.16066264596708943
3408625000.0 0.3417524619669658 -0.14976704425361784 0.03983060188978114 -0.07039254587443523 0.04001558252863112 -0.07044487915042806 0.2841294072506951 -0.1627850104517591
3409688000.0 0.34071898504925335 -0.15110676388230462 0.037749175959925316 -0.07151714754926163 0.038031214109217705 -0.07158155015944434 0.28338189482535503 -0.16543430339318
3410750000.0 0.3396762383800729 -0.15228705251372293 0.035640004096174564 -0.07264070567965472 0.036040026076088284 -0.0726859592195379 0.2834564680540985 -0.1672090522248347
3411812000.0 0.3388072543950715 -0.1533195677836611 0.03355534805279124 -0.07363779224748204 0.033913332356014306 -0.07385783384600574 0.28380584839958806 -0.16893678435304316
3412875000.0 0.3379327637584875 -0.15452146799976754 0.03151098796994061 -0.07466308080749681 0.03190193430761069 -0.07492443003365884 0.28452599671923856 -0.16976348667138352
3413938000.0 0.3367970267910794 -0.1554909600611497 0.029416202651649057 -0.07559390251840419 0.02971820877138619 -0.07595934947771811 0.28461681100585684 -0.17001914982010133
3415000000.0 0.336054586454976 -0.15676262087091397 0.027259835708419212 -0.07654398108119775 0.027519575567504572 -0.07693025121504794 0.2848452688950719 -0.16979408089041442
3416062000.0 0.335087724441629 -0.15742710475375568 0.025129810464688842 -0.07742922426476155 0.02532416420121536 -0.0778943004796814 0.28500418267023425 -0.16904770482153997
3417125000.0 0.33411405344973544 -0.15800854943922232 0.022978168867111147 -0.0782451565583716 0.023001230408743818 -0.07882822248298293 0.2839619839507498 -0.16781478180454962
3418188000.0 0.3327189999468448 -0.1590828709948332 0.02073991190925533 -0.07907775496253305 0.020560036847270886 -0.07963581622932292 0.2825166025540901 -0.1667563521320956
3419250000.0 0.33175553092137894 -0.1597885757707362 0.01849457206723191 -0.07984903610179192 0.0182420577615938 -0.08030578201813679 0.28043787366802586 -0.16580425656610956
3420312000.0 0.33034352286549284 -0.16069748595050357 0.016116417143702242 -0.08045786805807383 0.015900563786098342 -0.08077866412383111 0.27776167068566904 -0.16491720478228247
3421375000.0 0.32929571128868546 -0.16150256783052805 0.013787461781396632 -0.08112274676009067 0.01357864113478725 -0.08126533839812608 0.2748060566956508 -0.16437171461919697
3422438000.0 0.32787735554929326 -0.16246345971606016 0.011368151067767611 -0.08162859438087598 0.011210073793190011 -0.08156557548449268 0.27158741258470614 -0.16477688946379032
3423500000.0 0.3266842137961643 -0.16341636376613938 0.008978469613000339 -0.08190815963824186 0.008985659129519834 -0.08181781395399837 0.2681264615768782 -0.16563419264092452
3424562000.0 0.325288963247869 -0.16442445500452088 0.006547991939929522 -0.08223030183944381 0.006741801542852296 -0.08207238249483118 0.26479366403792115 -0.1670429655919328
3425625000.0 0.3241204913092799 -0.16533918080047286 0.004120426598613911 -0.08230596614072988 0.004401292013760688 -0.0822005070295061 0.261790188834898 -0.1687938687689767
3426688000.0 0.32261070645659473 -0.16645734094627018 0.0016427201584452026 -0.08227897870185584 0.002066991131710865 -0.0824232665762549 0.25928531897961915 -0.17140862859203398
3427750000.0 0.321164799208947 -0.16761044573424497 -0.0007801687147264694 -0.0822446105573548 -0.0003112005648659016 -0.08249882849801433 0.2573230450862462 -0.17394164703924486
3428812000.0 0.3196814715151486 -0.16873342521392898 -0.0031605396306795676 -0.0820360860864194 -0.00275703210309427 -0.08251793690804528 0.2557241108868554 -0.1764036947603061
3429875000.0 0.31836007132092403 -0.17003952739732228 -0.005566010568041401 -0.08190537566686405 -0.005289154711281951 -0.08262579176550534 0.2552705137091617 -0.17941558528084264
3430938000.0 0.3168510818613395 -0.17127430441695343 -0.008019465920698427 -0.08167419079821256 -0.007847108306989554 -0.08241945920456963 0.25489513672204206 -0.1814616147795828
3432000000.0 0.31533755836262595 -0.17251970327810098 -0.01039451183796858 -0.08136867252203432 -0.010420641123707945 -0.08224330999275305 0.25512482897872435 -0.18305893470696566
3433062000.0 0.31388244137033694 -0.17380903812886309 -0.012773498438501422 -0.08101235723895221 -0.013014326764536547 -0.0818375486525589 0.2547296202199812 -0.1840757654621509
3434125000.0 0.3122438822330104 -0.17506280479977937 -0.01516469403726499 -0.08063391331567457 -0.015456117507679574 -0.08140496344473683 0.25476838089897597 -0.18480020721204649
3435188000.0 0.3104639595044066 -0.1764846169286547 -0.017462530834821417 -0.08027770845097375 -0.017870336974445296 -0.08072152561471269 0.2542963468995685 -0.18478740760615273
3436250000.0 0.3090464659509615 -0.17809116549061593 -0.019894386853404326 -0.07985595699817988 -0.02044722690574766 -0.08010930602966325 0.2533050481346093 -0.18491611801597987
3437312000.0 0.30729367741722347 -0.17960161844258374 -0.02227717537400242 -0.07927014395673586 -0.022753478280092262 -0.07928152051203217 0.25172847102024143 -0.18458723682146638
3438375000.0 0.3058012185074817 -0.1812484368259001 -0.024676164767843595 -0.07867101404101336 -0.025127343965770335 -0.07869331699264497 0.24977001339461447 -0.1844471862625493
3439438000.0 0.3042405316306988 -0.18290994334550328 -0.027065987819562636 -0.0779904308501518 -0.027410082490589262 -0.07788274244282818 0.24730356180097646 -0.18449514953439433
3440500000.0 0.3026793648100437 -0.18469890301354783 -0.029416352491481303 -0.07723256118056658 -0.02961963729350134 -0.07713005738793335 0.24452608068496806 -0.18522213071458
3441562000.0 0.30119662741165276 -0.18654709816921952 -0.0318064315086864 -0.07639370923166897 -0.03174919165543795 -0.07625305612720046 0.24150334968458587 -0.1866092569812109
3442625000.0 0.29956974172252837 -0.18804196905294418 -0.034122773409777644 -0.07549885782625959 -0.03406407366573159 -0.07551923632097504 0.23922283785421236 -0.18833683964269343
3443688000.0 0.2982219586661984 -0.18999086719540437 -0.03639382392705508 -0.07447826497893723 -0.03618422440935811 -0.07452316604827428 0.23649476825118432 -0.19044543389826027
3444750000.0 0.29661187723133003 -0.19170010450284192 -0.03863023067874852 -0.07334285845616609 -0.0383071306958897 -0.07366025459272917 0.2344820141372519 -0.19291336002856768
3445812000.0 0.29495796948903785 -0.19307385723834897 -0.040863261774846955 -0.07217824182068895 -0.040485858997769436 -0.07267044777803729 0.23269271752465087 -0.19631170483197863
3446875000.0 0.2934420750046609 -0.19478058550569963 -0.042969948790282916 -0.07092249324744529 -0.04275217027566089 -0.07157682814108604 0.2317760978615058 -0.1995270383754829
3447938000.0 0.29163453845311826 -0.19621012706685553 -0.04501255081432624 -0.06961122008112994 -0.04492680562451851 -0.07023200583512426 0.2314473931754281 -0.20289641975218808
3449000000.0 0.2899429534279347 -0.19777109065603699 -0.047054154680221394 -0.06820468343296561 -0.04714681819356783 -0.0688315875291891 0.23187388635207215 -0.2060833836577489
3450062000.0 0.28841439022660226 -0.199616141058947 -0.048915301634380355 -0.06680469400077485 -0.04930371776560369 -0.06738238056311381 0.2325138290392629 -0.20860294990326805
3451125000.0 0.2866712906204118 -0.20118683093578224 -0.05085895197209447 -0.06530930974493646 -0.0512934377108725 -0.06582682844575505 0.23372433802605874 -0.21073481320446094
3452188000.0 0.28494578705876245 -0.20282620185874603 -0.052653450918664836 -0.06375110795217605 -0.05323574480902482 -0.06404401330034788 0.23503961275438146 -0.21154815259849574
3453250000.0 0.283122064990236 -0.20427798963231875 -0.05445795914317286 -0.062139623281675674 -0.0550452788787468 -0.062429050600877736 0.23591942214431397 -0.21236999434869056
3454312000.0 0.28132793255725674 -0.20611371757476715 -0.056227058474839296 -0.06053770599717639 -0.05676016510399286 -0.060634898526885264 0.2363513224134351 -0.21265651412760048
3455375000.0 0.27950832386437807 -0.20783807221536524 -0.05795439702842873 -0.058849876196908166 -0.05834084916079226 -0.058820667766294375 0.23644316535252569 -0.21211870917175932
3456438000.0 0.2776003142282538 -0.2093818420856302 -0.059614437148580945 -0.05717456544917811 -0.059992583989195394 -0.05713734163587346 0.23561145657776347 -0.21167854027987335
3457500000.0 0.2755997011166694 -0.21120672199365384 -0.061266191464415296 -0.05538905618817426 -0.06156198471313626 -0.0554075168238696 0.23435304485468203 -0.21121923196627176
3458562000.0 0.27379610765334034 -0.2129830186069097 -0.06292675487086102 -0.05356421922081131 -0.06309185724847662 -0.05354873342913903 0.2324730655039109 -0.21081464330519098
3459625000.0 0.27205935450143953 -0.21493051959124715 -0.06454593404163152 -0.051773444878032336 -0.06467630831526937 -0.051849887643488364 0.23022148363924147 -0.2109757680213325
3460688000.0 0.26983011798595724 -0.2167692636961756 -0.06606170638846781 -0.049839364508474746 -0.0662701548510611 -0.049877349137939016 0.22756503015530463 -0.2118183405370305
3461750000.0 0.267995092555534 -0.2182847630830952 -0.06762422543907205 -0.04787698823289115 -0.06766972294761772 -0.047933505781828575 0.22493232364526533 -0.2128168882323926
3462812000.0 0.26591707126421593 -0.2199278400218212 -0.06910343149845534 -0.045841109407498006 -0.06917772827341237 -0.04595177479977264 0.2225168848022513 -0.21448474202671772
3463875000.0 0.26393809004744256 -0.22174133469591295 -0.07049138896480348 -0.04370745214359736 -0.07051158166741658 -0.04385317168582164 0.22021225207315048 -0.2168680117875492
3464938000.0 0.2624100205714352 -0.22358592836355307 -0.07186684528906882 -0.04156145882586857 -0.0719235533741602 -0.04171536197091124 0.2186130550045427 -0.219423492804244
3466000000.0 0.26040119330959843 -0.2254142480750667 -0.07311937682831059 -0.039314559794682805 -0.07321122915851465 -0.03956763259974055 0.21733238755018278 -0.22216990299028175
3467062000.0 0.25857936259317826 -0.22711108490209322 -0.07420526022743944 -0.03705849127394589 -0.07442013261149304 -0.03730974628530747 0.21682198564917682 -0.22492186913095785
3468125000.0 0.2568374516361301 -0.22875638391663541 -0.07523838507595058 -0.03487922706174359 -0.07547615913925387 -0.03520728919570348 0.2166707151413409 -0.22755266802663798
3469188000.0 0.2549960455344064 -0.2306701835676282 -0.07609223491359901 -0.0325686813248163 -0.07642841548783993 -0.032986135401536394 0.21708360752792974 -0.2294255991451231
3470250000.0 0.2533663427370272 -0.2323205678803308 -0.07691669366401167 -0.03041874184159869 -0.07710636280880985 -0.030758726954776702 0.21767426469460344 -0.2309723434299729
3471312000.0 0.2515188383959302 -0.233904992087525 -0.07762248964250054 -0.028136329977349148 -0.07801858956552384 -0.028517840110334508 0.21832339438360163 -0.23155220535244514
3472375000.0 0.24987063872628182 -0.23580299902100768 -0.07814076701387682 -0.02594921667025989 -0.07859032478638656 -0.026265223261453047 0.21847180281793743 -0.2314357343613768
3473438000.0 0.24803615955148756 -0.23725375235084967 -0.07870201845876085 -0.023784353709102264 -0.07916120811198606 -0.024086768114296456 0.21839482203230065 -0.23078198077848341
3474500000.0 0.2463921915648399 -0.2385140104230496 -0.07922617892309602 -0.02161324509408733 -0.07984319976151588 -0.021767905971957154 0.21757555928658204 -0.2295370587121661
3475562000.0 0.2446162197499142 -0.240221043585073 -0.07966914074071901 -0.019366375139681202 -0.08022505200289468 -0.019524839093658767 0.2157501892162312 -0.22792961040203355
3476625000.0 0.24296460341242768 -0.2414483518319202 -0.08009826410915032 -0.017152841438430527 -0.08073117652228726 -0.01713979397252347 0.21326996989426678 -0.22652147007002713
3477688000.0 0.2411282854360129 -0.24295834985963388 -0.08054867087137568 -0.014910469636888827 -0.08097973467876307 -0.01492003620994187 0.2099855302031348 -0.22571461087280364
3478750000.0 0.2392681180255757 -0.24401523974790895 -0.08093652254810371 -0.012671636274230754 -0.08139660110646944 -0.01259419240722355 0.20633735929633434 -0.22519933283566507
3479812000.0 0.23748096128811993 -0.24524280180357086 -0.08115893665616639 -0.010347956487037239 -0.08162291465257478 -0.010165826417960142 0.20197057171241642 -0.22526086811743984
3480875000.0 0.23549725781202574 -0.24645862932454626 -0.081453592576542 -0.00797945223501842 -0.08176657948730463 -0.007787624773770199 0.1976032964051117 -0.22637695900955718
3481938000.0 0.23388971774405196 -0.24757945754026311 -0.0815962979301922 -0.005551971828842839 -0.08187014858539121 -0.005402857370233218 0.1936150834289142 -0.22853820717441603
3483000000.0 0.23188188103713486 -0.24850824541415367 -0.08174430550233246 -0.0030901093216807955 -0.08181348519382968 -0.0029083521794329233 0.189787779856177 -0.23092138676143162
3484062000.0 0.22986465286409147 -0.2497393994829728 -0.08164012894648018 -0.0006233424357125 -0.08171077571426821 -0.0005102519220098355 0.18653030256909603 -0.23379935097885052
3485125000.0 0.22792963807788977 -0.2508317553176834 -0.08163214067975702 0.001855155867644215 -0.08171753488333713 0.0018417335216166686 0.18422071595433498 -0.23728174634642615
3486188000.0 0.22609538024489667 -0.25184383264344246 -0.08149192367544335 0.004289239517353404 -0.08152604264037171 0.004075450972701982 0.18192375428571675 -0.2411811912775616
3487250000.0 0.22401301059270315 -0.2527845467495113 -0.08133041205082979 0.006633324117983633 -0.08147321637037379 0.0064473122935408255 0.18092430918821326 -0.2440631607695457
3488312000.0 0.22192454339754353 -0.2538857483233612 -0.08113989840466695 0.009037736785600303 -0.08129200616771819 0.008769892580371716 0.18027282036944567 -0.24733795164629194
3489375000.0 0.2199899552257815 -0.25467021064878137 -0.08075444067819769 0.011252054507858137 -0.0810193970213094 0.011001156617349399 0.18033770802985202 -0.24958904972933468
3490438000.0 0.2182798931595216 -0.25549264286493295 -0.08041793070136817 0.01345976904003455 -0.08073996177573138 0.013282260989475424 0.1808658623398627 -0.2508195858510699
3491500000.0 0.21640022320733845 -0.2560449095172383 -0.07992754547370522 0.01564494119137173 -0.080429117614914 0.015330315931236554 0.18064371512457475 -0.2518212352005905
3492562000.0 0.21431223895119755 -0.2568576263167685 -0.07936467599421851 0.017787453147131538 -0.07991447935522174 0.01781341413693306 0.18146977577245646 -0.2513822711794777
3493625000.0 0.212429283285868 -0.2574502959014351 -0.07885291684601865 0.019885211950642395 -0.07940174529613502 0.019827897901869198 0.18072214507650555 -0.25065779632635904
3494688000.0 0.2105269945055795 -0.25808861922770776 -0.07816431384828448 0.022028897725597286 -0.07869785479132238 0.022151534154501027 0.17924096279129406 -0.24870608223805044
3495750000.0 0.20840474177770474 -0.25842933484545155 -0.07737426487467565 0.024070763680135724 -0.07785986734904295 0.02423630817167689 0.17634484938351805 -0.24694697302013568
3496812000.0 0.20670321601510422 -0.2590261120359832 -0.07664215717423173 0.026243231697161667 -0.07714492415006055 0.026478160797221366 0.17262257392657834 -0.24561896117170007
3497875000.0 0.2047493496838484 -0.2593166706173072 -0.07575444256249479 0.028325624937311018 -0.0760857073965978 0.02856206089960899 0.16897817337574778 -0.24393423418668825
3498938000.0 0.20278435545597467 -0.2594987214260707 -0.07489835655848323 0.03035279259230625 -0.07519067242164444 0.030641567490370048 0.16364367548966352 -0.24305778898197114
3500000000.0 0.20084957238472556 -0.2596037315090536 -0.07395632183241652 0.03236117863498546 -0.07421131334916697 0.03249274056340097 0.15878204993573025 -0.24324192379939014
