! Created with skrf 1.9.0 (http://scikit-rf.org).
# Hz S RI R 50.0 
!freq ReS11 ImS11 ReS21 ImS21 ReS12 ImS12 ReS22 ImS22
700000000.0 0.15887225183030956 -0.832347267110223 0.0419925106247111 0.04245240270116846 0.0407601724396149 0.045717566141480245 0.15016919434537698 -0.8304935040770061
700687500.0 0.15343286966630737 -0.8317511817594332 0.04287255021319171 0.04141611680501383 0.04251004836732259 0.04483401520353644 0.143832756079482 -0.829827554134249
701375000.0 0.14696744612234866 -0.8311079915678576 0.04380528224161267 0.04046312541933498 0.044207378564554374 0.04380220347615748 0.1364648523017102 -0.8289772967685595
702062500.0 0.14128094776228603 -0.8306919435185477 0.044705613083085245 0.03953187705233413 0.045850961829708034 0.04261093031997636 0.12963321762796787 -0.8287174298316621
702750000.0 0.1350682487468557 -0.8300879649375068 0.045533107847586414 0.03865433038511844 0.04740445177772997 0.041346883770213956 0.122524261621189 -0.8282009459178853
703437500.0 0.12919553198980813 -0.829644446345194 0.04638701052930138 0.03792921477973033 0.04887355047767398 0.03993245339029148 0.1158544995712971 -0.8283078136934025
704125000.0 0.12276403806970664 -0.8292018135743551 0.04728805658273354 0.03704627532226014 0.050109758719491096 0.03853638474437456 0.10942096774007126 -0.8282675390166512
704812500.0 0.11694252140337284 -0.8286275500294596 0.048245510065542195 0.03638322014051574 0.051254937156986057 0.03698244752104606 0.10282940421736778 -0.8282342346546742
705500000.0 0.11097270497322291 -0.8282065717321945 0.049232924337376915 0.03559471403413136 0.05221789790556177 0.03547400678396548 0.09647943148797539 -0.8286223062388706
706187500.0 0.10512413144152778 -0.8277580702262421 0.0501910741762873 0.03490532447686933 0.05309276673172482 0.034054304238233316 0.09035568193052786 -0.8290375361879068
706875000.0 0.09940612193051453 -0.8273193216376915 0.05123717173022586 0.03418250038608394 0.05376761711292811 0.03267670459560302 0.0847096156832676 -0.8293980118329978
707562500.0 0.0935493668217773 -0.8268065084081442 0.0523698885091736 0.0333632310182785 0.054453330654889 0.03139720588700875 0.07875126301359911 -0.8300388837539737
708250000.0 0.08771892914525667 -0.8263352134643357 0.053541488179867924 0.03260602468103762 0.05500402187885184 0.03019083858102348 0.07322441483609197 -0.8302330960711217
708937500.0 0.08228551696694168 -0.8256086049452733 0.05472886129467901 0.03175260819616748 0.05558975587990259 0.02909738869246379 0.06806835416715099 -0.8305640204519426
709625000.0 0.0764441103719339 -0.8253407571802694 0.055991263256191054 0.030804892276915 0.05623653957761916 0.02810567079570777 0.062374706205550634 -0.831052044645867
710312500.0 0.0706684742197467 -0.824581654318102 0.057219581211740755 0.029828934753544662 0.05691318214999434 0.027220609048104978 0.057257435429217046 -0.8312360222631708
711000000.0 0.06574163000661942 -0.8236990735184745 0.058485597290939134 0.028760359186040915 0.05763049155964388 0.02637603714662466 0.051933350687359894 -0.831220775478266
711687500.0 0.060036509565576615 -0.822946027654861 0.05977882916980177 0.027585731272488208 0.05846403533970436 0.025551861247742422 0.04724401969156229 -0.831089086152277
712375000.0 0.054678799682658055 -0.8218683107635929 0.06104027668505778 0.02637757283526764 0.059378814431768415 0.024698013183131168 0.04227145726647259 -0.8304343695646738
713062500.0 0.049266291533364925 -0.8209914437311823 0.062245268624907875 0.02504348441519011 0.060424856247381774 0.023830344278792843 0.037271105554987444 -0.8300394124405832
713750000.0 0.04361221271146687 -0.8198574928861246 0.06357787863326439 0.023582421037270717 0.061523482480480576 0.022880263970715208 0.03223773530180239 -0.829234958694218
714437500.0 0.038450889191328816 -0.8185576174588558 0.06463942056511834 0.022066104054039887 0.06267193544090996 0.02184376051757191 0.027240059497881886 -0.8275408648568086
715125000.0 0.033286205956760746 -0.8173363519381702 0.06573763118865512 0.020471189818211385 0.06386844348030245 0.02069025834304277 0.022161618398881967 -0.8257597053062542
715812500.0 0.02829865369465871 -0.8158057762075855 0.06681730839989897 0.018823629485128758 0.06507908480045496 0.01936804735883274 0.016070869831704245 -0.8239937740703627
716500000.0 0.02332793589885582 -0.8140569498384546 0.06774201826300347 0.017113806384311807 0.06629306859515631 0.01801613021001364 0.010480943390329787 -0.8217460973913854
717187500.0 0.01808071481760912 -0.8124280028119025 0.06860375977775311 0.015378222953719538 0.06746537048409926 0.016482061693637206 0.004569980902460525 -0.819237114446696
717875000.0 0.012934684025914266 -0.810206102406231 0.06943074274931281 0.013632671710819007 0.0685821248856871 0.014805279690539607 -0.0015760681321771134 -0.8166487489242309
718562500.0 0.00783397294841687 -0.807929025875459 0.07006513417608401 0.011903302438087912 0.06955324156896826 0.013089332715181428 -0.007847060401979545 -0.8135819005440453
719250000.0 0.003151465253942411 -0.8055648170040366 0.0707076721113941 0.010206875024127942 0.07049514784746586 0.01136861659582452 -0.014065153142834064 -0.8104648357334479
719937500.0 -0.001903052220868975 -0.8033286451941711 0.07133727166698059 0.008501376320988865 0.07133955266584606 0.009557734871865252 -0.02106171648675603 -0.8073392262226854
720625000.0 -0.006725723568630597 -0.8006487849669659 0.07191168238361123 0.0067680723328933405 0.07209467860726855 0.0076731146236969855 -0.028041836439775814 -0.8041424997693439
721312500.0 -0.011343763232292706 -0.7977385345023329 0.07242522724993596 0.005080217164547549 0.07276121121724327 0.00582521788516328 -0.03483444842123551 -0.8008375889676005
722000000.0 -0.01627470992342325 -0.795017953777638 0.07295055073271205 0.0032932556565430818 0.07344545909019819 0.0038136613019847357 -0.04217338289403555 -0.7976010584136082
722687500.0 -0.02103437585343867 -0.7926674359020925 0.07347433956941009 0.0014354634007030002 0.0739301743737115 0.0018039718439033705 -0.04923420503785378 -0.7948259100398128
723375000.0 -0.025820150483272346 -0.7899487069155539 0.07374832206291448 -0.0003960387234554585 0.07423162871529541 -0.0002043297726607367 -0.05708912777488925 -0.7921575476920146
724062500.0 -0.030901867811603978 -0.7872763837298055 0.07396327536700739 -0.002200515288842641 0.07436090219551614 -0.0020473538506560218 -0.06441311542542297 -0.7894507754297583
724750000.0 -0.03633847795180481 -0.7843837596126616 0.07415260372083256 -0.003788261418864229 0.07451415234195498 -0.0037291524414754056 -0.07142615858891065 -0.7867523191059421
725437500.0 -0.04142190847735307 -0.7809746575897548 0.07440251942635609 -0.005319630065644182 0.07465500938009853 -0.005300716745970874 -0.0784368038223992 -0.7841596287094096
726125000.0 -0.046573611467866934 -0.7779852337603637 0.07471114584061314 -0.006839808906312493 0.07492082544815334 -0.0068235904302887075 -0.08540853047100862 -0.7822353055612955
726812500.0 -0.0518982906582253 -0.7746022603194418 0.07512214405905551 -0.008419102357850414 0.07526057964415801 -0.008322706029211962 -0.09193162048481733 -0.779924908828092
727500000.0 -0.05673178982345602 -0.7709647501028809 0.07552580393407853 -0.01000903233655348 0.07567855196007078 -0.009873397019659958 -0.09859729037772492 -0.7780701092134353
728187500.0 -0.06123402336147279 -0.767648984505581 0.07599376023203472 -0.011685874187373024 0.07614857327291207 -0.011449966762156458 -0.1049471490722766 -0.7760732115984986
728875000.0 -0.0663685397077788 -0.7643910051954804 0.07645727443901887 -0.013358772350868907 0.07665877221261859 -0.013172250447564105 -0.11112602809209846 -0.7744089818779091
729562500.0 -0.07134821539002441 -0.7611384406064473 0.07693659926705818 -0.01521449412569829 0.07720693628418218 -0.014929192860792459 -0.11687414890275138 -0.772836292759212
730250000.0 -0.07635231082872213 -0.7578018572960862 0.07737090586644249 -0.017178457020324597 0.0777142227173592 -0.016936801303061036 -0.12255333521489904 -0.7710805501654955
730937500.0 -0.08130903778673264 -0.7546434652253595 0.07771668438100131 -0.019225156610875444 0.07812697757990159 -0.01902022390502931 -0.128341605747309 -0.7696347198375179
731625000.0 -0.08645251312347754 -0.7514575689978389 0.07809956595428726 -0.02129964121181716 0.07855414572191625 -0.021244876699754674 -0.13377689369654933 -0.7682094572031486
732312500.0 -0.09186677616170437 -0.7485971895059658 0.07823300563646604 -0.02338644317980227 0.07882823668558854 -0.02354452098142991 -0.1388751070923434 -0.7665170732701182
733000000.0 -0.09695031535407747 -0.7451348293703276 0.0783322619383471 -0.025637356209458805 0.07893971483460174 -0.02584012013634589 -0.1437816047997302 -0.7641866280753719
733687500.0 -0.1022409185065377 -0.7424555388931892 0.07844374946984431 -0.027829642354675468 0.07900768708055515 -0.028237136506706915 -0.14822980372841832 -0.7620519730977244
734375000.0 -0.10742287147438884 -0.7392378348927043 0.07842918825911194 -0.030071488854240814 0.07895488456731571 -0.030693806708583883 -0.15345823590695182 -0.7596341427912663
735062500.0 -0.11238147582793012 -0.7360207655366563 0.07836040719143807 -0.03231251041825437 0.07879352696091653 -0.03308838218667294 -0.15780407259206866 -0.7570051968163691
735750000.0 -0.11732617433628256 -0.7330788637531968 0.07822037925653959 -0.034553647252595125 0.07849691974641343 -0.03549270967002894 -0.16181364854765024 -0.7535993526614375
736437500.0 -0.12212758678318496 -0.7299256111514271 0.07800272263400285 -0.03699149572536819 0.0781396298000623 -0.03793632933049451 -0.16648921233830638 -0.7502275332567737
737125000.0 -0.12690879020593185 -0.7268655429453091 0.07768671363312939 -0.03928896451659033 0.07768692342627122 -0.04033833949375294 -0.1711592230178439 -0.7463861989163431
737812500.0 -0.13156621760922937 -0.7235162278704746 0.07742728494242766 -0.04167682229920733 0.0771822349148265 -0.04277892782991509 -0.17536061014679727 -0.7424142568232756
738500000.0 -0.13602440607365565 -0.7205874204581857 0.07712816193359384 -0.044104624964111785 0.0765931298629213 -0.0451256260680036 -0.17974101310322707 -0.737980342889441
739187500.0 -0.14049784834355045 -0.7175145157740371 0.07662430568836902 -0.04656541621646321 0.0759283123432398 -0.04740190734746421 -0.18412463861202075 -0.733108652198437
739875000.0 -0.1447778779241426 -0.7141264932141957 0.07605950144624264 -0.04896837206264891 0.07513399561944115 -0.049753693259359924 -0.188915634774463 -0.7280504759232027
740562500.0 -0.1488611716923977 -0.711232179215102 0.07544600415070436 -0.05144180723558382 0.07433104821181306 -0.052047676528053234 -0.1933408382886161 -0.7224498714747718
741250000.0 -0.1530048642059279 -0.7079761117400207 0.07477525546870871 -0.053908351357434714 0.07356209614158646 -0.05430621550473958 -0.19871801973415903 -0.7169825412989831
741937500.0 -0.1571336723663522 -0.7045633866957736 0.07408881331541993 -0.05641808431686397 0.072711709966777 -0.0565401483104777 -0.20320788230687659 -0.7115069222085888
742625000.0 -0.16066501568635955 -0.7013157180986865 0.07320907678153678 -0.05888611002196774 0.07176985112817691 -0.058755168647835004 -0.20854393910954416 -0.7055925535805292
743312500.0 -0.16432748346512613 -0.6975843891679855 0.07234165086621826 -0.061412850971556486 0.07083889978217607 -0.060983931265195405 -0.21378545655049153 -0.7001327991460587
744000000.0 -0.1677504673735357 -0.6941568749160694 0.07127735171650891 -0.06387133157133798 0.06992047872439072 -0.06320086687127013 -0.21857275910199853 -0.6941812677370848
744687500.0 -0.17090750189880055 -0.6907455734993516 0.07027142511830875 -0.06637565260389051 0.06904120579010385 -0.06546402909603276 -0.22371024730089756 -0.6886360436810931
745375000.0 -0.17445354004589453 -0.6869416030545472 0.06899052177003857 -0.06892056411086966 0.06795162933261882 -0.06779097371784285 -0.22945808396786194 -0.682780031914826
746062500.0 -0.1777466181493934 -0.6834299386311586 0.06769647175133733 -0.07140203389522107 0.0668469379603563 -0.07017560163943073 -0.2346682298247383 -0.6773968833171866
746750000.0 -0.1804340036271583 -0.6794092543108149 0.06634326895197046 -0.07396943208599377 0.06578215419290903 -0.07251895640543388 -0.23966834014543562 -0.6724468798037218
747437500.0 -0.1834687645310741 -0.6757737649934501 0.06484777982490567 -0.07647054937579052 0.06452149016112572 -0.07490243340382993 -0.24495055757860545 -0.6669927888861833
748125000.0 -0.18644384135227313 -0.6716341981589932 0.06322650180595213 -0.07890799904760495 0.06324084658952327 -0.07735564760876738 -0.2497017088968049 -0.6620645985968078
748812500.0 -0.1891847938970018 -0.6678173535371288 0.061450620669652206 -0.08134578778618964 0.061846392951951025 -0.07979906004543183 -0.25486692375571546 -0.6573391919680595
749500000.0 -0.19215263327556023 -0.66385179505029 0.0596692702008753 -0.08372549226956548 0.060288964481666096 -0.08226723304666676 -0.2592283223650446 -0.6525222130695453
750187500.0 -0.19499462478154522 -0.6599529865093484 0.05767169833843392 -0.08613291657574192 0.05867625432194247 -0.08473398610971782 -0.26401147616340737 -0.6478736842709284
750875000.0 -0.19784592901401235 -0.6561372495702718 0.055612761092569477 -0.08844736730237535 0.05687126338287735 -0.08726529773529586 -0.26846842540798344 -0.643277388040557
751562500.0 -0.20096186080355272 -0.6518926427943993 0.05347758795375236 -0.09058296564666864 0.05493635271714051 -0.08965430205138653 -0.27205430805868375 -0.6388140113330829
752250000.0 -0.20427910362109847 -0.6480810644001892 0.05110640775342286 -0.09277432679523921 0.05274477933352713 -0.09204802070011946 -0.27618561299244404 -0.634276418691802
752937500.0 -0.20752229584416074 -0.6437092070865408 0.048608067089291794 -0.09468678028373548 0.05043225989943507 -0.09439555056397593 -0.2795197543672328 -0.6295952041464925
753625000.0 -0.21134642006075446 -0.6393385871908052 0.046241960160348906 -0.0965770111956059 0.048049836605994066 -0.09662354122865388 -0.2825361351959488 -0.625444129255069
754312500.0 -0.2145091059466252 -0.6346723435105821 0.043810075816864254 -0.09828573351983971 0.045627235098867444 -0.09869951297644312 -0.28550457730375867 -0.6209745040834903
755000000.0 -0.21812653820790628 -0.6296789745652349 0.04127522759652117 -0.09994108911219024 0.043030942632813755 -0.10079481951927416 -0.2883198796303936 -0.6165155521399797
755687500.0 -0.22160957541369167 -0.6244326871036021 0.038881918022738826 -0.10151293659219779 0.04038780042729567 -0.10272981391433053 -0.29035535626288134 -0.6119245885367307
756375000.0 -0.22452833905642877 -0.6195693503332435 0.0365094262992402 -0.10316227067165182 0.03772212711682613 -0.10466890007839334 -0.29247479278186195 -0.6070132631872895
757062500.0 -0.22744743793789157 -0.6141220933994334 0.03401206953840336 -0.10470664015605015 0.03488184579266456 -0.10654896651048991 -0.29457915888450303 -0.6019235064991533
757750000.0 -0.2302391344502255 -0.609204384831205 0.0315844397903838 -0.10625281954342318 0.032074109369535274 -0.10833432887804793 -0.2961842365068394 -0.5963314755472019
758437500.0 -0.23292154395493891 -0.6041530925467385 0.02907010006826592 -0.10777183969097874 0.029106482819577784 -0.10998962280209552 -0.2977543994095098 -0.5907338834666378
759125000.0 -0.23533246748788983 -0.5992692081279688 0.02651755347884643 -0.10929509797458012 0.025990356129178088 -0.11151561050863243 -0.2991728966000832 -0.5846459955077747
759812500.0 -0.23786468056552715 -0.594340076401629 0.023820486306406798 -0.110742013705611 0.022852312748979586 -0.1128460322405555 -0.3005296584666847 -0.5782194642940556
760500000.0 -0.24035384334946253 -0.5897001137012715 0.021158411667862174 -0.11215959811143204 0.019721110989144006 -0.11416015686241887 -0.30194896577620045 -0.5714749011194898
761187500.0 -0.24271714717698215 -0.5853333733877227 0.018330843417956297 -0.11366604381019171 0.016550568096365924 -0.11526985193559926 -0.30320224205299817 -0.5645074082406355
761875000.0 -0.24486669182533502 -0.5808719191811402 0.015560063442011956 -0.11508391975571337 0.013342682881350215 -0.11620774130004126 -0.30466260522878763 -0.5572277216002404
762562500.0 -0.24711369434856387 -0.5765235434846694 0.012581987702934791 -0.11643606200076427 0.010187263208546262 -0.11713164194078593 -0.30568033624151225 -0.5499491979464726
763250000.0 -0.24947569728403315 -0.5723220242119741 0.009538557600080993 -0.11785496331170064 0.006941787438340377 -0.11791940465847892 -0.3074910181822391 -0.5423642767723139
763937500.0 -0.25135205085173984 -0.568291547794876 0.006375886618605171 -0.11906155354617569 0.0038231830682687084 -0.1186293890271654 -0.3088335521558134 -0.5347662017692163
764625000.0 -0.2534467079936886 -0.5643185783543224 0.0031362370651981933 -0.120293717368707 0.000650505748701333 -0.11924587222399939 -0.31046622486810566 -0.5270117276174144
765312500.0 -0.2554157363465058 -0.5605641283619905 -0.0002662817774212509 -0.12150162691014323 -0.002505241608957569 -0.11988889333352168 -0.3120591988656269 -0.5195652772502689
766000000.0 -0.2569585967285594 -0.5567256620269536 -0.0037984606226154575 -0.12252036456993848 -0.005613610673637975 -0.12045046835009714 -0.313808373812912 -0.5117256358677885
766687500.0 -0.2587655835982326 -0.5529788696382585 -0.007449411869242954 -0.12342629224803806 -0.008770633682672349 -0.12101105317809674 -0.3156676463253033 -0.5042791392409269
767375000.0 -0.2603399313660589 -0.5496157298594363 -0.011097851667538725 -0.12428324313123552 -0.011892012525986274 -0.12162706329604621 -0.317404372984057 -0.4969568070277624
768062500.0 -0.26180293678251654 -0.5462100308461526 -0.014917093699799247 -0.12495083972269821 -0.015150275973120674 -0.12215007023418789 -0.31911307775499936 -0.48950841804688916
768750000.0 -0.2631591266585552 -0.5427153839081108 -0.018791447179610763 -0.12547310529005304 -0.018406810128354562 -0.12266797868094126 -0.3209924159751173 -0.48246985650826313
769437500.0 -0.26458063662864734 -0.5392103968226751 -0.02268407739501379 -0.1258215114834167 -0.02183814599983511 -0.1232489338638121 -0.32289041488217274 -0.4754737565114815
770125000.0 -0.2657821422490155 -0.5358975194523378 -0.026808800361357937 -0.12597406745688342 -0.025312529403834595 -0.12371462154830325 -0.32464988746312673 -0.4689674468097012
770812500.0 -0.2670153856832918 -0.5326325838362659 -0.03078882184643666 -0.12593607749345884 -0.028915052804326408 -0.12407254218769913 -0.32655379263924406 -0.46262387298920554
771500000.0 -0.2683038381739382 -0.5290594710308058 -0.03480078728157716 -0.12564240969863186 -0.03268847437855228 -0.1242416438706481 -0.3280306727948977 -0.4562414799968347
772187500.0 -0.26926162872799936 -0.5256869619171237 -0.038941889662791135 -0.1251560469253644 -0.036501217718673915 -0.12434690770369258 -0.3295637786622893 -0.4501688759541801
772875000.0 -0.2705129084035258 -0.522240932212999 -0.042996891205059076 -0.12454953455659902 -0.04040944928126674 -0.12433147569599155 -0.3305827515520376 -0.44463791337614694
773562500.0 -0.27161946437176965 -0.5186662157356081 -0.04693097895379081 -0.12376456350048387 -0.044517072882710514 -0.1241350222103645 -0.3316481149224694 -0.43922911832821804
774250000.0 -0.2727495171726882 -0.5150643297074965 -0.05086892676395755 -0.12280709725329307 -0.048588224694671035 -0.12366377527973178 -0.3323379373168982 -0.43380671522833103
774937500.0 -0.2737846169077714 -0.5111823756070334 -0.05474428195571829 -0.12170336983428572 -0.05275388482128506 -0.12302036815887538 -0.33261685554717174 -0.4288103405431988
775625000.0 -0.2746528713533753 -0.5075137135190487 -0.058534126491394216 -0.12050946870648856 -0.0569119800152208 -0.12211344603393953 -0.3327987258676245 -0.4237395284157025
776312500.0 -0.27562658446623167 -0.5034705464239094 -0.06224603795644244 -0.11909947956807049 -0.061024182153563866 -0.1209545082026781 -0.33272760802913 -0.41865421621500315
777000000.0 -0.27648462198825197 -0.49962086589353893 -0.06576823612174686 -0.11767513323487723 -0.06501809432382781 -0.11967599407461217 -0.3318657644322613 -0.4139344974914911
777687500.0 -0.27736438676391195 -0.49542054306655087 -0.0692465283045023 -0.11611597133070872 -0.0690011030334449 -0.11810011221341035 -0.33121682394761354 -0.4091248317155018
778375000.0 -0.277805709559329 -0.4910414248408459 -0.07261109240985696 -0.11450827853805266 -0.07279773483708907 -0.1164726145840239 -0.33006947378565676 -0.4042451617573428
779062500.0 -0.27850950359550536 -0.4869556597461554 -0.07587470043345078 -0.1129194103669651 -0.07645668394762509 -0.11466470493108961 -0.32860819846176925 -0.3993406325499971
779750000.0 -0.2792195717585163 -0.48239948348219736 -0.07917995650439091 -0.11123097424818996 -0.08004674604790848 -0.11274867007900068 -0.3268301767615965 -0.39442093406378936
780437500.0 -0.2796953859802327 -0.47832002121886297 -0.08227524072423445 -0.10962950128367527 -0.08347313581741754 -0.1108048837910764 -0.32492985023914966 -0.3892794712142115
781125000.0 -0.28015436806412614 -0.4738875891424155 -0.08552251154107722 -0.10789319689124582 -0.08679212526134598 -0.10880778531527366 -0.3228431468758416 -0.3841211352045361
781812500.0 -0.28061325974052675 -0.4695952605422187 -0.08878731496279434 -0.10617782554925745 -0.09005527651596162 -0.10673699560928122 -0.3205821144808523 -0.3789533274647651
782500000.0 -0.2810620490968272 -0.4653019820967059 -0.09194411136340963 -0.10446752184560652 -0.0932376028069275 -0.10478203672183578 -0.3181261580252251 -0.37363816473812733
783187500.0 -0.2817106214217951 -0.4611110331401424 -0.09522184879887537 -0.10263420491426468 -0.0965218538299122 -0.1026889066486403 -0.315699363428127 -0.3682009046816882
783875000.0 -0.28194308756870573 -0.45671788352884246 -0.09846232350624949 -0.10070009861571164 -0.09970361646199119 -0.10065133079889214 -0.313422638684583 -0.362464228265257
784562500.0 -0.28245789808079397 -0.45247760702705436 -0.10183800517781252 -0.09875880266427893 -0.10298827800373778 -0.09849567914999262 -0.31106737179479577 -0.3568665982087617
785250000.0 -0.28317772559756754 -0.4485682390593541 -0.10519247737949926 -0.09677764192187724 -0.10625293492935788 -0.0963212371600762 -0.3086203680805434 -0.35126672603243003
785937500.0 -0.28389017075263956 -0.4444789936977608 -0.1085661410613171 -0.09452236958668316 -0.10959210269465866 -0.09406785430755288 -0.3060681197669887 -0.3457016567363439
786625000.0 -0.28455841862844183 -0.44019958163595924 -0.1120700097216 -0.09221020454191566 -0.11295737331850848 -0.0915673480665142 -0.3038017775004411 -0.3398843418846739
787312500.0 -0.2853083760151304 -0.4363112145690648 -0.11550400287907737 -0.08966981969083374 -0.11637084539978608 -0.08896856633074153 -0.30154534141592576 -0.33446754066144035
788000000.0 -0.28594386218695733 -0.4321975595046531 -0.11900011766494072 -0.0869516955622979 -0.11968818441168338 -0.08621041525047178 -0.2995968345351825 -0.32880372776484756
788687500.0 -0.28663250501450965 -0.42834700512444207 -0.12243979833863206 -0.08420022907080146 -0.12310713389621732 -0.08326896208921135 -0.2975449803955438 -0.32350813695139047
789375000.0 -0.28754468769109276 -0.42452306599436707 -0.12593013151470098 -0.08111662843171065 -0.12647444231886107 -0.08004084495795326 -0.29564811653830103 -0.3182576975016407
790062500.0 -0.2882398629332537 -0.42057271674074337 -0.12922967197182872 -0.07784046905903627 -0.12962910830749153 -0.07663013282763396 -0.2936578161121113 -0.31302261396691533
790750000.0 -0.28886703610236675 -0.41679392402841975 -0.1324406945332333 -0.07441977971599817 -0.13273448634751292 -0.07305979324881208 -0.2918220686655167 -0.3082343764861234
791437500.0 -0.28967153779002197 -0.41311522712286874 -0.1354983236399066 -0.07062212169947915 -0.13562947940615705 -0.06928454110825191 -0.2898520479314225 -0.30366733391143924
792125000.0 -0.29009195291386497 -0.40942218390956 -0.13851530946650795 -0.06688550887102004 -0.13830791488870883 -0.06525912068994269 -0.28812422970574625 -0.29939710386208146
792812500.0 -0.29056819292859 -0.4058356308487641 -0.14127330015739456 -0.06283220906720666 -0.14084462536894302 -0.06127528349385137 -0.2862520923433115 -0.29558845953196144
793500000.0 -0.290857144908099 -0.4023512963020386 -0.14394336374393987 -0.05865025810563013 -0.1430681410321034 -0.057067975865069155 -0.2842778815493828 -0.2917998284989593
794187500.0 -0.29108564496110273 -0.3988057798419691 -0.14625474244414274 -0.05425238927305649 -0.14520239703689042 -0.05281477956450932 -0.28213739369683444 -0.2886481877775933
794875000.0 -0.2910717533847565 -0.39559723697136856 -0.14843727798763862 -0.04985032244833098 -0.14715520926236597 -0.048559330346252684 -0.279967736526099 -0.2855800048203991
795562500.0 -0.2910537516105374 -0.3923319847043602 -0.1504372357327672 -0.04519366339363995 -0.14876193028076995 -0.04418117954630194 -0.2777010757978153 -0.2829212024542629
796250000.0 -0.2910014922173555 -0.3894018398895154 -0.15226463970596246 -0.04075672405589899 -0.15031081235091176 -0.04000428898516677 -0.2752485142012055 -0.2806176892918129
796937500.0 -0.29082404128189865 -0.3863185997187708 -0.15387260694919028 -0.03601995304992508 -0.15165452266532722 -0.035698029379790296 -0.27247343590896717 -0.27880996577550904
797625000.0 -0.29051126199282 -0.3834686731856324 -0.15518742308469102 -0.031338710468406 -0.15292267537853924 -0.031575451541824374 -0.2695873714823842 -0.2770880450292937
798312500.0 -0.2903133239445769 -0.38049500420815735 -0.15628372318927253 -0.026569356392274455 -0.154056264353579 -0.027360292831398354 -0.26628921275478507 -0.27555411856871737
799000000.0 -0.29015142815132833 -0.37786810582282393 -0.15726674690095127 -0.021936281084310498 -0.15521819773498838 -0.02320105297310805 -0.263157174265761 -0.27426847831015977
799687500.0 -0.2898626320464653 -0.37500725862326967 -0.15800509989480124 -0.017261285230906625 -0.15627297775386062 -0.019056967093504577 -0.2594913245520638 -0.27318565417591556
800375000.0 -0.2896640468283932 -0.3720268262767523 -0.15864027596049374 -0.012673508147074644 -0.15724828163589039 -0.01486208717886396 -0.2557920208797213 -0.2724427976750278
801062500.0 -0.28935466539713206 -0.3691933558225056 -0.15914190850113127 -0.008151032712434492 -0.15832091557477623 -0.010645354505062187 -0.2519302841337978 -0.2716199739165367
801750000.0 -0.2891314034978368 -0.3663308272145603 -0.15945456392014432 -0.003548741481763417 -0.15924945906700733 -0.006245253129544914 -0.24784316728745998 -0.27080827079754394
802437500.0 -0.28878206148244756 -0.3633185064954072 -0.1597474098230228 0.0008848352966310839 -0.1601683844445251 -0.001828038598102338 -0.2439169347018834 -0.27023648528263466
803125000.0 -0.2883434872061561 -0.3600679508276195 -0.1598906906709097 0.005396012454597639 -0.16087930596526354 0.0027148429291597334 -0.23977100219933048 -0.26921304918618216
803812500.0 -0.28790236218618637 -0.356816976012807 -0.15991587704151206 0.00983121566110741 -0.1615553174158405 0.007480894704760415 -0.23575847908350991 -0.26826570283851864
804500000.0 -0.28736065450671555 -0.3536110016857908 -0.15993874749102405 0.014205080963881919 -0.1620286533456406 0.012240236361663347 -0.23152355351469725 -0.2675381724293356
805187500.0 -0.2868305346842053 -0.3502341374293424 -0.15986884811771299 0.018649327201085614 -0.16227950160644894 0.017260692976235507 -0.22763353044359289 -0.2663189392110617
805875000.0 -0.2860985340610433 -0.34659044252936944 -0.15973908699605438 0.02304300457497431 -0.16237183447592735 0.022265105624201517 -0.22367226716208802 -0.26528388992802915
806562500.0 -0.28543052747355235 -0.34306805877535934 -0.1595039907999843 0.02753075640837954 -0.16226078443384045 0.027440166372599377 -0.21969392221220804 -0.2636382402412557
807250000.0 -0.28464723388529434 -0.3395380565502949 -0.1592378408880706 0.03203186568066326 -0.1618721751935714 0.03251250082928462 -0.21605550485722955 -0.262096860107989
807937500.0 -0.28380677586734004 -0.335989421424906 -0.15879206350340902 0.03663582419919744 -0.16127888131222654 0.03784076426955364 -0.21270874335086168 -0.260640496715524
808625000.0 -0.28272246183180455 -0.3322643456443065 -0.15826426941590468 0.04128349823309752 -0.16034094365342624 0.042902024192541514 -0.20932798208847916 -0.25874957754142747
809312500.0 -0.2819198664401817 -0.3285237871143833 -0.15760547378815282 0.04584464805216331 -0.15932580615510628 0.0480766167197391 -0.2062247966414485 -0.2568730012244989
810000000.0 -0.2808355056995238 -0.3249758075572924 -0.1566629836939853 0.05066049477582173 -0.1579412088891678 0.053009042128791393 -0.20343898427512955 -0.25498670187488454
810687500.0 -0.2798597970159834 -0.32128082238304506 -0.15569772260771722 0.05537460088668452 -0.15632090772421414 0.05796394199389905 -0.20065757911145438 -0.2532373782227595
811375000.0 -0.2788907766724834 -0.3177802608858626 -0.15441643634339092 0.0601608976944821 -0.15453989074107344 0.0627855628092773 -0.1984428394256831 -0.25126289872071594
812062500.0 -0.27809696223688296 -0.3141959833208155 -0.15304153597450657 0.0648625098220542 -0.15265884498634663 0.06740211532445681 -0.19616021466102296 -0.24941550997101045
812750000.0 -0.277087100106179 -0.31087423786598617 -0.15141096188597225 0.06965154565908076 -0.15051652156062567 0.07191646142769599 -0.19437827953330958 -0.2477547560404953
813437500.0 -0.27631385257916974 -0.30739100282461823 -0.14968165664997438 0.07438713611499015 -0.14824424638445255 0.07629045810856745 -0.19278553547865046 -0.24632734662279424
814125000.0 -0.2756554467328663 -0.30393656885604187 -0.1477046661847466 0.07900882595122612 -0.14587521178589444 0.0805820038767807 -0.1913141070953472 -0.24520492855377374
814812500.0 -0.27499851409032133 -0.30059149807697005 -0.1455260506454867 0.08355061402506908 -0.14345101896675697 0.08463358313865124 -0.18992966348775817 -0.2440894012139818
815500000.0 -0.2743700214907775 -0.29726645013862424 -0.14327487154941343 0.0879934626724215 -0.14089568210368664 0.08859589484167349 -0.18894131249156595 -0.2433903381790051
816187500.0 -0.2737885418311056 -0.2938244079997585 -0.14068640030671714 0.09243433810209581 -0.13830340334291377 0.09238071378822123 -0.18797573846005405 -0.24276601853697674
816875000.0 -0.27331068126452907 -0.29047770599623096 -0.13804308792127476 0.09666647850286116 -0.13567994103569175 0.0962362721755273 -0.18693019071481753 -0.24255576404365387
817562500.0 -0.27290213768803395 -0.2873252234731699 -0.13520637253543943 0.10083805721866271 -0.13303706837757454 0.09994004926755005 -0.1862368161407464 -0.24263632056352355
818250000.0 -0.2722251272315249 -0.28399445747557006 -0.13227720953962507 0.10479241962962602 -0.13038645038649177 0.10345121952923712 -0.1855255127231489 -0.2430333380942473
818937500.0 -0.2717310719617265 -0.28063842629061425 -0.1292322642074694 0.10876832267238397 -0.12761047197796574 0.10711442415612467 -0.1848480854712282 -0.24336546824202768
819625000.0 -0.27101353601633504 -0.2775032689379383 -0.12604798372464016 0.11249934407151949 -0.12485993327808272 0.1105883754165096 -0.1843720903332806 -0.2442933196385341
820312500.0 -0.2702302211729037 -0.27437793747306244 -0.12274391163471765 0.11609896067433818 -0.12201851272969434 0.11400997917280027 -0.1834864427013073 -0.24516141629965651
821000000.0 -0.2695402048075655 -0.271315120283951 -0.11931620758406311 0.11948709244213292 -0.11909882556342011 0.1175685317317674 -0.18272266745440513 -0.24614786610832795
821687500.0 -0.26861174155843115 -0.2683579966689976 -0.11583718273774304 0.12287974460517391 -0.11609144091763837 0.12099225740736688 -0.18206622608341844 -0.24729311281423638
822375000.0 -0.26757370837082856 -0.2655917104751719 -0.11220512470264478 0.1260660935895773 -0.11296277892171383 0.12437211902259214 -0.1811512614494936 -0.248362677700638
823062500.0 -0.2664619107311936 -0.2629140007828821 -0.10855108174208564 0.1290929466911774 -0.10965498489680077 0.12765184610274669 -0.18019680400059881 -0.2494631652830238
823750000.0 -0.26545220607707964 -0.26029418001189664 -0.1047914638690889 0.1320608189165758 -0.10617671395046091 0.13100960286477956 -0.17910269956074445 -0.2506941464962177
824437500.0 -0.2640165840336901 -0.25794380432339953 -0.10106932389679131 0.13489719807235478 -0.10267227943048728 0.13406721809321764 -0.17802970298753198 -0.25176275113676677
825125000.0 -0.26269535069133204 -0.2555744683084403 -0.097171434171278 0.13757500746255796 -0.09890343291924536 0.13711597901280806 -0.17672764425333673 -0.2525647956212243
825812500.0 -0.2611972857079197 -0.2534792504996808 -0.09325605611461697 0.140210765497787 -0.09507702427117719 0.14011626804649852 -0.17564423377286492 -0.25342449634484876
826500000.0 -0.2597008370841081 -0.25131705086334716 -0.08937857704935492 0.14266186247141044 -0.0909437835192264 0.14298094234775094 -0.1742867133242751 -0.25398869026094034
827187500.0 -0.25815788183149163 -0.24943299441712433 -0.08548502054907882 0.14510450469369976 -0.08691298779205878 0.14560609313207382 -0.17301368834301342 -0.25466513314128436
827875000.0 -0.25658221454881597 -0.24737795461002224 -0.08147391895477597 0.14734103678752905 -0.08269680111224417 0.14797670108972183 -0.17159083538606343 -0.25463584743358036
828562500.0 -0.25482495923932635 -0.24559135158941323 -0.07739332740496066 0.14934271987379996 -0.07836464158962984 0.15032682109476578 -0.1702806044218891 -0.25455661214940556
829250000.0 -0.2531370765343061 -0.24371100409334692 -0.07333704287043195 0.15134482470505378 -0.07399319927972593 0.15234196438041198 -0.1689789004618579 -0.25444448228485494
829937500.0 -0.2512976635235338 -0.24180038879922514 -0.06911707766546091 0.1532075734465064 -0.06944670685601648 0.15423198959003348 -0.16769163022744157 -0.25382467312354035
830625000.0 -0.24967748917115581 -0.24013532649574476 -0.0649895359981352 0.1549565803943363 -0.06505034938563374 0.15600402811551226 -0.16648877546397875 -0.2530384777864481
831312500.0 -0.24771115327590112 -0.2382132985343694 -0.06082114480680361 0.15659737023353054 -0.06061200125124465 0.15762877405025774 -0.1654847998473273 -0.2522881735993131
832000000.0 -0.24583670663457924 -0.23645041111042256 -0.056529402572391176 0.1581205038911623 -0.056163498376605746 0.1590728463648776 -0.16473601408419722 -0.25131329444908124
832687500.0 -0.2438086277703769 -0.23451011373746408 -0.052272301062472465 0.15955625671496518 -0.05162552386735085 0.1602875875517525 -0.1639722701864619 -0.250109426124707
833375000.0 -0.24196052798718207 -0.23271910368522047 -0.04785165175790663 0.16080400488105265 -0.04725247643124457 0.16146363402855393 -0.16351282160299957 -0.24888059982076863
834062500.0 -0.24000401404162225 -0.2308970998394458 -0.043583902099012396 0.16187707721548783 -0.04291495538912272 0.16248219509075776 -0.16326651103006037 -0.24779584222310974
834750000.0 -0.2378523811801816 -0.2288530815553704 -0.03919733096565673 0.16290449763261608 -0.0385023768177973 0.16329754876157163 -0.1630012447303459 -0.2462720816923584
835437500.0 -0.23599895190879597 -0.22708686956807733 -0.03477265738393643 0.16381761696953687 -0.034174199199586267 0.16414473540112748 -0.16323257562551352 -0.24528149113977757
836125000.0 -0.23390215536254805 -0.22521859542150172 -0.030325479812934632 0.16450189066651197 -0.029742384549513674 0.16476673422882432 -0.16337688143626636 -0.24423270665598698
836812500.0 -0.23193491552266587 -0.22323884821274909 -0.02606880526147112 0.16522415500477491 -0.02543883592924296 0.1653131096268189 -0.16372658064847587 -0.2433327335953878
837500000.0 -0.23001501702139185 -0.22144804424106732 -0.02156944874328749 0.16580674730786782 -0.021089651842486793 0.16577375911248304 -0.16438344913218955 -0.24246509519435952
838187500.0 -0.2280540505077018 -0.2196062101783592 -0.01726762603689831 0.16626952136370285 -0.016829901173501072 0.16618664370952554 -0.16491264237927084 -0.24191796747756014
838875000.0 -0.22620206899559792 -0.21770697194996358 -0.012891622525861457 0.16652981218969898 -0.012512754273130637 0.1664194945566621 -0.16563795306248394 -0.24141782909136922
839562500.0 -0.22426759383236228 -0.21602628519087955 -0.00856029843489313 0.16678654200516585 -0.008192710864046417 0.16662283772594003 -0.16621316376153142 -0.24136068085078452
840250000.0 -0.22262890976886046 -0.2141469099023052 -0.004207656621708896 0.1668380061302163 -0.003926399688065097 0.1666327444008256 -0.16705391451124582 -0.24128237794089968
840937500.0 -0.2208047225822512 -0.21251721757451406 -4.777386994044195e-06 0.16692323638002987 0.00032715314723857566 0.1666103952890743 -0.16764269338477067 -0.24149438856298064
841625000.0 -0.21917180834552297 -0.2108310583021992 0.0043170427957481185 0.16679367672854153 0.0045878081559788154 0.16642279507390775 -0.16835956436249097 -0.24176114394435422
842312500.0 -0.21780738774782613 -0.20930464209859495 0.008577946619098345 0.1665205149493135 0.008960320710161725 0.1661742365100613 -0.16887788667376305 -0.24224783268844424
843000000.0 -0.21631455280879097 -0.2076993143148228 0.012853944677530756 0.1661106844197556 0.013098353260985638 0.1657856349687519 -0.1692854708541043 -0.24292090128381466
843687500.0 -0.2150138112899588 -0.2062102553569666 0.017120180437284385 0.16571248701901473 0.017410743475720986 0.16537663631220775 -0.16967151280174717 -0.24378267025427963
844375000.0 -0.213701300558337 -0.20471452228882844 0.021492368415565625 0.1650716692945659 0.021542445327887176 0.16474858872470508 -0.16984137491090928 -0.24443402085882807
845062500.0 -0.2125288837967237 -0.20329871859518872 0.02573781502278054 0.1643678673766422 0.02577179815784444 0.1641261288677083 -0.16997708191893904 -0.2454572347416919
845750000.0 -0.21143278439932192 -0.20203086272269044 0.029960129007218426 0.16362396827122705 0.030015583247326248 0.16343569607284447 -0.16999132782586046 -0.24651180580867194
846437500.0 -0.21045497807136498 -0.2006855909428268 0.0341415323358474 0.1627541307989852 0.03421650960181973 0.16256078920403672 -0.16982675425625188 -0.24738494560611057
847125000.0 -0.20951087563957088 -0.19945011821251296 0.038361513031337655 0.16174202975784407 0.03831485042935382 0.16158399125795866 -0.16938415966761944 -0.24843073843460903
847812500.0 -0.2086013991975374 -0.1982944012404572 0.04245001201111139 0.1607829105755752 0.04252373253241835 0.16052661625280049 -0.16879522030342312 -0.24917822810082454
848500000.0 -0.20766110759241074 -0.1970760097325961 0.04658611247126555 0.159429057200663 0.0465373056747357 0.1593297163378017 -0.16802257922203379 -0.2499171226854611
849187500.0 -0.20689423360200512 -0.1959973671577793 0.05069434666022405 0.15819433867143265 0.05055512140622995 0.15807435715997206 -0.16717751679051793 -0.25057966386579866
849875000.0 -0.20593432411445164 -0.19484147318428824 0.05474235413979268 0.1568222992585243 0.05456411013448042 0.15663420156519944 -0.16604584005287587 -0.25091109680180873
850562500.0 -0.20519544500490253 -0.19371543706363825 0.05870339606928038 0.15522190395221608 0.0585549218309058 0.15511857930611472 -0.16495194705951963 -0.25119194674500067
851250000.0 -0.20411239606657405 -0.19266865503752942 0.06276530764647294 0.15366592352911393 0.0625574462338578 0.15337768990181147 -0.16381262744953173 -0.2511893034997093
851937500.0 -0.20314152916284234 -0.1917151648575222 0.06668699881865103 0.15189288617605393 0.06650380545669134 0.15163168012531358 -0.16268108388892405 -0.2508966436822779
852625000.0 -0.2017544197356761 -0.19068603804157103 0.07057383328499882 0.15002308572572795 0.07023857541891321 0.14979380071023907 -0.16138202291663337 -0.2505239460317604
853312500.0 -0.20063925502698837 -0.18984296375653906 0.07439269354115101 0.14799803361051436 0.07414673983443222 0.1477635228225498 -0.16020701033272775 -0.24997930268440724
854000000.0 -0.1992969939731785 -0.18898816245473346 0.07814679195214512 0.1458700206403691 0.07788695966733543 0.1456659515416674 -0.1591495702523801 -0.24928999630614587
854687500.0 -0.19776785492611576 -0.18840932552512019 0.08178354103043417 0.14364566218822797 0.08154018277574646 0.14339934051221856 -0.15836226336923992 -0.24837195841190618
855375000.0 -0.19607737328217534 -0.18774389053854323 0.08534979452630245 0.1412227645448174 0.0850355826858265 0.14112415322640115 -0.15741716043686027 -0.24740307873471423
856062500.0 -0.1945912308792328 -0.18733232058103236 0.08889031101042605 0.1387711417300582 0.08843236690560277 0.13869925707558808 -0.15678452663348919 -0.24631344389269402
856750000.0 -0.1928982483879421 -0.18688838994202872 0.09229950358787241 0.1361298702262987 0.09178697008811161 0.13617934286287595 -0.15639384401444925 -0.24517488276501956
857437500.0 -0.1911529417817856 -0.18651275125847278 0.09558831362158901 0.13355681672328334 0.09502288194257986 0.13367133253625132 -0.15606967395554144 -0.24414430127626371
858125000.0 -0.1892494157543298 -0.1865427152567127 0.09865293579488572 0.1308743888773861 0.09815860127002383 0.1310871111373276 -0.1559626870438807 -0.24297280215747907
858812500.0 -0.1875172112899861 -0.18640023170633757 0.10164645586796052 0.12817039890622692 0.10119756947212971 0.1286215887251654 -0.15603308243465455 -0.24198758512608767
859500000.0 -0.18567466945455635 -0.18640526329529775 0.1046008296998676 0.12544541858267352 0.10409860555837727 0.12597325434494072 -0.15608114349223753 -0.2408357307770662
860187500.0 -0.18408102559505843 -0.18637530988033413 0.1074476855413734 0.12279991761627627 0.10699024537221166 0.12335227642307281 -0.1563914479156971 -0.24001301027897823
860875000.0 -0.18246395576246108 -0.1862401896501791 0.11023049383694611 0.11985692161590013 0.10994042144165919 0.12068120708405787 -0.15679496555300354 -0.23918829095220762
861562500.0 -0.1807408652110129 -0.18623329545890757 0.11283275993850606 0.11711838956550244 0.11273315643811127 0.11804931209785856 -0.15728341801509058 -0.23864658047689363
862250000.0 -0.17916865894932815 -0.1861588352091976 0.11537083403440357 0.11425530562689537 0.11536379907655706 0.11530366661690185 -0.1578648419622912 -0.23800645849557334
862937500.0 -0.17748572431213408 -0.18597433871524183 0.11783757814536026 0.11138797269975047 0.11811562686855129 0.11249921128245337 -0.1584117107534755 -0.23759341304601542
863625000.0 -0.17599417097008213 -0.18581159575623143 0.12035551742912151 0.10857190389841546 0.12082003978784332 0.10960648075032056 -0.15911609427301235 -0.23755398423737398
864312500.0 -0.17458099740591643 -0.18564597723059523 0.12269770371703465 0.1057595332944989 0.12351918701423455 0.1067050644131696 -0.15970350935706965 -0.23750883961921812
865000000.0 -0.17331977555415504 -0.18525747390199618 0.12507228264038137 0.10278404629480697 0.1260728892240947 0.10363557521181885 -0.16045559151938055 -0.2374008294821814
865687500.0 -0.17186585653650194 -0.18478393256073608 0.12739732122782715 0.0997934442866622 0.12865849036701657 0.10048303759975669 -0.16128288026792928 -0.23771290302227802
866375000.0 -0.17056466453531285 -0.18410789328628505 0.1296599540814972 0.09686436418558012 0.13112050759293292 0.09717680810015795 -0.16168389872309655 -0.2377868459197986
867062500.0 -0.1694824816898923 -0.18347923965972046 0.13193466223405567 0.09372472674571992 0.13354060545930768 0.09383665030777846 -0.16229134833717138 -0.23815059897326762
867750000.0 -0.16821780134270045 -0.18283093392632865 0.13414758165999136 0.09063057774480951 0.1357449765001984 0.09036886618637711 -0.16268867248643262 -0.23854770804410408
868437500.0 -0.16694542193258846 -0.18208382026505265 0.13624438504483988 0.0874943306974586 0.1379609586242963 0.08688402329476891 -0.16306907144062738 -0.23888202593796246
869125000.0 -0.1659543750014197 -0.1812771124102311 0.13843741033725873 0.08418027085726826 0.13991981044550453 0.08328171528835228 -0.16316606233147748 -0.2391606607790511
869812500.0 -0.16463821938676482 -0.18049326554948567 0.14048969998785557 0.08084654279955361 0.14181778247792198 0.07953714444840276 -0.16338067322089173 -0.23916508977061954
870500000.0 -0.16331807318112943 -0.17970718522260404 0.14239705832882896 0.0775460411325106 0.14356834646716418 0.07577932885480596 -0.1632863720012601 -0.2392646630392952
871187500.0 -0.16222824221939378 -0.17888953281001552 0.14439450485088098 0.07404413216161694 0.14513878226894705 0.0721283114663195 -0.1631065553567717 -0.23918215002305487
871875000.0 -0.1610974210577574 -0.17814753730172717 0.1461399603801349 0.0704349444802798 0.14648335984025804 0.06833582001747922 -0.16287447081338116 -0.23870215635500008
872562500.0 -0.16007538740004792 -0.17746602733849998 0.14789655204060506 0.06680137696830303 0.1477570708648372 0.06465011502834637 -0.16246961729505813 -0.2383794323280807
873250000.0 -0.15900042765693753 -0.17685914315122764 0.14951052407186233 0.06318155767424072 0.14881671942283567 0.06103794339413754 -0.1619623663689576 -0.2376566224793867
873937500.0 -0.15791299478942447 -0.17641136541743915 0.1509612457857646 0.059350267525182104 0.14985992944562065 0.05743770805050626 -0.1615809791755142 -0.23683173447292347
874625000.0 -0.15701064011240426 -0.17600842003728828 0.15241984951350995 0.05562342269347239 0.15078715233635195 0.05396442222884436 -0.16102778588019712 -0.23565037413589437
875312500.0 -0.15624891439457492 -0.17573537915149812 0.15369643453794113 0.05162167935407402 0.1517376710094734 0.050405083953484746 -0.16047403895343404 -0.23437696725495774
876000000.0 -0.15542602832914212 -0.17549194486689457 0.15484824362750482 0.04760931573244967 0.152560412504237 0.0469730226025519 -0.15999423950055428 -0.23290414978923088
876687500.0 -0.15469324889623592 -0.1753599459826531 0.15581170483817325 0.04365765557013168 0.1534651358406588 0.043575716643156064 -0.1595179687335285 -0.2312250890148526
877375000.0 -0.15415840754380183 -0.17527884932280685 0.15684029897099716 0.0397386158653954 0.15438730202198406 0.040183618024081914 -0.1591897100624361 -0.22971443814334921
878062500.0 -0.1536340333893705 -0.17509811610312168 0.15750895868331832 0.03572271880846194 0.15529120508802716 0.03676665734551015 -0.15872685340958229 -0.22791245261212018
878750000.0 -0.15304364001873036 -0.17503056562981212 0.1581420792018998 0.0316946702157338 0.15623999108018163 0.03327870216750026 -0.1586647737153533 -0.2261215441156474
879437500.0 -0.1525547921309487 -0.17498283565815786 0.15860459061937077 0.02774560796673708 0.15705672023576783 0.02972721085315856 -0.15864570210560877 -0.22418262682071918
880125000.0 -0.15211465156067547 -0.1748611739264553 0.1589911274008525 0.023798408128739217 0.15796937469358052 0.02603205329065492 -0.15864950686362617 -0.22231243721682678
880812500.0 -0.15156549640584027 -0.17488866560981176 0.15924177143346682 0.02004113814401254 0.15882498437429127 0.02239951861640152 -0.1587907307333722 -0.2206746130024375
881500000.0 -0.15087229696729113 -0.174887036559726 0.15925844577069112 0.016172787347236327 0.15952251104108237 0.018599798040774277 -0.15925431368493756 -0.2188218408878029
882187500.0 -0.15017147419617363 -0.1748109815226049 0.15937263353991618 0.01225594392415148 0.1601316396370594 0.014604121214745752 -0.15986613610767675 -0.2172314021073725
882875000.0 -0.14945984530081938 -0.17477113376060752 0.15928498162166557 0.008534659266757644 0.16063362101936896 0.010625121893243161 -0.16054171152331304 -0.21561709227238973
883562500.0 -0.14860991153639988 -0.17494130584957804 0.15914165071930123 0.004921192527223175 0.16107980138289524 0.0065374693357286495 -0.1613757561878551 -0.21423986911284795
884250000.0 -0.14755303541338124 -0.17504236729503808 0.1590305732250941 0.001295923824270734 0.16113474224893132 0.0024424633554539464 -0.1623937945708598 -0.21291200927736545
884937500.0 -0.1463991088676997 -0.1752718411345812 0.15864582994539142 -0.002431193953708767 0.16110465691984477 -0.0017351467295073602 -0.16345439849073734 -0.21171474555462044
885625000.0 -0.14519471048012225 -0.17546737958522307 0.15829859195473137 -0.006017369758769869 0.16085562260038244 -0.005881908330636788 -0.16478551856355084 -0.21077575904095078
886312500.0 -0.14394581758308028 -0.17585120771494286 0.15800561028852786 -0.009518538439661783 0.16045341750268952 -0.009998728144203184 -0.16622130577139885 -0.21002692616423446
887000000.0 -0.1425524190696961 -0.1762172360960426 0.15755345424158934 -0.013045241056033378 0.1599147284302533 -0.014043062295702152 -0.16750485478524335 -0.20926849238350317
887687500.0 -0.1411948860977888 -0.17670033706847701 0.15710663167146133 -0.01653825746032155 0.15909900536139268 -0.018030640139184487 -0.16893059720795156 -0.2086418341170466
888375000.0 -0.1396760792655519 -0.17723240128139683 0.15653721973340917 -0.020167064119977665 0.15811277139223448 -0.02189093577116203 -0.17010586335541228 -0.2082419086271142
889062500.0 -0.13835679799057593 -0.17786395281702846 0.15597877820155837 -0.02360207651938755 0.15717667464132254 -0.025701391297496125 -0.17149722909418383 -0.20780170348558213
889750000.0 -0.13691202748834655 -0.1784411863004235 0.15539526301186668 -0.027123486812512327 0.15604498550449608 -0.02931924520512056 -0.17265185350807624 -0.20747293097469438
890437500.0 -0.13562131417499437 -0.1789742275231602 0.15474159701472742 -0.0305491209877697 0.15483628892982257 -0.03277159776666694 -0.17368743737822917 -0.20718962395841137
891125000.0 -0.13430742373207252 -0.1795140891954145 0.15398889479425315 -0.03396750195691079 0.15352569912266928 -0.036186707937133605 -0.17451822204788364 -0.20703377343282175
891812500.0 -0.13300150427397547 -0.18017504488844496 0.1531712552033447 -0.037471519133613955 0.15227247166341476 -0.039432595499154795 -0.1750717064340599 -0.20670169547561298
892500000.0 -0.13187667222839325 -0.18056634758368476 0.15239975259595054 -0.04090433818113476 0.15102740007084697 -0.04262108183140028 -0.1754073394491562 -0.20655335098380248
893187500.0 -0.13138261391820563 -0.18111859662758026 0.1517564013249169 -0.04470114009140797 0.150036254452496 -0.04606850901411229 -0.17621687358072358 -0.2064206012566291
893875000.0 -0.1303192315806616 -0.1814927464790369 0.15060521167251148 -0.04810064561259283 0.1487968857754125 -0.049075789014613104 -0.17616177536415378 -0.20596568811260552
894562500.0 -0.12927896655605062 -0.1816721543679739 0.14947736243744714 -0.05170883827405226 0.14765652751919853 -0.052164345174193216 -0.17624346669571353 -0.20566878659058477
895250000.0 -0.12819189753358742 -0.18180486275785182 0.14823069704616462 -0.0552094438144619 0.14649550875098216 -0.05513256871482458 -0.17579712888858473 -0.20526247637135803
895937500.0 -0.127181305937107 -0.18193402025968458 0.14701253691203994 -0.058677936994108046 0.14537614936954954 -0.05832124693468024 -0.1754603273558628 -0.20490164406982894
896625000.0 -0.12629867974523792 -0.18168769957943864 0.14558321714732136 -0.06219116685972844 0.14401007599969168 -0.061414821893556515 -0.174934792012893 -0.20434611745092937
897312500.0 -0.1252272273072956 -0.18170907421441193 0.14405031009070482 -0.06566603046652014 0.14288198781799805 -0.06459995201470056 -0.17427056255034676 -0.20362864627768282
898000000.0 -0.12427895091231955 -0.1815186928811912 0.1424435829572316 -0.06907523414902193 0.14156395489037615 -0.06791849320953601 -0.17339192628313355 -0.20299852249439923
898687500.0 -0.12330427119612615 -0.18161265952775518 0.1407591652178675 -0.07253635143798765 0.1402165777667558 -0.071124909744643 -0.1726227043347171 -0.20229037672376454
899375000.0 -0.12225060486958368 -0.181464170855603 0.1388675105811897 -0.07578597101470926 0.13868311892554394 -0.07448042677301009 -0.17205946323370588 -0.20129460807788066
900062500.0 -0.12134348752300987 -0.18145474291795263 0.1368616672582744 -0.07901329901692825 0.13702726457731554 -0.07780905777660302 -0.17120310900374353 -0.2005151770342197
900750000.0 -0.12051936401061292 -0.1815440822558994 0.13485395252349228 -0.08211519139645386 0.13518338069935706 -0.08109499195917463 -0.17054795672741785 -0.19940981439247196
901437500.0 -0.11966720709975598 -0.18172931135738934 0.1325708028771131 -0.08517266386880251 0.1332629600377092 -0.08435383643984136 -0.17011190277873736 -0.1983756858746468
902125000.0 -0.11891552402512386 -0.18197273245072684 0.1303466380597426 -0.0879945661904818 0.1310155994297953 -0.0875601971001595 -0.16962293198142597 -0.19719475678833667
902812500.0 -0.11828706669428596 -0.1824355194814112 0.12791967401874388 -0.09085562904497346 0.12871421717491674 -0.09054091762766611 -0.16932177028410653 -0.19610426985894228
903500000.0 -0.11769549081808393 -0.18287518510583392 0.12557227376656177 -0.09351650721483053 0.12628441711152158 -0.09353183098492757 -0.16921818858755494 -0.19491418046706324
904187500.0 -0.11739523262674702 -0.1834633010713881 0.12311278328846095 -0.0961376576884296 0.12381832172430238 -0.09634747815597329 -0.16934512619438663 -0.1937508038270945
904875000.0 -0.11708339909045035 -0.18418163652777078 0.12070945741065493 -0.09870404629592683 0.12116633329462546 -0.09895045421266141 -0.1695576578490379 -0.19266745791776632
905562500.0 -0.11690065177039802 -0.18488797912044042 0.11804448644919865 -0.1011462619570287 0.11858199262875596 -0.1014253090390412 -0.16991129777668793 -0.19154608678048493
906250000.0 -0.11702341960691375 -0.18573227894713887 0.11559616568292076 -0.10361214014551745 0.1159178130064885 -0.10381206844764064 -0.17053455506000212 -0.19051606253178013
906937500.0 -0.11712204874386604 -0.18650190445457926 0.1130082496709436 -0.10577560401450181 0.11324044051970025 -0.10610436801459264 -0.1712224674950503 -0.18940691957224218
907625000.0 -0.11738135708276932 -0.1871631026278663 0.1105410412251349 -0.10800305385508129 0.11066424595297698 -0.1081945081895688 -0.17200432795159856 -0.18860356302858022
908312500.0 -0.11764867265319684 -0.18798979223461906 0.10805381143949448 -0.11014305225111412 0.1080544814601305 -0.11020206295285549 -0.17282545360231755 -0.18779322477649116
909000000.0 -0.11796476623490511 -0.1886984235854788 0.10551029338876912 -0.112157839985623 0.10557083655098126 -0.112132413931118 -0.17384726858132254 -0.18699980806496092
909687500.0 -0.11837208745572914 -0.18938734929365142 0.1029694293780074 -0.11413652302982503 0.10317774990112763 -0.1140533645006952 -0.17462675968507563 -0.18649137575907104
910375000.0 -0.11868278766372811 -0.1900831194764693 0.10050704710529605 -0.11606832778933966 0.10071026740659615 -0.11598615542450114 -0.1756088721551178 -0.18587957277015071
911062500.0 -0.11885606677424296 -0.1907831746207849 0.09814109720703512 -0.11797536266269876 0.09842020442696438 -0.11783693396793139 -0.17634043086599496 -0.1854822960352436
911750000.0 -0.11908630009437764 -0.19147530148925548 0.09569717947148049 -0.11981939537333441 0.09602540536894677 -0.11977917577717256 -0.17698710919298594 -0.18487845427702096
912437500.0 -0.11924649165990155 -0.19219000061115643 0.0932539240886649 -0.1215574203230874 0.09371829792937963 -0.12172645628271359 -0.17742369985269194 -0.18472747901670306
913125000.0 -0.1193491301485506 -0.19288631235285722 0.09088596084179813 -0.12337492642059007 0.09133369648758644 -0.12361872486409921 -0.177642118182284 -0.1844544886746289
913812500.0 -0.11932155014785069 -0.19364169537727685 0.08837713858002817 -0.12518239510954665 0.08890158889372056 -0.12564121553155078 -0.17767722069236513 -0.18424956746072213
914500000.0 -0.11921680436420048 -0.19450835112879492 0.08593636070915125 -0.12704070681811097 0.08634473191666113 -0.12770333896914463 -0.17740736172980498 -0.18403151626710962
915187500.0 -0.11905090238451323 -0.19527816195333297 0.08333972228039872 -0.12880432054501495 0.08372174150868192 -0.12964875037702595 -0.1770700858736214 -0.18403474964626906
915875000.0 -0.11876193500108251 -0.19615243176590602 0.08073010671530471 -0.1306135835617229 0.08103207474699446 -0.13165478070389164 -0.17652243001774792 -0.18395096340562928
916562500.0 -0.11863228560504578 -0.19695724362393985 0.0781584957571999 -0.13252133670046432 0.0781434358449676 -0.1335134301774924 -0.1758083358527095 -0.1841126411031749
917250000.0 -0.11842588030442855 -0.19784317925789652 0.07547219730457108 -0.13427719576253042 0.07522365873920443 -0.13539118453541898 -0.17458798364420947 -0.18404124618340043
917937500.0 -0.1181597776732444 -0.1988395581982855 0.07260393497729435 -0.1360947266942363 0.07218360439139737 -0.137165054172969 -0.17366489808953617 -0.18400712128836258
918625000.0 -0.11794251124636841 -0.19972174241065135 0.06982542079260659 -0.1378640376610606 0.06911374056926207 -0.1387592225659267 -0.17233610811604602 -0.18406957255222053
919312500.0 -0.11777871909411428 -0.20064386702180148 0.06682309008379896 -0.1394261283447892 0.0658377104497642 -0.14031809484239197 -0.17099237154408728 -0.18399668219288642
920000000.0 -0.11767836334362736 -0.20140557199722312 0.06368914978248826 -0.14107869298743037 0.06279043119420342 -0.1416676264511509 -0.16960675678035222 -0.1837510311322771
920687500.0 -0.11763783005194728 -0.20226050755215494 0.06074979288035623 -0.14256788335115733 0.05953642895218858 -0.14283648940639712 -0.16809600308222103 -0.183470733507727
921375000.0 -0.11758564421724794 -0.2029476260420144 0.05763898720140299 -0.14399782270128425 0.05634639712913961 -0.1439682995081482 -0.1665054138818504 -0.18299705051864948
922062500.0 -0.11778824541486703 -0.20351151576385768 0.05439524722984223 -0.14531187277057214 0.053183980797985725 -0.14500263965424898 -0.16513203821638875 -0.18226733752773341
922750000.0 -0.11781362012893173 -0.20396470053747462 0.05115939573680438 -0.14646662522419743 0.04996286881612245 -0.14590595266616402 -0.16382872546811564 -0.18136118928599038
923437500.0 -0.11803401231146568 -0.2043179396682286 0.04786872312875633 -0.1475226779454184 0.04682233029629917 -0.14678145498236292 -0.16249391629564594 -0.18033069307399283
924125000.0 -0.11810323075312214 -0.20449431809470725 0.04473215815473652 -0.14850549264421 0.04384652063278333 -0.14756284479681603 -0.1610812778792431 -0.1792799036663845
924812500.0 -0.11831135251615259 -0.20477462198989957 0.04152766376395192 -0.14936535694526543 0.0407672175320785 -0.1483366088758898 -0.16002831522831973 -0.17775687796498202
925500000.0 -0.11865612797413044 -0.20487747067457682 0.03811562145475908 -0.1501808583722653 0.03773753814031935 -0.14913436702579766 -0.15928129769207502 -0.1761861087769974
926187500.0 -0.11878813733209116 -0.2048123344197304 0.03487660689421493 -0.15087251065976642 0.034709095307709964 -0.14978087914403357 -0.15857708291293893 -0.17478152456364285
926875000.0 -0.11895102399938916 -0.20464789462479965 0.03168069543174447 -0.15155493838155687 0.031722190093013275 -0.15044923925919854 -0.1579651464150201 -0.1731814163976424
927562500.0 -0.1192008516107906 -0.20458559912063554 0.028342386473708393 -0.15219733689188145 0.02873508810497189 -0.15119447770451175 -0.1574264318777322 -0.1714252813062381
928250000.0 -0.11948785444607819 -0.20446325663844359 0.02512668385113356 -0.15271851131485947 0.025750758406325323 -0.1518970266656026 -0.15731123053873242 -0.16980490624196876
928937500.0 -0.11977841120819858 -0.20432883353235615 0.021905967940505797 -0.15313632686292927 0.02271082842744185 -0.1526350669147189 -0.15731838143013174 -0.16813625416513855
929625000.0 -0.12005131146932597 -0.20420385675135258 0.01869795958450857 -0.1536809535559782 0.01971130572419537 -0.1532674209738956 -0.15719191268830665 -0.1664239758176291
930312500.0 -0.12034804222394045 -0.20421121792508168 0.015517133866777348 -0.15416822877383216 0.01653303709543917 -0.15398492232495103 -0.15745858654406922 -0.16510474758218843
931000000.0 -0.1208351884902171 -0.20406460103402743 0.012239051950108418 -0.15454246194772903 0.013345696730389165 -0.1545587804671947 -0.15753610803673537 -0.16369029203294563
931687500.0 -0.12133630309397622 -0.204248958585585 0.009155032469855322 -0.1549047264107357 0.010130826141687782 -0.155277307011926 -0.1578961926792337 -0.16259687991953595
932375000.0 -0.12183333268511504 -0.2042324192609364 0.00583498185811188 -0.1551289656857308 0.006854521346298841 -0.15565113765728184 -0.15817158298359643 -0.1614972211472262
933062500.0 -0.12245895117169656 -0.20438615845913788 0.002512583049888978 -0.1554383724986209 0.0034242229225450653 -0.15614104152773986 -0.15853212827760366 -0.1607958507706167
933750000.0 -0.12336234379853614 -0.20447399561854798 -0.0006057992630456108 -0.15556710408324095 -1.1556148986931574e-05 -0.15653857711300842 -0.15857175329934275 -0.1602076866649355
934437500.0 -0.12417790209086954 -0.20467074347920236 -0.0038653280754825732 -0.1557741303432901 -0.003467404179118188 -0.1567316008462932 -0.15874304530795189 -0.15975287577002448
935125000.0 -0.12507740728699634 -0.20489049784777483 -0.007106782237890067 -0.15578522618869733 -0.006937996152491071 -0.15684968560251988 -0.15860444974741894 -0.15953294878263255
935812500.0 -0.12589260507436753 -0.20514750876357468 -0.010225447751219573 -0.1559217386202881 -0.010450111689398583 -0.15693071393581884 -0.15860693067243628 -0.15924612111748587
936500000.0 -0.12706031194773307 -0.20556399697544597 -0.013508722432578378 -0.15591303415216468 -0.013976237442827477 -0.15692276962298768 -0.1583714896011826 -0.15935603881722557
937187500.0 -0.1280578099417265 -0.2058135869748328 -0.016793908462416258 -0.15599286383845412 -0.017427761753095048 -0.15675282496276435 -0.15808396984532694 -0.15955885772318462
937875000.0 -0.12924190076463982 -0.20608710576110043 -0.020043293855154222 -0.15579486144219845 -0.020969518914238424 -0.1564954698737984 -0.15743489523575502 -0.15985086746700242
938562500.0 -0.13016507146831052 -0.2062960637035813 -0.02339521749515362 -0.15567896285823826 -0.024320385028391872 -0.15610851479931415 -0.15669619788638925 -0.16031894461054302
939250000.0 -0.13118383141550208 -0.2065304444095254 -0.02671390357063107 -0.15533946464351986 -0.02774016677656351 -0.15575022549372905 -0.1558901586161396 -0.16066847833142586
939937500.0 -0.1320902692286403 -0.20705097834300296 -0.030020213659600194 -0.15517528933901453 -0.031035536517382778 -0.15527949133674784 -0.15473423482365783 -0.1611219598055258
940625000.0 -0.133041232782178 -0.2072437553506949 -0.03337653055179678 -0.15471192227359418 -0.03438406542088767 -0.15472602987107598 -0.15354852768174784 -0.16149119955096788
941312500.0 -0.13398337014564055 -0.2075509110504554 -0.036736644838063805 -0.15425757074007002 -0.03764604271444803 -0.1541289399195782 -0.15221637654440917 -0.16169143948034218
942000000.0 -0.13468516303361985 -0.20790056319407815 -0.04010321558266537 -0.15379621465724166 -0.04084004794771272 -0.1534590248640055 -0.15080287703797218 -0.16221952742966758
942687500.0 -0.13548549182014838 -0.20830694668680094 -0.04342794893319541 -0.15316954670291502 -0.04407647068546574 -0.1528782761337617 -0.1491888578331405 -0.16235797627286366
943375000.0 -0.13625721716375064 -0.20859889278069016 -0.04679833703534132 -0.15260553844702543 -0.047267993960508306 -0.1521061619431676 -0.14757417149853 -0.16236027229832736
944062500.0 -0.13675251572748676 -0.20898177165821835 -0.050106482494089714 -0.15190924710951148 -0.050473088637056386 -0.1513144846753739 -0.1461077446467666 -0.16216949299650868
944750000.0 -0.13729258854223186 -0.20944990661625235 -0.0535404558159677 -0.15109128421802934 -0.05368315660859497 -0.15055279143415953 -0.1446107836658719 -0.16212108458011795
945437500.0 -0.1379699144625949 -0.20978772719788052 -0.05686788214215541 -0.15009481329596785 -0.05700179863638765 -0.1496111392382484 -0.14298419418761904 -0.16154934578284208
946125000.0 -0.1382520667035186 -0.21007594927217613 -0.060267211111861084 -0.14918475661669064 -0.06022139638775004 -0.148613664907572 -0.14155249692394745 -0.1608628439625898
946812500.0 -0.13887460946801358 -0.21023691245723067 -0.06366177166146902 -0.14814109651972227 -0.0635744891122276 -0.14764295046557457 -0.14003840003595053 -0.1600583335570781
947500000.0 -0.13924825082535564 -0.21038282720608098 -0.06701414371850029 -0.1471175431394466 -0.06682346574427335 -0.1466018490214869 -0.1387533910929555 -0.15927000672215105
948187500.0 -0.1400187393269649 -0.2107417941281732 -0.07041338645230097 -0.1458156991875466 -0.07019475808142792 -0.1455021091852885 -0.13772866879116702 -0.15828420141144503
948875000.0 -0.14010272990903347 -0.2110121973641193 -0.07353587239436506 -0.14451833500844008 -0.07355643613377885 -0.14426328683352088 -0.1367587359072602 -0.15740682626825064
949562500.0 -0.14073951436722257 -0.2110876628445269 -0.07702483113281051 -0.14313254028170058 -0.07685009684348161 -0.14291197028191682 -0.13606836440636302 -0.1564434114837369
950250000.0 -0.14119618642452011 -0.21109371532098575 -0.08036992002301035 -0.14168650173396266 -0.08016535119608495 -0.14156723833672222 -0.13569232074878157 -0.15547924255042253
950937500.0 -0.141667001376316 -0.21106000287442697 -0.08356504902923391 -0.14010196191650395 -0.08354579612416432 -0.1400885811588262 -0.13527097256725526 -0.1545505185744342
951625000.0 -0.14202775730505088 -0.210868001786754 -0.08684691491048424 -0.1383858941591111 -0.08680225897182008 -0.13850380858813832 -0.13522530407232508 -0.15381876132286695
952312500.0 -0.14240656450448788 -0.2108221086061793 -0.09004354530497595 -0.13678378984199707 -0.0900613773398455 -0.1368189380826081 -0.13519670499364733 -0.15331632766316206
953000000.0 -0.14299384565548112 -0.21056167081191862 -0.09331340975894503 -0.1349633060700668 -0.09330641338067933 -0.1350476696943772 -0.13529623516919506 -0.15287867483769596
953687500.0 -0.1432875941820454 -0.21029651855559373 -0.09644616020481583 -0.13308077497079898 -0.09648183317122895 -0.133129285865731 -0.1356300650309008 -0.15252413839141374
954375000.0 -0.1437310726138352 -0.21019237345657968 -0.09963870260699466 -0.13133757577391783 -0.09964574831542213 -0.13123065776071138 -0.1361087486440028 -0.1525719888042601
955062500.0 -0.14418063423057617 -0.20979565221922652 -0.10266778745100924 -0.12927398687906638 -0.10275293811509971 -0.12925760832624353 -0.13634814942969248 -0.15275933231542987
955750000.0 -0.14482127644541928 -0.20911142418865725 -0.10574911641068171 -0.12712091822389496 -0.10587042099179018 -0.12705740984951308 -0.13720552897249996 -0.1530493431828915
956437500.0 -0.14515158833446684 -0.20893258475835302 -0.10892667992398347 -0.1250517071526309 -0.10890265144819404 -0.12495747812791418 -0.1375902142897607 -0.15361025975180478
957125000.0 -0.1458392338580005 -0.20866882694570044 -0.11181510209711124 -0.12285102166453944 -0.11187741828839755 -0.12270125310521339 -0.13807216601853317 -0.15433745720608547
957812500.0 -0.14636904857026212 -0.20822734550800362 -0.11474738097609516 -0.1205828251789137 -0.11480952098716181 -0.12048881730192144 -0.1384072268851692 -0.15538531844684583
958500000.0 -0.14684785527208638 -0.20779414385226685 -0.11766813071791779 -0.11815670879683371 -0.11767592453314922 -0.11803573146008074 -0.13864498417056959 -0.1564246717486232
959187500.0 -0.14746049836911782 -0.20749404622209508 -0.12054018702999049 -0.11593693306184331 -0.12057362917523268 -0.11570596532025189 -0.1386637162295742 -0.15765470590433128
959875000.0 -0.14821728445604743 -0.20715107699933902 -0.12343726596262271 -0.11342581807378162 -0.12347361247077568 -0.11326986251316895 -0.13867994988574353 -0.15925789169705393
960562500.0 -0.14900169827511378 -0.20688800992402523 -0.1262870632948873 -0.11078648949109104 -0.12622081288817025 -0.11079921802988368 -0.13835993787519038 -0.16060928260878599
961250000.0 -0.1498161329960889 -0.20654059034733802 -0.12901516854774037 -0.10827717490217238 -0.12898148162330333 -0.10816085092469262 -0.13790902298480356 -0.16230015077781118
961937500.0 -0.15056798884395672 -0.20625360044806865 -0.13163958283645547 -0.10556791945576684 -0.13163731000117398 -0.10549944246363738 -0.1375040820137503 -0.16378061867945765
962625000.0 -0.1514180255939174 -0.2060951686797464 -0.13440463931307187 -0.10283544579500757 -0.13431015901680624 -0.10276489372728759 -0.13678715669211383 -0.16527030226661643
963312500.0 -0.15229871246785373 -0.20592061476486148 -0.13694688140863254 -0.10005831382879658 -0.13691774588582073 -0.09998406279317645 -0.135918976504064 -0.16672194488066777
964000000.0 -0.1531947160261299 -0.20578494808274683 -0.13954491947251083 -0.09709063368466442 -0.1394396525868143 -0.09709440455236532 -0.13502499217659233 -0.16811605026628798
964687500.0 -0.15399532936209412 -0.20572512312398197 -0.141864349939298 -0.0941130780550872 -0.14195663163274225 -0.09414665884409751 -0.13375219460609997 -0.1693801762881906
965375000.0 -0.154930844055781 -0.20577207950634344 -0.14432250109469053 -0.0910211356973348 -0.14426519735817123 -0.09114607382101478 -0.13239904808887645 -0.17036169206249704
966062500.0 -0.15586447748145485 -0.2056783978588037 -0.1466950042177677 -0.08793335288282697 -0.14668194911297436 -0.08795546100784682 -0.13114120613552216 -0.1716079763654185
966750000.0 -0.15680165771352142 -0.20592642299548666 -0.1488390760265639 -0.08474829716095847 -0.14898049488136325 -0.08488802679928682 -0.12985782875455057 -0.17247477266840913
967437500.0 -0.1577188614202923 -0.20606008448748228 -0.15111871066686744 -0.0814769912563475 -0.15114125480973037 -0.08161098711481178 -0.12867378284258715 -0.17306344812327187
968125000.0 -0.15865220471389826 -0.20633306169836754 -0.1530900326231028 -0.07823405674232665 -0.1532199567321903 -0.07835519065661506 -0.12740061549662893 -0.1736315384300953
968812500.0 -0.1595443958076551 -0.20670954123797292 -0.15517858718413627 -0.07484097427117034 -0.15527946715567706 -0.07510103891843833 -0.12650509879580696 -0.1739664566556621
969500000.0 -0.16058590971353337 -0.20703454371377478 -0.157110357220195 -0.071514757713143 -0.1574478643463817 -0.0717062931614274 -0.1256540231082128 -0.17439202651994534
970187500.0 -0.16154623511876107 -0.20755245813961157 -0.15907583748965082 -0.0680329398740675 -0.15932304494051067 -0.06834658662539969 -0.1248242744255454 -0.17435996260760564
970875000.0 -0.1625703636764692 -0.20809191409769734 -0.1610159519100159 -0.06461681822849898 -0.16127350373595742 -0.06497765195897261 -0.12443863538388483 -0.17440290777451606
971562500.0 -0.1636411715073901 -0.20867664499555275 -0.16277850678348993 -0.061231553490805515 -0.16318742203512218 -0.06141626611135048 -0.12401527173135043 -0.17431942169442077
972250000.0 -0.1646248504165751 -0.2092431202702264 -0.16452192717852376 -0.05775991752277988 -0.16497399859039977 -0.057949647134273155 -0.1239749053684169 -0.1741234147547894
972937500.0 -0.16570963861604457 -0.20972689913192938 -0.16616687065793817 -0.054197254425042814 -0.16673008349563145 -0.05435994149997803 -0.12407999609875721 -0.1741066761485311
973625000.0 -0.16682854803937727 -0.21019127954358843 -0.16781070018898217 -0.050641750768365655 -0.16846451440247157 -0.05062263653738181 -0.12462605261527127 -0.17393729633972826
974312500.0 -0.1679921163876141 -0.21066027967876597 -0.16947749089374664 -0.04694978436532661 -0.1700444655726717 -0.04692856617328467 -0.12528062475008658 -0.17386469594076912
975000000.0 -0.169060358032962 -0.21109434126261215 -0.17105352143046673 -0.04331803212417849 -0.17169215377853092 -0.04297765974098448 -0.1261039537538854 -0.17377718374730383
975687500.0 -0.17017615675791053 -0.21106838816098958 -0.1725916968679612 -0.039565333278910854 -0.1732958177866907 -0.03900006541678139 -0.1271289509615736 -0.17384729353702308
976375000.0 -0.17107826996513079 -0.21123628548365958 -0.17407018332237922 -0.03570721647255899 -0.17475934777609084 -0.03501455363105456 -0.1281120857698036 -0.17382131511412344
977062500.0 -0.17204629895042697 -0.21131421969877714 -0.17544815327256416 -0.031654937528228476 -0.17609056026250527 -0.030841916418816707 -0.1292821295049567 -0.17389225941826164
977750000.0 -0.1731425999903396 -0.2114194598322311 -0.17671760854938576 -0.027586285419103712 -0.17744621954444886 -0.026634444333648487 -0.1305359159078738 -0.17422039068544723
978437500.0 -0.1740879482831922 -0.21120585079489143 -0.17804760220079247 -0.023381650347671583 -0.17842990132995334 -0.02227138248025143 -0.13178462918648412 -0.17460170485021803
979125000.0 -0.17507348488536378 -0.2110830731493133 -0.1789430130463658 -0.019169188715123662 -0.17935400403375557 -0.017912455779859605 -0.13277792431041247 -0.17495549131907592
979812500.0 -0.17588773557850576 -0.21079001313993825 -0.18003091274433786 -0.01484194539855297 -0.18016075285919142 -0.013404700911187018 -0.13392026571341908 -0.175802324997572
980500000.0 -0.17676920216909373 -0.21062257938466816 -0.18097583530820816 -0.010297511236265747 -0.18076659701040218 -0.008881490349292509 -0.13486771944001946 -0.1763898111923594
981187500.0 -0.17768308254124368 -0.21020495472662157 -0.18181007268584776 -0.00573746855703669 -0.18115267324466242 -0.004412296266770759 -0.13551906251907941 -0.17720589236137274
981875000.0 -0.17857446846641245 -0.20982246083963443 -0.18241566107979118 -0.0011430137895969874 -0.18137847742495775 0.0001487291461175274 -0.13610718224135737 -0.17818525282367534
982562500.0 -0.1798233821192332 -0.20923251013189603 -0.1828346540053211 0.003598611286383744 -0.1816489506153489 0.004722880190899799 -0.1366700705609884 -0.17915180023046615
983250000.0 -0.18058693205223908 -0.20874200718398644 -0.18305146875392173 0.00843889339193179 -0.1815237967293079 0.00915231319394554 -0.13683138032358094 -0.18017449212023143
983937500.0 -0.1816403555648736 -0.2082264261247636 -0.18309731090474518 0.013237145512779719 -0.18140329146428055 0.01361907109491162 -0.13705567247969014 -0.18117034807458263
984625000.0 -0.1830648606864158 -0.20775343130629795 -0.1829362219810922 0.01811264614514592 -0.18100758437024578 0.018062702260697953 -0.13698100266685673 -0.182220547265099
985312500.0 -0.1844636385692999 -0.20695046537022987 -0.18253656447812625 0.022913432590461122 -0.18060577634405484 0.022405617374633268 -0.13674717255336954 -0.18328013773737709
986000000.0 -0.18565974996473195 -0.20603480037640595 -0.18189328629782994 0.02766018969310297 -0.18007401273346 0.02672598659118265 -0.13643726565715536 -0.18399942097534705
986687500.0 -0.18732152502729332 -0.20520589875932682 -0.18112615410044192 0.032410512558340175 -0.17946239960423208 0.030960112619053178 -0.13596426766187322 -0.1848743307863292
987375000.0 -0.18886378093880316 -0.2040596964161534 -0.18014385764966204 0.036977065274857515 -0.17882005193622347 0.03517888651917209 -0.13544528086780971 -0.18547900039869872
988062500.0 -0.1904462349039308 -0.20302781588424507 -0.17898268381928886 0.04152198271914893 -0.17818504260435386 0.039424709558795165 -0.13504736421852798 -0.1862581217883092
988750000.0 -0.19214213042464337 -0.20182826541704058 -0.17769609809198086 0.04602015103530443 -0.1775610470207693 0.0436809463268405 -0.13467254600636927 -0.18644198779774884
989437500.0 -0.19383129730423282 -0.2004205855530319 -0.17635785877885676 0.05033397502989865 -0.17673097653629533 0.047915972706102615 -0.1343604857516594 -0.18660734242294397
990125000.0 -0.1956973444670342 -0.19888227533956962 -0.1748781775244995 0.05451918352587986 -0.1758900073763667 0.05231076089029748 -0.1342007506711352 -0.18666803502372392
990812500.0 -0.1970474120489299 -0.19744520717579123 -0.1733777400041086 0.05861002976336055 -0.17486733206618005 0.056588542125137586 -0.1341307143615364 -0.1865636802611047
991500000.0 -0.1987026533711392 -0.19589873649020353 -0.17169627046857988 0.06264131587031482 -0.173829738774057 0.061087303110205174 -0.13419170345434991 -0.18614519810405403
992187500.0 -0.20004201957124848 -0.19430426230817624 -0.17004400729332733 0.06644402423138765 -0.17266924221697144 0.06549552269652845 -0.13445469159815612 -0.18567199868468406
992875000.0 -0.20141566091582686 -0.19273086504438167 -0.1683956852691842 0.0704011988096828 -0.17133254849132742 0.07007968888518004 -0.1349589097119487 -0.18506515903364798
993562500.0 -0.2024798847514157 -0.1910813740804926 -0.16680074023740715 0.07422700424759261 -0.16969405478070648 0.07444667137402936 -0.13547518241304074 -0.18443139710197232
994250000.0 -0.20385620299801263 -0.18957393620380225 -0.16505486357690596 0.07800346594709767 -0.16804384182365012 0.07897369655023448 -0.13619372379340844 -0.18338904102239345
994937500.0 -0.204823261275442 -0.18813859062723476 -0.16346139082788239 0.08187554479272972 -0.16605940861000548 0.08340830741404287 -0.13720483709340334 -0.18247281709629892
995625000.0 -0.2056992058379756 -0.18674112754279304 -0.16162086082612206 0.08569989505540282 -0.16390093768168312 0.08777960185947832 -0.13830623731851338 -0.18159492544880612
996312500.0 -0.20672282416860224 -0.18552531639618486 -0.15980166182300634 0.08948278749817107 -0.16148694525857116 0.09216079525779373 -0.1395850116468964 -0.18052663913062908
997000000.0 -0.2076390704771829 -0.1843142598743947 -0.15785358259257098 0.09338497155108207 -0.15884886190244876 0.09629043981536498 -0.14098272539998907 -0.17964734782448336
997687500.0 -0.20840057451782024 -0.18332494273858507 -0.1557465171173934 0.09710650633424531 -0.15607131290073797 0.10030882293668449 -0.1421599515658835 -0.17876711252817268
998375000.0 -0.20930856034997933 -0.1822696349753975 -0.1535607458658123 0.10093944043695571 -0.1531742603618415 0.10417678125498255 -0.14354433764392013 -0.1779862591708067
999062500.0 -0.210270850993525 -0.18133790830101199 -0.15135414056747643 0.1047988549259421 -0.1501035073873765 0.10785828141273363 -0.14486365451802752 -0.1774331123516419
999750000.0 -0.2109483409933437 -0.18041065622277502 -0.14888958246701234 0.10857946769343346 -0.14704119582459874 0.11129385830657734 -0.14622665409726754 -0.17696057350643205
1000438000.0 -0.21189175916388783 -0.17962157879413135 -0.1464302888064082 0.1124129549348486 -0.14378665268860388 0.11466940352664855 -0.14754749159916922 -0.1766084823226814
1001125000.0 -0.21287150727831658 -0.17844298322846255 -0.14349629986878062 0.11617309955655472 -0.14071941302281996 0.11786873512586467 -0.1487783737717926 -0.17666523913842716
1001812000.0 -0.21360883449735077 -0.17742474419464946 -0.14077772866119792 0.11987788417215033 -0.137564546564158 0.12083988456115588 -0.14991157586453355 -0.17671403278903036
1002500000.0 -0.21447237503895597 -0.17620707982488598 -0.13772266637693528 0.1235331300663107 -0.13436230213691672 0.12377875856934491 -0.1508600880737869 -0.177031553482783
1003188000.0 -0.215190830162772 -0.17489410983762738 -0.13447954731273626 0.1269687543124913 -0.13120052139298896 0.1265121938392104 -0.15178622716333479 -0.17759106353948678
1003875000.0 -0.21588683170309858 -0.1736498509615461 -0.1311300747247198 0.1303597655931824 -0.1281549928125461 0.12925071555794967 -0.15266762925005994 -0.17823409182289723
1004562000.0 -0.21619970200132574 -0.17211366553532614 -0.12764590433693737 0.13377899412812855 -0.12508959815238777 0.13185861972399157 -0.1534894693330216 -0.1791568629555053
1005250000.0 -0.21651414437123145 -0.17065789217782473 -0.12406629764976654 0.1367764677103245 -0.12216880662379892 0.13440559811343397 -0.15401887776632536 -0.17999214362226643
1005938000.0 -0.2167512589250128 -0.16897935621640753 -0.12036567313551119 0.1398349245595435 -0.11906377047869568 0.13703223856558727 -0.15460300582648545 -0.18118108475665992
1006625000.0 -0.21672936318734592 -0.16732448772515418 -0.1165189912326426 0.14260550942388675 -0.1159462363292772 0.1396362139828353 -0.15503270576623643 -0.18196496200592488
1007312000.0 -0.21653191898687907 -0.16567344448735924 -0.11262858062326779 0.14517568611212187 -0.11285299094748058 0.14219148290633085 -0.1553888736710788 -0.18293998409888218
1008000000.0 -0.21630437489369458 -0.16395835245759693 -0.10864864499409721 0.1477133799606585 -0.10960729415387255 0.1447654764193341 -0.1557555911850383 -0.18383785077068424
1008688000.0 -0.21591902962527137 -0.16225841403739322 -0.1047478537139331 0.1500647485845759 -0.10632193779709115 0.14735786186276803 -0.1561904624791687 -0.1847813000148017
1009375000.0 -0.2154679050304753 -0.16053566999343458 -0.10075423492811802 0.15218833334403334 -0.10282182622516085 0.1499800037384835 -0.15661195831797423 -0.18533729522560938
1010062000.0 -0.21486732346422738 -0.15887862679254613 -0.096672338532251 0.1540153938761881 -0.09924996871880845 0.1525633965554327 -0.1567446370280566 -0.18600365293098065
1010750000.0 -0.21428272199527043 -0.15740905863844581 -0.09269193889696518 0.155755527732258 -0.09549881127722436 0.15505235697885628 -0.15715064737817938 -0.18647155581311023
1011438000.0 -0.21380743713392125 -0.15591391724523684 -0.08873547999196987 0.15747234928709014 -0.09157451059022571 0.15737331427965104 -0.15756009914303545 -0.186660452366531
1012125000.0 -0.2131829130494558 -0.15451077661203538 -0.08490714636140473 0.15897472978179877 -0.08753028255899101 0.15961817300514644 -0.15810229251385707 -0.18680435153797087
1012812000.0 -0.21283901027676155 -0.15307855566162681 -0.08103481877596835 0.1604087792697413 -0.08337881292686163 0.16164100873106627 -0.15846256748747145 -0.18655235096276288
1013500000.0 -0.21249604039758035 -0.15163296929677308 -0.0771955649184904 0.16166171866784343 -0.07908006111617281 0.16342933613545985 -0.1588728079567958 -0.18618677420632315
1014188000.0 -0.21225947754878705 -0.15015146187911682 -0.07329096759354414 0.16292424617935436 -0.07478899125460162 0.16520782438481793 -0.15956967018551846 -0.18576380125804579
1014875000.0 -0.21204783823014867 -0.14870991103497058 -0.06958180175852494 0.1641247150021745 -0.07045654954526015 0.16658980498733789 -0.1601856219568043 -0.1851612516412765
1015562000.0 -0.21202025691390258 -0.1470397021502138 -0.06570315786427793 0.16516652477802934 -0.06609805867533686 0.1677818150523697 -0.1609044762771 -0.1844339423781054
1016250000.0 -0.21206368882800664 -0.14557478621047637 -0.061947942270668 0.1662282183287567 -0.061836811361862885 0.1688192782589188 -0.16169128121374893 -0.18364089801337016
1016938000.0 -0.2122158498170927 -0.143897742134721 -0.05822465929986807 0.16735856251444783 -0.05755607046075749 0.16959851958212377 -0.16250502834957087 -0.18283053944093314
1017625000.0 -0.21223954156416844 -0.1421102915020144 -0.05445415737288333 0.16820750254095743 -0.05338769352108131 0.17022810296378527 -0.16332729618541253 -0.1818920680278839
1018312000.0 -0.21238366578660098 -0.1403497026903933 -0.05071048507766902 0.16915287852059896 -0.04933196188005685 0.17074729991922774 -0.16418467063706396 -0.18102696056977569
1019000000.0 -0.21256747891883865 -0.1385995183215923 -0.0469836463766035 0.16996841368132093 -0.04535020334288772 0.17131144851330404 -0.16516585803258108 -0.1804252821623067
1019688000.0 -0.2127303323585109 -0.13686828536348797 -0.043260886274901336 0.17089597931799871 -0.04156587480418483 0.17161912089497527 -0.16605994139623712 -0.17973370712460154
1020375000.0 -0.2126735478596198 -0.13505408604968472 -0.03946245816385536 0.17150599542396427 -0.03775233881897955 0.1719471820666518 -0.16678633901086568 -0.17922436062637845
1021062000.0 -0.21271086805503112 -0.13319054626385396 -0.03562480573970052 0.17226405946937878 -0.03406475993528387 0.1721681762164848 -0.16788858995296585 -0.17871288137246943
1021750000.0 -0.2126114675945514 -0.13148672173817355 -0.03184930428851019 0.17289458710652528 -0.030349575884139605 0.17265119641240234 -0.16883408567703678 -0.17870419880105157
1022438000.0 -0.21232897204099616 -0.1298863356806985 -0.028053995200009882 0.17350715018422685 -0.026764674118593925 0.17285323708460543 -0.16968412802276203 -0.17861359858891462
1023125000.0 -0.2120334883126011 -0.12841899448838465 -0.024257490037463646 0.17405144839989278 -0.02311515439030136 0.17312061149684171 -0.17069020979227814 -0.1785978828363775
1023812000.0 -0.21171742262672053 -0.12713819546331204 -0.020318432335673393 0.17434570102940652 -0.01940985111658505 0.17345326527913799 -0.1714338987791242 -0.17858466586225882
1024500000.0 -0.2114191937664231 -0.1259712581798027 -0.016438542676662955 0.17468747378547603 -0.015782041252138796 0.1737662782883362 -0.17232341098541812 -0.179082464893813
1025188000.0 -0.21092891884893417 -0.12492433451176495 -0.012460689199309451 0.1749066478814064 -0.012043842336757392 0.17408508647700083 -0.17320828862378576 -0.17938007066728284
1025875000.0 -0.21050748860664342 -0.12396501679361713 -0.008432208054048736 0.17508641381115259 -0.008261540598605462 0.1742138474575085 -0.17394954598916737 -0.1798707446253091
1026562000.0 -0.2100320449283767 -0.12324679762661693 -0.00457384174538361 0.1750641426539439 -0.004389114067352556 0.1743581959933318 -0.17471881613184162 -0.1803782449986882
1027250000.0 -0.20982189407560226 -0.12249045179947073 -0.00038698629381104377 0.17497560020164465 -0.0003787392307521847 0.17442364615318773 -0.17551920928810744 -0.1808402878659931
1027938000.0 -0.20929689676281701 -0.12192985718024474 0.0037143129418859234 0.17485888692751245 0.003532540028657058 0.1742874202302789 -0.1762000649199171 -0.18148673434714777
1028625000.0 -0.2090309950150522 -0.12141915147645381 0.0076450063498275395 0.17455774255908502 0.007462296129334918 0.1741480505065141 -0.17666176227848032 -0.18199830883323415
1029312000.0 -0.2086687616186433 -0.12096629253198063 0.011724075125831129 0.17410995807995683 0.011487434737084475 0.17384050045089244 -0.17747737126248075 -0.18243860318216548
1030000000.0 -0.2083810506080144 -0.12059466002738535 0.015776645008030336 0.17357797251836973 0.015510710708325113 0.17336889441021644 -0.17799052712941293 -0.18279299524436937
1030688000.0 -0.2080102385635081 -0.1199053535214764 0.019740266305388887 0.17285475105488293 0.01949767684337147 0.17269776905775522 -0.17839506339389072 -0.18324849804572046
1031375000.0 -0.20773990438655845 -0.11941546274726203 0.023731872780407188 0.17199394315874086 0.023442007840679208 0.17188104793922185 -0.17891223473135387 -0.18333647403571804
1032062000.0 -0.20731958351363705 -0.11885819575344721 0.027526712320148174 0.17103737464011246 0.02734098640463727 0.1709637414693439 -0.17922744403396973 -0.18331309635554977
1032750000.0 -0.2068908549731985 -0.11817504896993296 0.03128015266148031 0.16998773143681195 0.0310878103703918 0.16992252489729912 -0.17949486561560235 -0.18333936371461484
1033438000.0 -0.20635316620542932 -0.11749309777976724 0.0349264347817674 0.16889398837461828 0.0347614382789531 0.16870108412201698 -0.17994741244638587 -0.1830068647362108
1034125000.0 -0.20570523891475534 -0.11670547527409825 0.038476338435698365 0.1675913758860298 0.03839587682652846 0.16743540467066376 -0.18020550433964347 -0.182674249813006
1034812000.0 -0.2050501327213039 -0.11588236071784211 0.04213474104911222 0.16625765497792672 0.04188598436395542 0.16614999981376066 -0.18030424731302078 -0.1820697661810827
1035500000.0 -0.2042331191649373 -0.11518255373264466 0.0455267385656321 0.1648828646487278 0.045263950874275725 0.16474711244148213 -0.18078352537919454 -0.1815213480724443
1036188000.0 -0.2033542591205967 -0.11425406884080086 0.0489385815977197 0.1633511485589079 0.04861335322790883 0.1632622586757392 -0.18109166568087606 -0.18067197572945584
1036875000.0 -0.20231883194793876 -0.11346828217369778 0.05220962582055978 0.16180489054408548 0.051834349432884216 0.1618302455663965 -0.18121459422527278 -0.1799690439244842
1037562000.0 -0.20130252460574055 -0.11267518394427438 0.05539505492747388 0.16034538136503315 0.05500035094603297 0.16033895815902363 -0.18171425739522531 -0.17916975151888376
1038250000.0 -0.2002772315809529 -0.11202454334220303 0.05850171840486782 0.15864460142100137 0.058156360422266046 0.15892065559095697 -0.18201648896670786 -0.17792121355404023
1038938000.0 -0.199070596406062 -0.11120966118323335 0.061673177799260084 0.15709624573843156 0.06123518703323907 0.15744017409023414 -0.18236802572603622 -0.17710830101893665
1039625000.0 -0.1980347786977687 -0.110571734100464 0.06486440187229625 0.15554453267630405 0.06439547602430142 0.1560397161842355 -0.1830198858133914 -0.17616098902956948
1040312000.0 -0.19691651149811076 -0.10993461758374658 0.06782998355246968 0.15395769599381412 0.06742937152510893 0.15459580625515806 -0.18363200391719234 -0.17527475278982407
1041000000.0 -0.1959142548932648 -0.10939208835504641 0.07080477372293356 0.15236202567254634 0.0705547759793976 0.15318030085239492 -0.18433483829039793 -0.17455156964735088
1041688000.0 -0.19500846018926188 -0.10878033441343904 0.07385062398247905 0.15069845386301167 0.07372438367072971 0.1516896173062715 -0.184846076157132 -0.17374279852898786
1042375000.0 -0.19414095489962124 -0.10819178597485242 0.07687736480002552 0.14906003466905088 0.0768272513980051 0.1500339840140897 -0.185760093320559 -0.1730008516909938
1043062000.0 -0.19342087460543098 -0.10768978558986655 0.07979223471034705 0.14735067792908277 0.07999941717907572 0.14837811981852198 -0.1866579908410273 -0.17232954094364178
1043750000.0 -0.19262735258371677 -0.10717302275311873 0.08265923011204253 0.14564066054325542 0.08317834330574093 0.14665370205222777 -0.18743705743828748 -0.1718500759461259
1044438000.0 -0.1921002795420645 -0.10663505753830013 0.08555513611765637 0.14381152523701637 0.08623809202853062 0.14470421857815055 -0.18847491236625435 -0.17120774004021458
1045125000.0 -0.1915780732422352 -0.10616796843163415 0.08842365520121406 0.1418998252937459 0.08937661773435392 0.14274697719936075 -0.18952465006773836 -0.17091791305008538
1045812000.0 -0.19114585107912355 -0.10553484488800098 0.09135794292450407 0.13998169370282115 0.09245508871847954 0.14060074652052718 -0.19064203401900506 -0.17057633188044535
1046500000.0 -0.1908263283821626 -0.10482510942052833 0.09420597125307424 0.13787169234933108 0.09546742527825294 0.1384585140911514 -0.19178600093529793 -0.17024774409128257
1047188000.0 -0.19055928963372748 -0.10421429225329172 0.09704079332125697 0.1359477967849702 0.09844021107995707 0.13610272134796647 -0.19305815110932398 -0.16999101346031695
1047875000.0 -0.19036767119967693 -0.10360752816889278 0.09996284291748363 0.13374886379492318 0.1012960281334958 0.13373851059232805 -0.19425828681515606 -0.16980200537891854
1048562000.0 -0.19024532283991677 -0.10302491383410273 0.1027380997652801 0.13161191861840715 0.10408017128226126 0.1312597054222041 -0.19536244637978534 -0.16966448219600347
1049250000.0 -0.1900955924007296 -0.10225417613643246 0.10554921570895144 0.12932729614045374 0.10689955286208387 0.1286645674596731 -0.19684424826730487 -0.16956153901587798
1049938000.0 -0.1899041497072323 -0.10164674483175841 0.10821153684231694 0.12693355183292057 0.1093711394335736 0.1259694867393996 -0.19804696081634326 -0.1695777775746251
1050625000.0 -0.1896794800965871 -0.10103744209243092 0.1108931737463138 0.12444986830909276 0.11185649916451812 0.1233689091767993 -0.19936768124707183 -0.16945552823415386
1051312000.0 -0.1894775485801152 -0.10046021543064138 0.11349998061894814 0.12191751673685992 0.11425667829547809 0.1207460048574243 -0.20049493624233267 -0.16948458531206698
1052000000.0 -0.18936895104119197 -0.0999586469387904 0.11605113846892608 0.11950278990888429 0.11654368706349105 0.1181066847618116 -0.2016108297371276 -0.1692938882727623
1052688000.0 -0.1892473850233747 -0.09963110194437019 0.11857952685567845 0.11691023246587652 0.11873936291199094 0.11548823111830737 -0.20286033208416257 -0.1692380866572323
1053375000.0 -0.1888579964711265 -0.0993838694634291 0.12100906204813099 0.11425970635552271 0.12085771776167606 0.11295192215106703 -0.20384398552550712 -0.16919963384259837
1054062000.0 -0.18869750224049922 -0.09906347047958193 0.12325959985946432 0.11149582743193161 0.12305820105710359 0.11034733231257743 -0.20499887482764387 -0.1689302169971924
1054750000.0 -0.1885539579555345 -0.09879327826181215 0.12562441549808223 0.10876502787087083 0.12493646657240914 0.10772185717724074 -0.2058684672843248 -0.16887653309749134
1055438000.0 -0.18818742429956628 -0.09875300076222877 0.12769930759531656 0.1059794245176889 0.12688565141026584 0.10514208496315809 -0.20663540462973462 -0.16854202262753934
1056125000.0 -0.18808746201502335 -0.09900487684452859 0.12972697625090707 0.10315912616704861 0.12878096234703812 0.10248759329563376 -0.2075382649592113 -0.1682338426125416
1056812000.0 -0.18781843201872112 -0.09891948633568338 0.1317582470580395 0.10028579917286884 0.13071851772393098 0.09986696296932858 -0.20845967016988645 -0.1679027812508303
1057500000.0 -0.1876086296778813 -0.09889340852058262 0.1336741813822398 0.09728826142347861 0.13259082181942713 0.09722305563414112 -0.20906844349370915 -0.167473320479686
1058188000.0 -0.18724029325700586 -0.09903062326126615 0.1355374850892382 0.09429180653097756 0.1343722977475158 0.09448710355143314 -0.209991106947574 -0.16700044408322315
1058875000.0 -0.18711277618648084 -0.09918601161644983 0.13730888498200677 0.09137517271654363 0.1363804603473839 0.09168797608049757 -0.21074577388730698 -0.16634069706255575
1059562000.0 -0.18685612356857081 -0.09944772588548854 0.1391457686240327 0.08834493585587894 0.13821278987171218 0.08885502448304135 -0.2114229106321808 -0.16573153595544907
1060250000.0 -0.1866103702423781 -0.09961509353759006 0.14076627046831927 0.08517415315618641 0.14013245688629575 0.0860312388559576 -0.21231708868721666 -0.16486104610138844
1060938000.0 -0.1862745161220814 -0.09980750901097583 0.14245643421438364 0.08225814292997448 0.14186475046644656 0.08311633791030579 -0.21306567203379756 -0.16424657265783127
1061625000.0 -0.18600007671086663 -0.10012368624186666 0.14385734926561144 0.07913588085532182 0.1436990399044345 0.08008327904548175 -0.21398334504217298 -0.16341071851828942
1062312000.0 -0.1858257171472997 -0.10015070471239922 0.14533610367406571 0.07601294017416042 0.14536833100678068 0.0769751986463885 -0.21485557780000397 -0.16252887395485968
1063000000.0 -0.185130325419424 -0.10032864774791615 0.14684032765188565 0.07281141044914785 0.14704959047517824 0.07381062389312545 -0.21582744866217082 -0.16162285732384424
1063688000.0 -0.18472098735129 -0.1003318735285437 0.1481081599109441 0.06983332204920951 0.14858529585572877 0.0706831179910695 -0.21709349647004073 -0.16093586822966133
1064375000.0 -0.18403757253854763 -0.10046674111571305 0.1494005209781533 0.06664319958797145 0.15002450568751458 0.067442382562124 -0.2181349169547827 -0.16003153233643275
1065062000.0 -0.18370338322082277 -0.10052629144282865 0.15057375560315328 0.06345994095010253 0.15144322555584733 0.06412920317818073 -0.21914860414274592 -0.159186350728401
1065750000.0 -0.18316011578692634 -0.10043511962504648 0.15172970340463263 0.06024850328961973 0.15270515845312455 0.06078558795611467 -0.22052375223565646 -0.1583697148525164
1066438000.0 -0.18244764426398247 -0.10060366599207096 0.15271037708849708 0.0570940657455573 0.15391662227811756 0.05738486402280755 -0.22181848972676346 -0.15786681171030081
1067125000.0 -0.18195615570037343 -0.10039089335860668 0.15389224939077956 0.05380720960234703 0.15496260123841846 0.05400891162769027 -0.22333658994208533 -0.15736809842600394
1067812000.0 -0.18136009774413167 -0.10041263770116535 0.15468583763823576 0.05059223024060866 0.15591915840154605 0.05053275637404149 -0.22445381013665436 -0.15645769373064128
1068500000.0 -0.1806182945220682 -0.10049031866161176 0.15563902024242166 0.047352073030927956 0.1567952821798029 0.04717108424167331 -0.22613884001273174 -0.1561106007473757
1069188000.0 -0.18000585105800435 -0.10028475211597875 0.15644712163368782 0.044120800262584074 0.15757477413307228 0.043653683940232946 -0.2275922636883913 -0.1555636804100618
1069875000.0 -0.17929321695898248 -0.10028614335246006 0.15725934418989387 0.04087422485468491 0.15822048708933495 0.04028844190065687 -0.2288946050918679 -0.15516051557669358
1070562000.0 -0.17846582205121123 -0.1002310438296205 0.15794444410326752 0.03760869707754163 0.15879115255298681 0.03681963296689302 -0.23056621627920879 -0.15499268127747032
1071250000.0 -0.1779835298582504 -0.10022207428684139 0.1587065610995475 0.034351348915857685 0.15929202348211147 0.03340327156727914 -0.2319030819213735 -0.15485685850762546
1071938000.0 -0.17720391989633866 -0.10014660893350277 0.15930677705134422 0.031024568578962543 0.1596694211296479 0.030106854786345557 -0.23325781076689953 -0.15462160445665754
1072625000.0 -0.17671647106465677 -0.10019509813374364 0.15984202230163438 0.027792609702483772 0.16009773197543284 0.026778292486654667 -0.2345088896063067 -0.15447267145753038
1073312000.0 -0.1762514600998811 -0.10015875619233518 0.1603658293618812 0.02447650948489693 0.16035670115398581 0.02340577799787146 -0.2359228412594379 -0.1544556388341846
1074000000.0 -0.17563825406139985 -0.10010502265309852 0.16082377804356307 0.021213895825512818 0.16060024046653304 0.02016323167585129 -0.2369806300684057 -0.15425832657039726
1074688000.0 -0.17512852969870382 -0.10015669890797284 0.16114772512245742 0.017903236243166133 0.1607920463337096 0.01685260372065959 -0.23856784668139003 -0.15418785256350412
1075375000.0 -0.1748292864332004 -0.10032622113424514 0.1614042092978872 0.014595755751374801 0.1609712262354576 0.01374500831007699 -0.23948875766380343 -0.15399156973524658
1076062000.0 -0.1745321745945013 -0.10051270736570712 0.1615671559515973 0.011335469670348588 0.16105371207918445 0.010558394501549382 -0.24022727649349235 -0.153993787988828
1076750000.0 -0.17424863493317766 -0.10070454309170046 0.16178129320142742 0.00807096992319955 0.16116993090901183 0.007431328169204306 -0.24105021529839424 -0.15387602928913577
1077438000.0 -0.17420300334559635 -0.10098154313413697 0.16189501080225197 0.004746807470489956 0.16116626151232516 0.0042857183525527144 -0.2417803592182649 -0.1535725103544279
1078125000.0 -0.17406100627812593 -0.10128001131898316 0.16184681777650525 0.0015444685101701908 0.16119639266612606 0.0011703056970735807 -0.24258969167377098 -0.1533963099995379
1078812000.0 -0.17397647891659807 -0.10165322950370806 0.16179273943743072 -0.0018839566832714399 0.16115050764455022 -0.0019862955131601965 -0.24287023571661986 -0.15289563476959328
1079500000.0 -0.17399774894413278 -0.10190632933201631 0.16172240743169947 -0.005243134005753934 0.1610803336992591 -0.005180679817301131 -0.24328786723049664 -0.15237867526629953
1080188000.0 -0.1739936225967308 -0.10232355388541504 0.1614978047104457 -0.008468872546186253 0.16112194784142594 -0.008401612694904474 -0.24362654501769174 -0.1517852209036937
1080875000.0 -0.17408219780061387 -0.10265639541386813 0.1612752637461853 -0.011920037340833226 0.1609126492710365 -0.011600147656256391 -0.24384509785931865 -0.15096709715412124
1081562000.0 -0.17428671507089213 -0.10310439323828764 0.16104116629118345 -0.0153293822734982 0.1607862532372023 -0.014890170176653766 -0.24391595043557 -0.1500465856712524
1082250000.0 -0.17433336665849833 -0.10366744128049896 0.1606459274165458 -0.018701978591621767 0.16061087446471822 -0.018244109793642 -0.2441267132827717 -0.14883561472057383
1082938000.0 -0.17442160053173417 -0.10413409522717022 0.1603169309332797 -0.02206793368926287 0.16028981227466504 -0.021542159770558962 -0.2443139429458066 -0.14789770340111336
1083625000.0 -0.1745779247042128 -0.10475830307444021 0.15978098968121388 -0.02536445354558853 0.15998627916542005 -0.02492372771560002 -0.24432384345461663 -0.14653785178563744
1084312000.0 -0.17467911656719562 -0.10537886905634149 0.15925885716003463 -0.028743911811099743 0.15952112293970966 -0.028297001170111774 -0.2443380535546825 -0.14520968247311863
1085000000.0 -0.1746915735962492 -0.10608694322413854 0.15861509898602252 -0.032069757498514734 0.15901521221717563 -0.03178367798668416 -0.24467383860152905 -0.14385481463650443
1085688000.0 -0.1748787637400948 -0.10681168504946718 0.15783531357549205 -0.03538601002004708 0.1582512279791398 -0.035271919240507224 -0.24462800183882916 -0.14222448491926332
1086375000.0 -0.174891668356463 -0.10744044712670217 0.15712803744643236 -0.03881467552667642 0.15747666262003632 -0.03874382686622319 -0.2449269311325672 -0.14050045169679728
1087062000.0 -0.17489405233647093 -0.10824953627553371 0.15619421066726846 -0.04200322518878737 0.15662107030324302 -0.042289584664336424 -0.24517921932631417 -0.13892504441468634
1087750000.0 -0.1749759196222167 -0.10919221882651242 0.15522010223626007 -0.045267264408601196 0.15558243766010593 -0.04571276778972281 -0.24543794597873964 -0.1372781103710186
1088438000.0 -0.17492923667130034 -0.11005268106243392 0.1541404678456313 -0.048520851238036546 0.1544014886430111 -0.049026841680823885 -0.24575984899870987 -0.13572324388072837
1089125000.0 -0.17492156018993565 -0.11109367608237769 0.1530017855316518 -0.051790087830338484 0.15312563559938597 -0.05229271101261779 -0.2462745197804085 -0.13419814686233228
1089812000.0 -0.17488578580257577 -0.11214457318793199 0.15173659462042907 -0.054957272581780355 0.15180346552040644 -0.05562532354492351 -0.24663064435885818 -0.132588663628409
1090500000.0 -0.1747924958033884 -0.11327615272184541 0.15046605311767008 -0.05817899064265452 0.15035526562605056 -0.058773118152302725 -0.24730488094367764 -0.1311070321986917
1091188000.0 -0.17475940729698103 -0.11446971609018032 0.14908233585451158 -0.0614052363784876 0.1487268070796537 -0.06183539593886539 -0.2480220358691231 -0.12985577710329027
1091875000.0 -0.17493274959691343 -0.11581841772184619 0.14752239297436653 -0.06450628779926787 0.1472621251394529 -0.06480340873691393 -0.24874219121694133 -0.1281382485136867
1092562000.0 -0.17516235656946297 -0.11704019578863166 0.14597509676750486 -0.06731193955541102 0.14556241664053066 -0.06768559363489829 -0.24948142973024204 -0.12702958207485676
1093250000.0 -0.17572328606686874 -0.1182839145207491 0.14445940635235227 -0.07044759022150118 0.14399468750240424 -0.07044960769983104 -0.2503863134925315 -0.12582968798538566
1093938000.0 -0.17599642220505285 -0.11930604198049266 0.14280067957490442 -0.07318407668529268 0.142322765012714 -0.07306693265757372 -0.2510712870063833 -0.12456862944982625
1094625000.0 -0.17657692553799562 -0.12018158882388466 0.14118561350248676 -0.07605631372451285 0.1408369978849547 -0.07577744905337999 -0.251948935262289 -0.12333745916334955
1095312000.0 -0.17713529545454496 -0.12113069141106803 0.1395386967620076 -0.07876076226085847 0.13925652269325192 -0.07834063803225513 -0.25284957254403717 -0.12224579878971294
1096000000.0 -0.17776766419756995 -0.12176181956869835 0.1378172971140501 -0.08157859115815831 0.13768017141684663 -0.08088055436842644 -0.25364556436584285 -0.12119042847127914
1096688000.0 -0.17847424737097617 -0.1224070167761802 0.13620983199608083 -0.08421488109808152 0.1361584161427715 -0.08349784636601629 -0.254330821205145 -0.12008733336797746
1097375000.0 -0.17905997886006209 -0.12299910120520242 0.13435644952716982 -0.08669151172253332 0.13459701014022415 -0.08606225541084456 -0.2550106229255926 -0.11914048482951398
1098062000.0 -0.17976125455583752 -0.12344048652631726 0.1326007174579442 -0.08927122134282592 0.13304505299136718 -0.0886504994440865 -0.25568219101003503 -0.11792849859017404
1098750000.0 -0.18049915290194926 -0.12383341207153112 0.1308449286410521 -0.0918081919713214 0.13145294669915109 -0.09140714268999614 -0.25599682949683844 -0.11673561859347541
1099438000.0 -0.18121605516976524 -0.12409243882321343 0.12902934097279106 -0.09434954577006989 0.12987411336057952 -0.09411989542274422 -0.25637845284476 -0.11558128491904279
1100125000.0 -0.1818662209002216 -0.12430218525075915 0.12713340567629702 -0.09678653130097101 0.1281075632880955 -0.09697537875619837 -0.25653169014612287 -0.11427837158497514
1100812000.0 -0.1825279888118633 -0.12461990996514664 0.12520113179032974 -0.09927278990214275 0.126225182607858 -0.09973480299481191 -0.2565408859454688 -0.11292734377322554
1101500000.0 -0.18320020674130874 -0.12480489514390312 0.12344999248992294 -0.10174028051572077 0.12429798448919795 -0.10259930178824957 -0.2565676223921709 -0.1116117883763857
1102188000.0 -0.18392103612589364 -0.12503165507109176 0.12130763357109628 -0.10430262564278511 0.1221549547541688 -0.10539880252472221 -0.25643014340215 -0.10998561272495323
1102875000.0 -0.1846410708792569 -0.12513451798573458 0.11919701883716963 -0.10668485089110077 0.1198956618815181 -0.1081616172766197 -0.25619410313233376 -0.10842378811390165
1103562000.0 -0.1855304966334899 -0.12553495407680332 0.11722889417590669 -0.10928475514130274 0.11760562816508721 -0.11078559357579158 -0.2561611850703352 -0.10653522459920188
1104250000.0 -0.18637337596804235 -0.1256689867864533 0.11507828081286292 -0.1116850635471533 0.1150965676042715 -0.11347925907601451 -0.2559386234657895 -0.10489653988318759
1104938000.0 -0.18746132221286213 -0.12590370990178196 0.1128322762090809 -0.11424866546912288 0.1125501462770539 -0.1159310051861019 -0.2556626856137885 -0.1030085831375816
1105625000.0 -0.18854419913621318 -0.12634273049638117 0.11065907914800123 -0.11668234484794304 0.1098432437750378 -0.11826872854608257 -0.2552095329258672 -0.10106898404330089
1106312000.0 -0.1897393926553242 -0.12667955475290416 0.10824069108297256 -0.11913577223147584 0.10718536436465101 -0.12056608510368137 -0.25506950664360317 -0.09917568373203832
1107000000.0 -0.19097403660844423 -0.12706225372737845 0.10573326924373405 -0.12155931460124182 0.10440199535832535 -0.12259739110746808 -0.2549711940409742 -0.0969938923055797
1107688000.0 -0.192505351433459 -0.12728798809088693 0.1032407772843072 -0.12396080857594458 0.10151435921362736 -0.12459829099056 -0.25483723706456324 -0.09494818720413822
1108375000.0 -0.19382828126195603 -0.12767518262776983 0.10065488006178273 -0.1262070350353015 0.09875767780011728 -0.12644810648103408 -0.25487659927567324 -0.09291326065096317
1109062000.0 -0.19546668036482936 -0.1278727581264888 0.09779355553178927 -0.12841014116031588 0.09587283729957896 -0.12817323961132904 -0.2550162706079812 -0.09087507320747254
1109750000.0 -0.1971061946078098 -0.1281364320021477 0.0950523573019207 -0.13045323160895747 0.09322527953188901 -0.12980160431607615 -0.2553436078456242 -0.08894467221736638
1110438000.0 -0.1988208232251159 -0.12848823879112745 0.09221187203834603 -0.13244669042120788 0.09058574500298087 -0.13141349058698068 -0.255838822215426 -0.08689102803425705
1111125000.0 -0.20058184821212324 -0.12860037340322206 0.08922488132366779 -0.1343512655974557 0.08782553512927684 -0.13304039481202537 -0.256347061996839 -0.0850449174273348
1111812000.0 -0.20238270603940545 -0.12865567360104402 0.08624415791963778 -0.13624291999530164 0.08517632627320637 -0.13459087048574203 -0.2569993268172182 -0.08328301057738235
1112500000.0 -0.2040882749544553 -0.12871194539586336 0.0832185530152708 -0.1379676909419958 0.08259550948732364 -0.13618677874190013 -0.25781812955693334 -0.08153158848187535
1113188000.0 -0.20584424471433066 -0.1287376085403268 0.08014293029448816 -0.13954098083046756 0.08002875114739805 -0.13777597031109104 -0.2587295124153805 -0.07978417476701687
1113875000.0 -0.2076142399764396 -0.1285725055431077 0.07707934132556946 -0.14116661243534917 0.07749844153883649 -0.13936536783953885 -0.259762375623288 -0.07835509941748342
1114562000.0 -0.20914791918040715 -0.12863857201678086 0.07400996085975244 -0.14253263001716074 0.07494395550278181 -0.14092438489893386 -0.2608677014870012 -0.0769052013000772
1115250000.0 -0.21071278714797534 -0.12849898593954104 0.07095774977786048 -0.14379165895238208 0.07233549122442438 -0.14262964425977123 -0.26197479866049994 -0.07576476105803101
1115938000.0 -0.21225688669796564 -0.1283427270568579 0.06787110667321626 -0.1451437065579132 0.06958042293526881 -0.1442983691946221 -0.2631384881801405 -0.07443903790646428
1116625000.0 -0.21367739007309494 -0.12819654412796072 0.06485015703746867 -0.14637622068004227 0.06678435149959526 -0.14590966972448888 -0.2642816846966587 -0.07333708072688308
1117312000.0 -0.2151204178296593 -0.128098408095901 0.0619216877440825 -0.1474733888740624 0.06399980943090418 -0.1475480711197881 -0.2652906594937817 -0.07247338308517777
1118000000.0 -0.21639761660373413 -0.12787333690083005 0.058886741670496706 -0.14846689009633784 0.060951040207628364 -0.14913502867623618 -0.2661940504734458 -0.07146581382610757
1118688000.0 -0.21769699878951995 -0.1276884971397109 0.05594056326875506 -0.1496464363266819 0.05787863840904127 -0.15064216771476438 -0.2669716426980087 -0.07070017976756868
1119375000.0 -0.21895178885180555 -0.12757174596732718 0.05299633706872388 -0.15053618025947518 0.054628807334203416 -0.15216107672891663 -0.26772428362060324 -0.06991667711149481
1120062000.0 -0.2204156278225319 -0.12743354689734035 0.050032332844431135 -0.15157499738929428 0.05130079410941998 -0.15344504980507132 -0.26829086645573297 -0.0690886892062922
1120750000.0 -0.22160728610425093 -0.1271798894524149 0.047189647713989216 -0.15251885329847475 0.04782081263274779 -0.15457864903043012 -0.26856892657292974 -0.06820264503771516
1121438000.0 -0.22290173895101006 -0.12700164067722305 0.04426509066556543 -0.1536034772330089 0.04440110692626358 -0.1556496572737027 -0.26863761431726907 -0.06753649950241349
1122125000.0 -0.224352678730834 -0.12666422778017689 0.041224738154499695 -0.15440839001579118 0.040835700664077365 -0.15664348783193843 -0.26860097057974347 -0.06672227412604928
1122812000.0 -0.22553492826299873 -0.12628824071946876 0.03823790112719309 -0.15522044961660852 0.0372667608409806 -0.15731591387146007 -0.2685118181063084 -0.06576806976694992
1123500000.0 -0.22715343727053336 -0.1258228791555862 0.035160638972375716 -0.15613897340910382 0.03376498063749456 -0.15794191506361882 -0.26803018286134467 -0.06471458549818608
1124188000.0 -0.22845060751943183 -0.12521781362673706 0.03209367594369112 -0.15690508242106455 0.0303178504114026 -0.15842082099175558 -0.2675778838127631 -0.06389569108283527
1124875000.0 -0.2298589396888072 -0.12445311789749998 0.02892563837109066 -0.15764990375861518 0.026786737841625472 -0.1587793304483788 -0.267029610825133 -0.06271193087222665
1125562000.0 -0.23132547568359516 -0.12371993804346584 0.025645794805900825 -0.15837084627004383 0.023475067619506264 -0.1590634717196663 -0.266073988981168 -0.06152968243102566
1126250000.0 -0.23266739585864157 -0.12262107007367465 0.02234703015394972 -0.15895823363621886 0.02020041832032106 -0.1591472356789932 -0.26537647644097695 -0.060346234876535794
1126938000.0 -0.23446033906950112 -0.12147114957995866 0.019052473081826563 -0.15948001090385075 0.017013990298715025 -0.1592752487395615 -0.26462877571139715 -0.05906755610147846
1127625000.0 -0.23562617308136674 -0.12025207553806103 0.015646694698645394 -0.16004046043020057 0.013871936552623665 -0.15936149253612733 -0.2638722418910119 -0.0576303230946235
1128312000.0 -0.2371906649303426 -0.11884015626232286 0.012156126483575329 -0.16042080218418633 0.010707223454947566 -0.15948425152316711 -0.2630712336708986 -0.05621630898321122
1129000000.0 -0.23854855848790518 -0.11748435247728589 0.00876721518587407 -0.16069735913933925 0.0077567447763864554 -0.15954177663877786 -0.2621115788080793 -0.054921705341755854
1129688000.0 -0.23992850084733955 -0.11606781588430506 0.00540673549877976 -0.16102323465688514 0.004679976830891466 -0.1595559575613272 -0.261504204788423 -0.05356655351014925
1130375000.0 -0.24114650492313044 -0.11433657799211851 0.001985853693985656 -0.16112098389731302 0.0015589803850314897 -0.15966329701125767 -0.26070858210302633 -0.05207204832368018
1131062000.0 -0.24253245612353888 -0.11279018957529234 -0.001435766870949532 -0.1611319961086372 -0.0015424563677596205 -0.15976961413574764 -0.2600364047482312 -0.050724197895743506
1131750000.0 -0.24382951392732655 -0.11122706657960173 -0.00494118729100889 -0.16113569625034463 -0.004550515896084367 -0.1597598595884958 -0.2595513451589845 -0.049134863817666435
1132438000.0 -0.2451568050212653 -0.10946679749668004 -0.00831702892925323 -0.1609573425777045 -0.007783649788563562 -0.15988728792928872 -0.25910142831313177 -0.04787149341996379
1133125000.0 -0.2464501929795123 -0.10789820378880609 -0.01181193818879426 -0.1608035026122406 -0.011010872962138188 -0.15990810603102198 -0.25863786110635173 -0.04649325738377096
1133812000.0 -0.24774724960970182 -0.10634649638166377 -0.01518316039797026 -0.1605055089029029 -0.014324761424407008 -0.15990328959278516 -0.25820139398087155 -0.044945536997842636
1134500000.0 -0.2490881508483807 -0.10481106139729 -0.018496345757354562 -0.16011685965304354 -0.01769361818605007 -0.1597889414998967 -0.258026415031614 -0.04379360049041214
1135188000.0 -0.25057775123102083 -0.1030531627496908 -0.021995250277820098 -0.1597075523212227 -0.021154457179011675 -0.15970294268349663 -0.2577968599493196 -0.042361983119034045
1135875000.0 -0.2519148183345223 -0.10137192358823731 -0.025364082738089728 -0.15907820087371588 -0.02465066859056478 -0.1593262394277514 -0.2576492472272134 -0.04107319165362538
1136562000.0 -0.25334390149516167 -0.09981343079567147 -0.02864081815159062 -0.158513202996138 -0.028119846752776297 -0.15889025972085397 -0.25732270641936333 -0.04013074185638625
1137250000.0 -0.25472494902723786 -0.09820900304911459 -0.03191865985194258 -0.15774979540626016 -0.031621837103808934 -0.15839675975389514 -0.2569896784854504 -0.03901000343309771
1137938000.0 -0.2562243335706872 -0.09651429596686142 -0.035318101870308 -0.15707098301140926 -0.0350489427566274 -0.1576841721355822 -0.256854935006989 -0.03825191628453519
1138625000.0 -0.2576735324110482 -0.09494498127964997 -0.03853565332923979 -0.1560838179260795 -0.03855240646971679 -0.1568915305083788 -0.25647801657686164 -0.037208227622833434
1139312000.0 -0.2591288481200132 -0.09330905283088586 -0.041692602691430325 -0.15512855921142352 -0.04194394629688633 -0.1560243711323468 -0.25617729206345474 -0.036536613171514305
1140000000.0 -0.26054879982930484 -0.09151564717128105 -0.0450160793173933 -0.1542470314941747 -0.045318558362310045 -0.15490511774028196 -0.25560897169790253 -0.03574044857683354
1140688000.0 -0.2619990356059639 -0.08988599473012387 -0.04818404748148903 -0.1531944413302429 -0.04855722459068474 -0.1538574964476377 -0.255055458502573 -0.035275852249841776
1141375000.0 -0.2633122641414216 -0.0879532832531605 -0.0512091854377799 -0.15207537993939144 -0.05176772495556405 -0.15257620033379488 -0.254107267443447 -0.034814195890626294
1142062000.0 -0.2645570378054386 -0.08617923870469055 -0.054330622566079345 -0.1510256401485526 -0.05480527381638277 -0.15137161950509254 -0.25302058153881546 -0.034244696211675314
1142750000.0 -0.2655977025407972 -0.08422201513068522 -0.05727623640271663 -0.14976050021943388 -0.057864607674269326 -0.1500005769414536 -0.2521822411834726 -0.033579883523140695
1143438000.0 -0.2665415767851758 -0.08235881857153385 -0.06031403418406931 -0.14861117913563984 -0.060864677139402544 -0.1486344012918596 -0.2508152463776252 -0.03317884988692942
1144125000.0 -0.2674932684113848 -0.08072451204201551 -0.06326562276300395 -0.14731895828192043 -0.06378766826141347 -0.14727201991247577 -0.24950109787785524 -0.03250517652387733
1144812000.0 -0.2680604346620216 -0.07898637660390476 -0.06625665560035278 -0.1461781060550514 -0.0666255932041516 -0.1458806127831661 -0.2478668348277119 -0.032224582081166485
1145500000.0 -0.26859170255033527 -0.07737202433879817 -0.06906739640123304 -0.1448162040710698 -0.06956116501860046 -0.1445053250328344 -0.24621288065886235 -0.03156406133835234
1146188000.0 -0.26918247356403646 -0.07567344588006067 -0.07210969124393322 -0.14343009474023682 -0.07230485690512284 -0.1431012401402578 -0.2445508933143955 -0.030848376110697132
1146875000.0 -0.2695448091007676 -0.07412004828257603 -0.07504003299087429 -0.141946591634651 -0.07523733826613599 -0.1416556249573151 -0.24281108899985854 -0.030163718841088753
1147562000.0 -0.2697933407584321 -0.07258534255876165 -0.07785074521008556 -0.14049192860900986 -0.07799946669885054 -0.14017533952308306 -0.24103554223369617 -0.02927193779949886
1148250000.0 -0.2699638542835171 -0.07131874653848772 -0.0806370740380259 -0.1389276403835779 -0.08077867988903066 -0.1386985547169824 -0.23931294496899205 -0.028619220007488434
1148938000.0 -0.27015487083945516 -0.06983818729153385 -0.08354954325437783 -0.13736355968767608 -0.08358111750286079 -0.13717385757107037 -0.23763238595163985 -0.027762515629836063
1149625000.0 -0.2702053669882145 -0.06845935763064354 -0.08630498721424104 -0.1356383348256585 -0.08641015462638654 -0.13562494551192425 -0.23617481457280515 -0.027080703153366355
1150312000.0 -0.2703940755338273 -0.06698931869766613 -0.08906875631583154 -0.13394510124668346 -0.08913091777777578 -0.13396771600915927 -0.23443299031772855 -0.026176385345117986
1151000000.0 -0.2704687725895809 -0.06584260280907345 -0.09184412717730128 -0.13219428966303398 -0.09191423898662965 -0.13227532224234562 -0.23300735484159335 -0.02503046925373286
1151688000.0 -0.2704723607026768 -0.06428145504964168 -0.09466040997934654 -0.13036564282824842 -0.09478022003504899 -0.1305418140825517 -0.23154372104282187 -0.0238983516162154
1152375000.0 -0.27048664767058556 -0.06290829943627674 -0.09726815692980605 -0.12845294105815866 -0.09753307930999744 -0.12875779109686433 -0.23035937560396116 -0.022755621799112002
1153062000.0 -0.2705031658474885 -0.06155246930066618 -0.09998157436825415 -0.1265912425490135 -0.10028971150843347 -0.12681723934747616 -0.2291691037959051 -0.021584503667555197
1153750000.0 -0.2704335554132421 -0.060165263363730126 -0.10256584773051869 -0.12450679924613568 -0.10299376275888247 -0.12484023406178796 -0.22814102189158636 -0.020516894003781327
1154438000.0 -0.27045153758471085 -0.0585017228672627 -0.10525672646025643 -0.12255224425031491 -0.10568268377546389 -0.122667311961762 -0.2272469997011133 -0.019477469720825414
1155125000.0 -0.27052180391751 -0.05681909012093803 -0.10778262204134703 -0.12025241668715854 -0.10841946266332511 -0.12040074643116576 -0.2265041270563705 -0.01829679991075663
1155812000.0 -0.27048026125691854 -0.05531595619746179 -0.11033908287560133 -0.11811775454981573 -0.11097843539541145 -0.11803928793034081 -0.22572282648059142 -0.01709829280439531
1156500000.0 -0.27051561493799253 -0.053738952817328746 -0.11290428369668354 -0.11581866490518493 -0.11350894962103832 -0.11570592433837089 -0.22525270978261472 -0.015944740836996957
1157188000.0 -0.2705559226061524 -0.05200530278939975 -0.11552172631062743 -0.11352292056958821 -0.11609475229892645 -0.11332596477941598 -0.2249411319297342 -0.015069175031952415
1157875000.0 -0.27037054223672846 -0.05016770046811519 -0.11789723737814735 -0.11112331462298936 -0.11849719773978827 -0.11068496469901276 -0.2243295663462826 -0.014042268960957201
1158562000.0 -0.2702874299752059 -0.04835067284451357 -0.120304892876306 -0.10867698072274584 -0.12087661554190782 -0.10807578851679217 -0.22391896347277973 -0.013171445349678118
1159250000.0 -0.2704652675974835 -0.04660605244509416 -0.1227692669536079 -0.10605942826556027 -0.12326138597311218 -0.10546407566067714 -0.22382639879047722 -0.01233411231491563
1159938000.0 -0.27039468954684753 -0.044774049056446705 -0.1250277763216185 -0.10350099860618407 -0.12542741730150972 -0.10278431933833342 -0.2236077143859994 -0.01167442535601185
1160625000.0 -0.27029911749592506 -0.043032129134636235 -0.12717368718256916 -0.10073138468320235 -0.12751072969092947 -0.10004605320093934 -0.2232221888582854 -0.01118791050188228
1161312000.0 -0.2703117389524629 -0.04111232170386666 -0.12946594016362506 -0.09808999463471521 -0.12962300919601466 -0.09718889406119761 -0.2229441828688369 -0.010553286711336351
1162000000.0 -0.27017788136692833 -0.03929549395428532 -0.131457106648172 -0.09510215403295785 -0.1315005660921125 -0.09433966722053252 -0.22276912055029532 -0.010061846809487868
1162688000.0 -0.27017007962021933 -0.03760434910777494 -0.13346642048074903 -0.09229166900870812 -0.13340780880634917 -0.09148732915383183 -0.2223917278518287 -0.00972626473922089
1163375000.0 -0.2700851507604169 -0.03576642141625046 -0.1354993470227585 -0.08931836004688914 -0.13522671490407162 -0.08856414587362044 -0.22208397618909143 -0.009365150840545388
1164062000.0 -0.27000494749627846 -0.034209450225280214 -0.13729325089114064 -0.08640699454333949 -0.1369652434547009 -0.08567391101367706 -0.22179390807066832 -0.009105719180788134
1164750000.0 -0.26996593585252976 -0.03257098261467763 -0.13907342176897167 -0.08331129149543874 -0.13868635283078565 -0.08280479780594412 -0.2213616740228017 -0.008737173732916562
1165438000.0 -0.2700769968186039 -0.03093254314811955 -0.1409401077922766 -0.080294070675111 -0.14037350532399562 -0.0798945701640009 -0.2210393153499122 -0.008534279322218844
1166125000.0 -0.27004681608660425 -0.02948634958698526 -0.14249664091924433 -0.07711444436984763 -0.14188566895984736 -0.0769113593067468 -0.22046730690347896 -0.008333038063959911
1166812000.0 -0.27007432873947235 -0.028039476906088247 -0.14406177075396484 -0.07410245378162844 -0.14342767130462383 -0.073896009371932 -0.2201093071443634 -0.008118824559886762
1167500000.0 -0.27003585873871583 -0.02674101102523051 -0.14560586720141488 -0.07092706293053339 -0.14483374351005412 -0.07098567185292351 -0.21947761727660203 -0.007849628385560196
1168188000.0 -0.27011865580417016 -0.025499054713110706 -0.146967374196813 -0.0677887163679688 -0.14626877276281888 -0.06799533509589108 -0.2188718340812687 -0.007868867514068028
1168875000.0 -0.2700168962590739 -0.024352842549509205 -0.1482631122173534 -0.06453376256373987 -0.14772258702711827 -0.06496354467071468 -0.21817029907620786 -0.0076783345637672865
1169562000.0 -0.2703584831978905 -0.023161274308058078 -0.14951605561232809 -0.06123789179418658 -0.14896860348737004 -0.06187373344972507 -0.2176617053777486 -0.007340136915905905
1170250000.0 -0.27031653606485123 -0.02213459904170734 -0.15061493716841146 -0.05802362483650481 -0.15030234348559046 -0.05882623450016301 -0.216949646727379 -0.007146095134890767
1170938000.0 -0.27052680833952464 -0.02112318215538304 -0.1517086982084642 -0.05482970526777716 -0.15154065356377086 -0.055723213157748204 -0.21644744643295877 -0.006929886374088786
1171625000.0 -0.27054051393005013 -0.02018463317851713 -0.15271308354324722 -0.0516673047501266 -0.15265846951508602 -0.05258760177239182 -0.21583780022029023 -0.006627086999900941
1172312000.0 -0.2703465138927965 -0.019260930521952723 -0.15360657965016208 -0.048398891925639 -0.15381296704976452 -0.04933428694203623 -0.2154233491189228 -0.006378974503045391
1173000000.0 -0.27049668900808665 -0.018402686049655705 -0.15440162765831078 -0.045180182749682316 -0.15484176200486952 -0.04602464548838886 -0.21496968608940126 -0.006125460998063829
1173688000.0 -0.2706707851130817 -0.017477779327702715 -0.15516153869077523 -0.04197775116614771 -0.15590694165237184 -0.04275536606425358 -0.21456686556819338 -0.005989360507327158
1174375000.0 -0.2705659945596018 -0.016706002852358272 -0.15586222608884304 -0.03879983106157351 -0.15683098856902572 -0.03940807138539725 -0.21421809645850837 -0.005738823870468128
1175062000.0 -0.2704995745671219 -0.01580556750908045 -0.15659767736653554 -0.035653674995275386 -0.15762507577811383 -0.036106133059056196 -0.21407549153908756 -0.00554218002361463
1175750000.0 -0.2705370790445826 -0.015055464665878078 -0.15709788173360673 -0.032457103984656906 -0.15844848735998918 -0.03270373393643376 -0.21388714593333819 -0.005298209178706376
1176438000.0 -0.27027668290614376 -0.014322161996801957 -0.15769485772471853 -0.029360902609069636 -0.1591218478277792 -0.029302336886707175 -0.2138887592489979 -0.005146240697821126
1177125000.0 -0.2702070091773048 -0.013540602342559372 -0.15821102382053553 -0.026085136802835165 -0.15969282122280548 -0.02583485692631702 -0.21398081159389648 -0.005072454750384269
1177812000.0 -0.2698756314430813 -0.012665927380253638 -0.1586616682934824 -0.022928315041782044 -0.16013325091045616 -0.022360674004050594 -0.21404717205530974 -0.005042551530219876
1178500000.0 -0.2698293351123832 -0.011910797592895381 -0.1591159303057635 -0.019776035519046664 -0.16059668631733642 -0.018854378452138203 -0.2142125636647942 -0.004930084553352319
1179188000.0 -0.26944197171572654 -0.011007759167819195 -0.1596185186258342 -0.016487592885499495 -0.16080663032617024 -0.015371387152324658 -0.2145542825912949 -0.004981002724552965
1179875000.0 -0.26917881617344364 -0.010281839838542162 -0.15989131036599452 -0.013272030794449594 -0.16098426912644245 -0.012002883688044603 -0.21496346379977713 -0.005044801119927684
1180562000.0 -0.2686332880636981 -0.009316679547269033 -0.1602208245297247 -0.01005704077875856 -0.16097251211267735 -0.00851494723747495 -0.2151902062802902 -0.005188366885101806
1181250000.0 -0.26820917800166494 -0.008641568220608315 -0.16035229255855937 -0.006726078715147572 -0.1608757128201938 -0.005003780074472987 -0.2155506472717071 -0.005410644036432143
1181938000.0 -0.2677292400769247 -0.007666187840809864 -0.1605897828321198 -0.0033074534588452063 -0.16059540966544672 -0.00162306978863713 -0.21598212037625567 -0.005725266197568865
1182625000.0 -0.2672246222436472 -0.006987955285799667 -0.16063359535709398 6.412834838779235e-05 -0.16036438694573893 0.0017611790428093523 -0.21638627555375448 -0.0060124406623437215
1183312000.0 -0.26680400174870256 -0.006015339129664327 -0.16079040514530007 0.00353781546093708 -0.16002572003573592 0.005029816427515804 -0.216802447096392 -0.006289275208593812
1184000000.0 -0.2662209585858643 -0.0053953034520215154 -0.16063130674625015 0.006971652190120381 -0.15963528797178111 0.008346372106259605 -0.21713064099000343 -0.006533492046940632
1184688000.0 -0.2658572943267331 -0.0044352683805527985 -0.16058588704642268 0.01042363234204907 -0.15922925087811413 0.011650906849550186 -0.21750026861153005 -0.007011720279641438
1185375000.0 -0.265525493927427 -0.003530068627958207 -0.1601689453317459 0.013832751432608105 -0.15876289877359848 0.014851286022884616 -0.21780602573800414 -0.007519341613699195
1186062000.0 -0.2650623804112811 -0.0025983209439559957 -0.15995000364074072 0.017404661492346495 -0.15828074755424842 0.018025787924335752 -0.21817490939280526 -0.007896359764128094
1186750000.0 -0.26490705336148884 -0.0019000358498706797 -0.15934137920705513 0.020822816464479397 -0.15773010868647444 0.02105028123702073 -0.21814154487892756 -0.008395934812344658
1187438000.0 -0.2646498339820858 -0.0009735459642798005 -0.15884747654897047 0.024331831871740983 -0.15716543535197064 0.024261232328464735 -0.21827645038736848 -0.00904016937283962
1188125000.0 -0.2643568613008062 3.231363516480052e-05 -0.1581434586729853 0.027730950217201164 -0.15664660623513946 0.0274385869520161 -0.21828571578241987 -0.009620078533097244
1188812000.0 -0.26417147965459453 0.0008960228515475892 -0.1572565658395975 0.031191598033095094 -0.15602084423631765 0.030436167806252606 -0.21813460792245887 -0.010212045901987031
1189500000.0 -0.26417946838021683 0.0019910561808907886 -0.15632518369100745 0.034618733548564574 -0.15542478526243617 0.033561093168673874 -0.21790739539699844 -0.010844747582313
1190188000.0 -0.2641353475191865 0.0031016156270528878 -0.15525328745331604 0.037914515106147274 -0.15473720592000012 0.03672011149967264 -0.21770767987217662 -0.011585439248521413
1190875000.0 -0.2641810761897298 0.004136751740092335 -0.15424490934767673 0.041190555872216136 -0.15399374552374226 0.03985554040354771 -0.21722655494470103 -0.012164513899867165
1191562000.0 -0.26425811084257506 0.0053614164967819445 -0.1530052566235881 0.044458061903607654 -0.15311448371610684 0.043022480082992004 -0.21685511678991568 -0.01281595783245012
1192250000.0 -0.2643282523690247 0.006569139674314435 -0.15164545820315486 0.0476373068436636 -0.15216705821499588 0.04613998923642895 -0.2164570735912182 -0.013544347049875028
1192938000.0 -0.2644685300449907 0.007813641705509886 -0.15047523410511074 0.05064581094455907 -0.15119615337502215 0.04938496337313549 -0.2160375856764514 -0.014238903917263028
1193625000.0 -0.2644457743391025 0.00894465906273796 -0.14899947375923442 0.05355295241060925 -0.15013574744318833 0.05258803549316195 -0.21555514973551998 -0.014896361572008014
1194312000.0 -0.2644644241865431 0.010156506289282188 -0.1475428917929974 0.05652228342923832 -0.14889021718078863 0.05574143656860636 -0.21522296901537386 -0.01534848884219903
1195000000.0 -0.2645018620371982 0.011416276421428645 -0.14602398837237268 0.05937491193527405 -0.14760306205484766 0.05897507677633941 -0.21467556381966804 -0.015879143586438788
1195688000.0 -0.26456758660189633 0.012584668541877913 -0.1445679752166673 0.0621665480087158 -0.14616567899706487 0.062094288383849665 -0.21431365707383387 -0.01638765602272829
1196375000.0 -0.2646016998646646 0.013722929696229654 -0.14299640689405174 0.06485952419687901 -0.14460384653798292 0.06521563017894318 -0.21401002320998075 -0.016670503173073378
1197062000.0 -0.2645822076160139 0.014698428489011267 -0.14148780675185332 0.06743680731196576 -0.14298040713460586 0.06821618333939249 -0.21374195927263934 -0.016903131960176655
1197750000.0 -0.26453893031537795 0.015699029215549862 -0.14003257150494844 0.07020957463687398 -0.14126916753066168 0.071147220995097 -0.21350791885095893 -0.017130963728108295
1198438000.0 -0.2645697021704964 0.01657605750870316 -0.13840272324128178 0.07270444937039325 -0.13944824289768382 0.07404224054017787 -0.2133428932641951 -0.017257141108776696
1199125000.0 -0.26452507015854254 0.017367316997162534 -0.13692233231207812 0.07517338838009986 -0.1374909014795287 0.076799083476853 -0.21344428628713666 -0.01711861867324052
1199812000.0 -0.2646534539762105 0.018271090225508515 -0.13520632786081013 0.07770940476649256 -0.13554812638365052 0.07955407883319356 -0.21342788410651797 -0.016990200202300278
1200500000.0 -0.2647445571073479 0.018908755023753485 -0.13360918912308864 0.08032723952466388 -0.13356369714454225 0.0819857477884143 -0.21359306207532583 -0.017047684847577307
1201188000.0 -0.26484308981227206 0.019754986277316738 -0.1318764242108033 0.08278104476102671 -0.13155378754270577 0.08440712444317992 -0.21390442484527075 -0.01663589677604888
1201875000.0 -0.2648783443158211 0.020411939458650316 -0.1301119354942551 0.08529663382814837 -0.12954046038554926 0.0867094496907244 -0.21392571258481824 -0.01644822382974364
1202562000.0 -0.2651652671886954 0.021225531372534478 -0.1283015917382731 0.08787001107740709 -0.12763283405019576 0.08903012068400967 -0.21458303351466285 -0.016021754225693373
1203250000.0 -0.26531753703214506 0.022007846027001232 -0.12653376726366836 0.09024825095834728 -0.12555808645769087 0.09121126979835731 -0.21483848851086745 -0.015492032747784396
1203938000.0 -0.26541263338639426 0.022736146472484578 -0.12469952299109441 0.09272188940151357 -0.12365543332657088 0.09335620030801704 -0.21543422890004044 -0.01519457204930202
1204625000.0 -0.2656298539688545 0.023570152073350472 -0.12278612693326199 0.09506357575219797 -0.12175401521512316 0.0955297994585546 -0.21584669772392906 -0.014794296797869467
1205312000.0 -0.2658368440262103 0.024442421992640212 -0.12083497598341743 0.09753429272697406 -0.11983881755992631 0.09766848573335472 -0.2164441997671225 -0.014238951920235554
1206000000.0 -0.26597697504503703 0.02543296941294739 -0.11883124191626454 0.09993205485968101 -0.11790234206204124 0.0998414766399809 -0.21680477831254116 -0.013614852489809474
1206688000.0 -0.2660935392249181 0.0265307157678416 -0.11686329566752594 0.10229478299355065 -0.1161067814783308 0.10193591975068272 -0.2173634553747931 -0.01325585096504474
1207375000.0 -0.2661236158923252 0.027514569691961067 -0.11478448334466372 0.10468509147797354 -0.11417365112390353 0.10407838659433656 -0.2178052622129484 -0.012840501520514828
1208062000.0 -0.26610161920547787 0.028874336708557137 -0.11268544477924222 0.10680430544361619 -0.11227205452372019 0.1063506056316334 -0.2183013319431523 -0.012335972690197402
1208750000.0 -0.2659294179112966 0.030132079762131142 -0.1104843933848589 0.10897252311633077 -0.11019652132873099 0.10849765189948075 -0.21867919490941526 -0.011662754375185725
1209438000.0 -0.2657218192806005 0.03138281640936182 -0.10834510303591838 0.11106088901193781 -0.10818775158725379 0.11067494079896181 -0.2191636671022877 -0.011449640801178346
1210125000.0 -0.265354912736885 0.03268023060007809 -0.10606449545088494 0.11325330360238219 -0.1060384576101917 0.11292152735307312 -0.21956332773866202 -0.010927838125060272
1210812000.0 -0.26489695512330524 0.03401255167587543 -0.10378780259126842 0.11522983774759844 -0.10379724296945035 0.11515680405975479 -0.21987381684448154 -0.01067651879099026
1211500000.0 -0.26448536545252527 0.035377248917524175 -0.10141136668823918 0.11724003968820236 -0.10146754938591451 0.11731479584947457 -0.22021932082041087 -0.010306775935727557
1212188000.0 -0.2640370110408443 0.03680236689036526 -0.0990538180391879 0.11920222019383336 -0.09898575662393716 0.11947133612457661 -0.22041362408526616 -0.010008474065364176
1212875000.0 -0.2635533416669391 0.03798583012035269 -0.0965558589433553 0.12103309051133336 -0.09655238865253846 0.12154926587874738 -0.22069887090211185 -0.00995065497376059
1213562000.0 -0.26299827005249116 0.03938373882271623 -0.09397475864386176 0.12297788564709172 -0.09392768437215605 0.1234234031465348 -0.22094214373167032 -0.00976205936329795
1214250000.0 -0.2623946566559556 0.040623739836935784 -0.09150305232317633 0.12481398791464897 -0.09130317402433405 0.12532982130938222 -0.22103067266855075 -0.009642456243565998
1214938000.0 -0.2620935924760404 0.04193137675332744 -0.08885890703719064 0.12656991534862916 -0.08864678056604151 0.12699197317263355 -0.221048365081845 -0.00930540494038671
1215625000.0 -0.26155320828199013 0.04325478474328298 -0.0862202987430791 0.12825218059679241 -0.08581229587184443 0.1286376508143607 -0.22128309092973159 -0.009072074988215046
1216312000.0 -0.2611006759463887 0.0446761518755528 -0.08350448261358567 0.12974014580530174 -0.08304205780855263 0.1300768808759579 -0.2212386245434843 -0.008822783018492977
1217000000.0 -0.260643533948876 0.045940385479094806 -0.08086437623078654 0.1312630110829523 -0.08026226143209439 0.1315549772410983 -0.22154157449903378 -0.008623879307031797
1217688000.0 -0.26050232202409074 0.04741609320676167 -0.07804371290242065 0.13278452489016893 -0.07758260702596 0.13277746441549554 -0.22178225099091847 -0.008025442554395466
1218375000.0 -0.26028980626070986 0.04871417940541504 -0.07536827341154609 0.13420128594536906 -0.07485453188176512 0.1338289876050408 -0.22191385182960904 -0.007486451961427314
1219062000.0 -0.2601029943681089 0.05027529680810808 -0.07259205456839962 0.13552620356167866 -0.07216159972314357 0.1349749165010121 -0.2222828001513985 -0.006891665816572781
1219750000.0 -0.2598832197741156 0.0518210936604026 -0.06982562635667486 0.13659839043021915 -0.06959155279094034 0.13591067862145711 -0.22259292481564866 -0.005990267432981554
1220438000.0 -0.25976606606875113 0.05352864562166439 -0.06707254524864724 0.1376635181376041 -0.06709691214029939 0.1369529016054013 -0.2229675682756211 -0.005436988893352604
1221125000.0 -0.2595494768521511 0.055150345915111386 -0.06439214266621195 0.1386936054375303 -0.06456126912222959 0.13785524037755428 -0.22338924243324756 -0.004356726902359651
1221812000.0 -0.25933342394680536 0.05688710524849268 -0.06170819458276832 0.13959277807433543 -0.06204519865898861 0.13882399621903707 -0.2239583573899231 -0.003301657588640366
1222500000.0 -0.25907737706455714 0.05864999259526629 -0.05917122569458273 0.14038048111170595 -0.059585003927363524 0.13980206760982725 -0.22451244959912842 -0.002027076401071204
1223188000.0 -0.25872070742186026 0.06048556390479891 -0.05636058372254111 0.14123828832996646 -0.05712783544567776 0.14092128086327407 -0.22521801525303495 -0.0007734065853646043
1223875000.0 -0.25839947801071456 0.06218121753214881 -0.05376749459177496 0.14209761703092774 -0.05460411883488598 0.14198080000277385 -0.2260549780453879 0.0004322001920764804
1224562000.0 -0.25793059332324036 0.06389081959999039 -0.05119921236016538 0.14292978204825105 -0.05221565728331322 0.14302895817855973 -0.22700668118614817 0.0017437971845432059
1225250000.0 -0.2575237147884864 0.06567076967199816 -0.04856464882980656 0.14374629580116716 -0.04965310440227597 0.14424057038986995 -0.2277767221451077 0.0032576467097820104
1225938000.0 -0.2571140736944105 0.06726497743414357 -0.046122671453175265 0.14457418489214963 -0.04709088460777445 0.1454137927809317 -0.22890921627724548 0.004658969246111147
1226625000.0 -0.2564172103943757 0.06880549993614463 -0.04353653361410762 0.14540206415310972 -0.04446631298404762 0.1465760480810484 -0.2298691151114988 0.005769724883161937
1227312000.0 -0.2558272790385119 0.0702640347604563 -0.04094832753212143 0.14612376050644243 -0.04161869876631137 0.14770966133754806 -0.23103717226116377 0.007299365941119669
1228000000.0 -0.25508349941503106 0.0717099243615867 -0.03830436849616729 0.14702404252893211 -0.03878998139760303 0.14871225781522798 -0.23203987013804236 0.008381141130935296
1228688000.0 -0.25442297170641104 0.07302652871867553 -0.035771184972188626 0.1478856051438261 -0.03591732022020687 0.14970140643546823 -0.23331745391225792 0.009531174270331552
1229375000.0 -0.25372474901488107 0.07419263102275923 -0.03315898414186481 0.1486656518227572 -0.03286196428738015 0.15064766641817495 -0.2342629235241749 0.010541127842441494
1230062000.0 -0.2531143188901376 0.07541488266641407 -0.030523492196302123 0.14956449398847602 -0.029750571483740797 0.15137090905550318 -0.23561600150491854 0.011245367676662833
1230750000.0 -0.2523449556974518 0.07642605689533966 -0.027898337655008446 0.1503218193173057 -0.02662854101272551 0.15199968900356248 -0.23685574831124595 0.011998645454634228
1231438000.0 -0.2517462396618518 0.07745671303639785 -0.025129653478223473 0.15124655956645203 -0.023466350043408055 0.15250966199467084 -0.23775600953497103 0.012821449043379278
1232125000.0 -0.25101362683149575 0.07851500605345131 -0.022291711839145606 0.15203294838478856 -0.020218620426651675 0.15290814406216532 -0.2389011149164828 0.013252178014516709
1232812000.0 -0.25040514201693076 0.07939647677602281 -0.01931600064416715 0.15271283299357627 -0.017094542569908402 0.15320102431345384 -0.23994577943808518 0.013690687004998495
1233500000.0 -0.24967510463859424 0.08056452520111658 -0.016320628895564144 0.15341158735788685 -0.013986225953733524 0.15334792861633137 -0.24090029009108677 0.013998803745212644
1234188000.0 -0.24905034418975924 0.08162736753152323 -0.013261635145406963 0.1539624702293281 -0.0109308017996612 0.15339109300103732 -0.2418832087236245 0.014039739652102487
1234875000.0 -0.24838006454307102 0.08284990117306272 -0.010114510216397579 0.15447905020884586 -0.00794642712561179 0.1534943219500326 -0.24273833546097356 0.014166599144144114
1235562000.0 -0.2476620459166271 0.08397755271153803 -0.006987572458207041 0.15489183186836306 -0.005039791464315825 0.1534376189898288 -0.24349697471699658 0.014302447653421037
1236250000.0 -0.24693942144080477 0.0851276181268891 -0.003571481617174206 0.1553216450182486 -0.0021985213053637076 0.15357275778985874 -0.24418509224353763 0.01428831323619575
1236938000.0 -0.2460299489460964 0.08626678626660422 -0.0003996945140056448 0.15547675575535516 0.0006961312190490744 0.15344596132061258 -0.24485207078353421 0.014281933985615105
1237625000.0 -0.24523806887343283 0.08753993208987615 0.002728915727501183 0.15553888400787155 0.003345500512929609 0.15342898796309157 -0.24543069112633994 0.014446524846937668
1238312000.0 -0.24412052378336635 0.08887611080862134 0.006147162873889685 0.15544648456005794 0.006122231268475548 0.153410822362504 -0.2459247610216331 0.014483042407775962
1239000000.0 -0.24317725928818268 0.09014675455649285 0.009441219612109359 0.155337740083642 0.0088095613699472 0.15344983260233516 -0.24642629901514748 0.014685022906338734
1239688000.0 -0.2421581467137381 0.09154527800518932 0.012608842781981953 0.15516209474689457 0.011515689713578855 0.15348891371672446 -0.2467406436003821 0.015033387259698208
1240375000.0 -0.24087774712293553 0.09287146495094382 0.015820960755823205 0.15484058389010424 0.014309054323874238 0.153553575814222 -0.2470839373595086 0.015512792815646971
1241062000.0 -0.23964067524907842 0.09414006743662306 0.018862621257772657 0.15441682473190035 0.017167667896450137 0.15357070880091497 -0.24747022647649905 0.01598565932967583
1241750000.0 -0.2385644443455595 0.0953988931310778 0.022014509033301228 0.15386436195667846 0.019984021340800486 0.1536380228799879 -0.24759841689163864 0.0165145759691396
1242438000.0 -0.23725588996813377 0.0966172343541418 0.025080764088588073 0.15338422154538878 0.023061035250886475 0.15360076458467828 -0.24783256765423356 0.01733220880592981
1243125000.0 -0.23594372508104114 0.09775219105556737 0.027987835904150157 0.15290769648757607 0.026168393976357295 0.15348855987856633 -0.2481588576825965 0.01820985665483474
1243812000.0 -0.23485915145379435 0.09884549852488136 0.03093979730779822 0.15231859757493568 0.029304822247346346 0.15334417219640326 -0.24848534996552102 0.019339702744430514
1244500000.0 -0.23370038642736637 0.09997149546455233 0.03387170443513226 0.1516716969053221 0.032583327555613814 0.15296814849758408 -0.24875718161118124 0.02052472235723785
1245188000.0 -0.23253753291694246 0.10106850492298991 0.03665563590035268 0.1509825232714641 0.03591807855384657 0.1526750102193194 -0.2490717948879507 0.02182672891657708
1245875000.0 -0.23159745036474075 0.10208973948919894 0.039691356322988855 0.15040483898590815 0.03918260003536286 0.1522230640726866 -0.24955523093984286 0.023149002162705747
1246562000.0 -0.2306599527842745 0.10321531920073153 0.042442431291638355 0.14969922238257646 0.0426620106650074 0.15154990822933997 -0.24990909710202971 0.02456057133991355
1247250000.0 -0.22977767548694342 0.10419439393918263 0.04534869066752129 0.148997068968991 0.04596327447468328 0.15076176417424847 -0.25050365446511 0.025974132074726215
1247938000.0 -0.22895745707381032 0.1052924806133853 0.048279050832683815 0.14828169667083027 0.04928496711425322 0.14995004978355644 -0.2510149341758696 0.027400928018268347
1248625000.0 -0.22821965820310944 0.10624994625898629 0.051137156245643356 0.14750071148168792 0.05258370385987624 0.14899851100135136 -0.2515709571681081 0.028764911241706444
1249312000.0 -0.22758869769849033 0.10740149131193333 0.053982573282819475 0.14677023745140033 0.05575270046735623 0.14793359836121373 -0.2521219011469475 0.029946106425445478
1250000000.0 -0.2268954260417332 0.10836238650411417 0.056990262282487686 0.14594326619544468 0.05888404543553213 0.14670772204770505 -0.25274483790509233 0.03132501017923261
1250688000.0 -0.2263448808991413 0.10948452141401464 0.05988715857595598 0.14504875250070548 0.06189665062746473 0.1454430095385344 -0.253402814565263 0.03236445493395073
1251375000.0 -0.22574999529018513 0.11068237110750884 0.06294744879987837 0.1441560647341526 0.06491705155540493 0.144086283676189 -0.25392588115709375 0.03354415580622192
1252062000.0 -0.22520240866469893 0.11164176749349071 0.06575668840537284 0.14308774380409872 0.06773559033297435 0.1426361300610232 -0.25453001755293764 0.03412096896631141
1252750000.0 -0.22453230925412876 0.11279039537183341 0.06896041111409647 0.14200337604328372 0.07060645275421312 0.14126285642377806 -0.2553246290792089 0.03508989477433486
1253438000.0 -0.22401758275728104 0.11397459564572177 0.07199902441971343 0.14082807401005573 0.07341632655288946 0.13978362733017705 -0.2556348450336432 0.03581532193262424
1254125000.0 -0.22341967995977144 0.11505272740213908 0.07504943646843049 0.1396304484599912 0.07600849727533433 0.13825149249738589 -0.2561957376277864 0.03638578511067298
1254812000.0 -0.22284205592197112 0.1159761194327776 0.07809849015284474 0.1382781284817511 0.07876986215062289 0.13688312422285634 -0.2565978565444268 0.037003734606210925
1255500000.0 -0.22216377272197763 0.11699065693004754 0.0811122422797274 0.13686819810296322 0.08162089983821127 0.1354180195964799 -0.25696422966158855 0.037581152137374674
1256188000.0 -0.2213881173691878 0.11776332729345758 0.08410650988602605 0.1352880658822819 0.08417485298864422 0.13380304866807993 -0.25718476409311253 0.03805480957150269
1256875000.0 -0.2206073817304154 0.1185562292656443 0.08709151104810997 0.1336082537112296 0.08683328205515954 0.1322271349640081 -0.25716068233059475 0.038579602344258335
1257562000.0 -0.21992291721917928 0.11929542698222358 0.09004123288714795 0.13187292216224714 0.08958494728774431 0.13073487391286043 -0.25718768081502114 0.038976648014010275
1258250000.0 -0.21917263210687715 0.12000486951575583 0.09295134939084237 0.13004548546311537 0.09226882619935498 0.12912502200892012 -0.2571084646967265 0.039734693989141076
1258938000.0 -0.21836487559212933 0.12075439174315274 0.0957991352723572 0.12816185361708682 0.09502626462665585 0.12744078596601707 -0.25692073932013726 0.040306342919825565
1259625000.0 -0.21767772960849588 0.12111226255377933 0.0986200889620883 0.12611620675718027 0.0977893352525637 0.12568663370542751 -0.25664406137988766 0.041032360421262085
1260312000.0 -0.2168406775695441 0.12166397436869124 0.1014166937915907 0.12408510195937696 0.10053659510147227 0.12391276655209799 -0.2561994193449642 0.04179239004545285
1261000000.0 -0.2161471932510558 0.12223560676308193 0.10400107384310689 0.12191574130385034 0.10330710211179052 0.1220578793394909 -0.25565179975702823 0.04280118849753904
1261688000.0 -0.2154336773893252 0.12248702101713037 0.106653300959186 0.11978441537414912 0.10601337128141763 0.12007438879754011 -0.25503277138973 0.043880916723033576
1262375000.0 -0.21465492308562756 0.12305038284078737 0.10906260006766116 0.11749415332463159 0.1087415049523225 0.11804875654738903 -0.25427823567121527 0.04495758969322028
1263062000.0 -0.21401681429890787 0.12337300586881259 0.11154649466143746 0.1151979766461365 0.11138833061468009 0.11575542562426669 -0.253583609129824 0.04623767259461035
1263750000.0 -0.21314565926995907 0.12401217412617001 0.11403749288450558 0.11292633176343425 0.11401006359154532 0.11350187822944365 -0.25277152480917137 0.04770734110907634
1264438000.0 -0.21216357445370584 0.12447205912055459 0.1164014026501999 0.11051688808551387 0.11656479732393416 0.11107558185840136 -0.2521922584490639 0.049213111869120287
1265125000.0 -0.21138800012723397 0.12521480597896753 0.11867148479146143 0.10806343595081033 0.11906214130140556 0.10857367624143022 -0.2513684531667566 0.050962490578194394
1265812000.0 -0.21057318811630063 0.12563156613140083 0.12091451360124524 0.10564931813130132 0.12145395884244548 0.10602558178206672 -0.25072012336277694 0.05289186613078903
1266500000.0 -0.20979747126603612 0.12624822949945766 0.12315771840187471 0.10305937781614681 0.12376661521528913 0.10342941299099918 -0.2500654253363298 0.054838001474930446
1267188000.0 -0.20865078547810367 0.12716211332224475 0.12540493436411967 0.10057865268884454 0.1258571822078172 0.10072939898941796 -0.24931340100985802 0.056875192619759714
1267875000.0 -0.20770857807123908 0.12779183995088753 0.12748026195023718 0.09800995225594913 0.12803853772648532 0.09796056586615837 -0.24897653855197566 0.059149441074439583
1268562000.0 -0.20680648459041912 0.12849111511774836 0.12952904203493076 0.09539035752260752 0.13000941163561486 0.0952266216215368 -0.2484815716996661 0.061069303431967016
1269250000.0 -0.2056638220489513 0.12929295611276329 0.13149835641023902 0.09265474483760272 0.13195329918672397 0.09239260809525954 -0.24813565800780144 0.06341609155706576
1269938000.0 -0.2045754125816437 0.1300152459739907 0.13339072670484836 0.08990904924078016 0.13393197235359003 0.08952631784147874 -0.2479336122781596 0.06551099711047889
1270625000.0 -0.20343332078183035 0.13093329791590858 0.13536592326051414 0.08708920066495006 0.13575367893218027 0.08681276445594358 -0.24796241229941635 0.06749246160972171
1271312000.0 -0.2022570816356999 0.13169680069698178 0.1372126447599565 0.08427799303264197 0.1373970828521288 0.08387107480475303 -0.24801522493156408 0.06975734327342337
1272000000.0 -0.20122658958000295 0.13258311972973685 0.13890674228481387 0.08146847158897365 0.13917963444016285 0.08097187924016722 -0.24792244406754763 0.07177106225025509
1272688000.0 -0.2002036995036551 0.1335786004115436 0.14060539377763787 0.07853294078237195 0.14080518177980178 0.07807065131036052 -0.24812239598116712 0.07370461313212158
1273375000.0 -0.19900406232332726 0.13430617869284145 0.1422192348195521 0.07558728876460916 0.1423532043838095 0.07519080427729956 -0.2482947126284441 0.07563283892819776
1274062000.0 -0.19806895916114897 0.1352332942774618 0.1437104903849604 0.07251027223546223 0.14382733508558798 0.07221437199449735 -0.248550721627845 0.07727063475435185
1274750000.0 -0.1969338983043286 0.13630561162638385 0.14528220607713443 0.06953824512560464 0.14531355416084452 0.06922441074732086 -0.2488605927639407 0.07894632665643286
1275438000.0 -0.1958679390990785 0.1371657620744324 0.1467102110175277 0.0663977829794309 0.14677774393695459 0.06621100383091823 -0.24894707155116388 0.08055364808276419
1276125000.0 -0.19500582379314835 0.13796602200833324 0.1480863456143666 0.06335719406920853 0.14809813803875652 0.0631379464991729 -0.24916939073607286 0.08210762826387463
1276812000.0 -0.19400203209457556 0.13900156136525496 0.1493930550215798 0.06020396553536449 0.1493698592212686 0.060076642690753794 -0.24918640507990025 0.08362509432329056
1277500000.0 -0.19311494473387583 0.14002823819857327 0.15065934597600156 0.05703274758628155 0.15060057513460232 0.056957978162578166 -0.24917273387628014 0.08502544343608434
1278188000.0 -0.19222480534799505 0.14099947588417827 0.1518082173428401 0.05386870925849357 0.15181424472180646 0.05376429519102977 -0.24905750001713786 0.08652378898389658
1278875000.0 -0.19129347715812883 0.14181338980074046 0.15285852624420695 0.05063739858728921 0.15282815105335765 0.050690208148845194 -0.2491876138342885 0.08783406179791681
1279562000.0 -0.19050725645341945 0.1426496551986189 0.15381221107368084 0.04745637740678619 0.1538216445809594 0.04734021222342635 -0.24904358440727314 0.08913779956988734
1280250000.0 -0.18964711343948515 0.1437267636488107 0.15483468963138408 0.04418458656034997 0.1548676541070536 0.044206679788717215 -0.24888667687126684 0.09060099991659867
1280938000.0 -0.18883463518364602 0.1444934373974881 0.1556780731171565 0.040838479385925684 0.1557779015619662 0.04094946160554995 -0.24839380125701246 0.0920045278277794
1281625000.0 -0.18806557032383012 0.145409842766583 0.1565230781985194 0.03764035615168619 0.1567250085535282 0.03770282538742778 -0.24824162153386986 0.09339057630921217
1282312000.0 -0.18715358595487047 0.14623243073854983 0.15724702702977586 0.03428288409232066 0.15746267005900316 0.03436750788104977 -0.24771245055110774 0.09479512012504146
1283000000.0 -0.1864195066198954 0.14705378185284404 0.15789133599567062 0.031046108787578165 0.15817881400497644 0.03113399482833803 -0.24725492559612441 0.09629892176712111
1283688000.0 -0.18562746661912796 0.14780498770028674 0.15847218485205022 0.02772921916322772 0.15885244665592196 0.027702880163595282 -0.24670454062273284 0.09788400342887668
1284375000.0 -0.1848617258278931 0.14841197635658793 0.1590540205588724 0.0245409555055706 0.15937641758612558 0.024319163432928562 -0.24615585479252425 0.09950970303245178
1285062000.0 -0.18390589847051067 0.14920986729443736 0.15939756242580166 0.0212052078937578 0.16000637509323404 0.02092336291820984 -0.24565916937831403 0.10137340696511517
1285750000.0 -0.18316292099616444 0.1498867936384796 0.1597650338651321 0.01771990749567844 0.16038229701445963 0.01749214386460334 -0.245225034918985 0.10293785855287943
1286438000.0 -0.1821752834049227 0.15048135521782752 0.16008874170654247 0.014359910748668953 0.16068389820142315 0.014072458953007131 -0.24475803827776244 0.10507998166962347
1287125000.0 -0.18123721690006958 0.15100327272017533 0.16039164786123275 0.011210242084332866 0.16096592054951245 0.010545460453499748 -0.24427355122251665 0.10724264232681223
1287812000.0 -0.18034185596055496 0.15159025166419418 0.16063523615226158 0.0077810764585718225 0.1611028504884187 0.007079712012884948 -0.24403708836621352 0.10915608035366088
1288500000.0 -0.1792283171794043 0.15218671807903397 0.16072695669539205 0.00444010288055992 0.16123341598625454 0.0036034662524563926 -0.24390527551896765 0.11114274138385251
1289188000.0 -0.1781451378108512 0.15274360999696046 0.16087788614928758 0.0011002823485002481 0.16109161794172258 0.00014786444972059073 -0.24361396725377793 0.11341559234648776
1289875000.0 -0.1770369514316031 0.1530853290748799 0.16087977398140227 -0.0024125185794772828 0.16095866796419697 -0.0032553279552151194 -0.24341602322222317 0.11563009410932074
1290562000.0 -0.1757820554644298 0.15358660171107902 0.16078842205588448 -0.005690058863398605 0.1607289250271104 -0.006758241025232034 -0.24360494671793184 0.11776297495742535
1291250000.0 -0.17433946080534984 0.1539422701723293 0.16053989180949785 -0.009127450113877037 0.16038522290924637 -0.010135936623557615 -0.24357378355810716 0.11985843934511825
1291938000.0 -0.17287982683324166 0.15433049034674193 0.16039435463430235 -0.01248200236831027 0.15987952176058504 -0.013412298025517369 -0.2437859928865449 0.12185631796378865
1292625000.0 -0.17144795467554286 0.15474256819599141 0.16001944173781485 -0.015861875956357546 0.1593707995733412 -0.016680202840281145 -0.24396373307964392 0.12398312330651005
1293312000.0 -0.16995501920381742 0.15495744941831263 0.15958099525275696 -0.01933138084385188 0.15876302388984703 -0.019865484951841327 -0.24407390281998032 0.1259211135628721
1294000000.0 -0.1684314930488446 0.15523921546617142 0.15907821335860411 -0.022683581413041155 0.15817605654909056 -0.023059047038557004 -0.24427128304548656 0.12773732845945696
1294688000.0 -0.1667074844587541 0.15552152920370274 0.15864652189162967 -0.02610153388714004 0.1574055835285042 -0.026236546228289 -0.24440099545876875 0.1295814095752105
1295375000.0 -0.16521358458317534 0.15550827776971707 0.15786965092145833 -0.029416456481559276 0.15670838757254382 -0.029318849803309534 -0.2443989223712067 0.13123991920479605
1296062000.0 -0.1633808729780886 0.15581775489545469 0.15704317118385805 -0.032678691806475944 0.15593875702631838 -0.03229963040729711 -0.24440276270486902 0.13295354506418847
1296750000.0 -0.16201714100318612 0.15592199918579616 0.15617817349577143 -0.036039598569764686 0.15521128819137012 -0.03533823241805644 -0.24440254471699197 0.13435473523491862
1297438000.0 -0.16025505462571196 0.15596542196368954 0.15515745830978397 -0.0393517600534052 0.1543154075651421 -0.03829135367087235 -0.24423917275652063 0.13578666216454224
1298125000.0 -0.1584708693129321 0.15616303602884685 0.15406154088523144 -0.04242484414503326 0.15352106306012261 -0.04135716613631047 -0.24428604423702457 0.13697782916094028
1298812000.0 -0.156910318447506 0.1565692446368923 0.15290561505207828 -0.04570076645394387 0.1527230021819603 -0.044498076950906185 -0.24385982127002526 0.13810876031760153
1299500000.0 -0.15516967819655975 0.15659430791103474 0.1516910166891999 -0.048822446026149845 0.15188213723255262 -0.047433079928950676 -0.24344935329129172 0.13920238052454062
1300188000.0 -0.15358162206355172 0.156975425349697 0.1503271178000137 -0.05175565221697808 0.15096098786725648 -0.05065558486025515 -0.24286315446358372 0.14017620836497408
1300875000.0 -0.15181824349261155 0.15734719807372274 0.14894902269949062 -0.05474326542126609 0.15005321980962866 -0.053747085983384554 -0.24246239685249477 0.1410122031261069
1301562000.0 -0.1504303861455986 0.15765821498655264 0.14759885305875253 -0.05774476654171879 0.1490136082786599 -0.056867561467361785 -0.24160194936015533 0.14198107300541093
1302250000.0 -0.14867865201638808 0.15793821711265568 0.14619809457768923 -0.0604798608286021 0.1478654189623726 -0.06010751598803487 -0.24084832461217812 0.1425399146126245
1302938000.0 -0.1469498740635743 0.15838464507668368 0.1446573292671333 -0.06332220322097241 0.14652781444647198 -0.06320427038939973 -0.23988550912615697 0.14335400648748176
1303625000.0 -0.1452673341325226 0.1589001451666854 0.1431780953000744 -0.06606428654180521 0.1450937629635883 -0.06643903009431118 -0.23887929301008626 0.14385254849270118
1304312000.0 -0.1437715813327813 0.15919058639578548 0.14173718548588607 -0.06878569606514595 0.14356494348971857 -0.06959386102883602 -0.23776113859588668 0.14475938180135442
1305000000.0 -0.14222458091322596 0.1595487285828287 0.14014843621493756 -0.07150175351009404 0.14190197143989902 -0.07270636082196973 -0.23645977857011255 0.1456023710011062
1305688000.0 -0.1404351597193237 0.15991930196301546 0.13878902320476968 -0.07413849620902789 0.14009040017086954 -0.07574755421293265 -0.2352316980158364 0.14644677675049636
1306375000.0 -0.13874040238619045 0.1600583583325661 0.13719937180093372 -0.07673662452454515 0.13813755616581921 -0.07874109501960767 -0.2338041198573059 0.14740217683257337
1307062000.0 -0.13701704732267989 0.16020489769907476 0.1356156824671819 -0.07930940243082825 0.13609524588546684 -0.08153300927138457 -0.23245258030741012 0.14835815630035407
1307750000.0 -0.13553462994528365 0.1604208038464827 0.13406150905602843 -0.08208337223505861 0.13405654914064016 -0.08435220402005307 -0.23107504066309648 0.14958990910921327
1308438000.0 -0.1337833115915835 0.16066597483457867 0.1324123872756081 -0.08463910361727547 0.1318826163955813 -0.08696057595702386 -0.22978356970884323 0.15085224386008633
1309125000.0 -0.13246818155461476 0.16047806959089994 0.13073991205766805 -0.0872741557111695 0.12964666786000104 -0.08944697817816138 -0.22819224376712713 0.1520480066762781
1309812000.0 -0.1309583971868466 0.16044172230181467 0.12899521356957086 -0.0898893274755072 0.1274320818709765 -0.09181376089360818 -0.22694917702956488 0.15345575545094198
1310500000.0 -0.12948484983378544 0.16019031844570028 0.1271988033020074 -0.09256253866668718 0.1252189421594121 -0.09407816286849703 -0.22535333808879354 0.15510979747536344
1311188000.0 -0.1282165569577137 0.15999804963884032 0.12527645408341107 -0.09523307472406091 0.12314671133629024 -0.09629384905694298 -0.2240214878514994 0.15656799669657545
1311875000.0 -0.12701283715519 0.1595739477619938 0.12326517105006257 -0.09774569108793264 0.12097332747121774 -0.09837297544635544 -0.22270212384476135 0.1581309720757542
1312562000.0 -0.1256972651709321 0.15937426620513295 0.1211828367909419 -0.10043084355951139 0.1188354170311329 -0.10037349997984502 -0.22117651753200487 0.15958808229285346
1313250000.0 -0.12484630178851332 0.15890261045840093 0.1190693858111584 -0.10285073442809968 0.11689778411951272 -0.10234557866100218 -0.21967315662347034 0.16117229141919404
1313938000.0 -0.1238885712300656 0.1584863919346279 0.11671664703402758 -0.10531408165419298 0.11488616877378251 -0.10439905502625099 -0.21803252731546602 0.16267932695164206
1314625000.0 -0.12298515058601837 0.15815671961586578 0.11439281842013287 -0.10773461841385393 0.11296827871766894 -0.10640009682381964 -0.21648952777166766 0.1641331627612221
1315312000.0 -0.12201836001365553 0.15773583987441367 0.11193540018232946 -0.11006717642014534 0.11103396815322576 -0.10834531620947901 -0.2148859225430664 0.16573234428564595
1316000000.0 -0.12115658928812745 0.1573783517506973 0.10947355827813988 -0.11226975148186517 0.10904913403252059 -0.11048017928208724 -0.21325803862162176 0.16720554561392478
1316688000.0 -0.12022528868637984 0.1569216645153552 0.10681278007165314 -0.11442628474801331 0.1069456823497937 -0.11258240135943451 -0.21147684436824787 0.16861198098252483
1317375000.0 -0.11936560386365358 0.15648357526827325 0.10417274540409525 -0.11648138594548851 0.10480908132788348 -0.11470689581740101 -0.2098652562428124 0.17004424121119457
1318062000.0 -0.11844890533271962 0.1560798447572847 0.10154058712015447 -0.11840462659824397 0.10257672937372404 -0.1168548245636741 -0.2079707375921836 0.17127411603109985
1318750000.0 -0.11748634988778782 0.1558662853519787 0.09884209081297672 -0.12026780289887704 0.1003249025402351 -0.11911205238282334 -0.20632063215173052 0.1726346094063552
1319438000.0 -0.11652019577803796 0.15535353521050102 0.09619451186987628 -0.12196367954494235 0.09784039799907542 -0.12127015311205001 -0.20463382237275576 0.17363123806646186
1320125000.0 -0.11537582171454047 0.15495720064415794 0.09351895080022593 -0.12375635534195539 0.09530681726729386 -0.12344124835898691 -0.20269474682446845 0.17474313780947742
1320812000.0 -0.1141909592341952 0.15455227860752443 0.09085471315939009 -0.12523493123528348 0.09246615979627221 -0.12557365731590664 -0.20073122470400884 0.1758135840215089
1321500000.0 -0.11296351648227233 0.15400437096430183 0.08814521877476615 -0.1267601336570283 0.08972660564455202 -0.12757048328887208 -0.19871891612098389 0.17662535700384605
1322188000.0 -0.11180423337609223 0.15352185630020862 0.08544806823000181 -0.12829823230758675 0.08681724688138519 -0.12942231521974862 -0.19690924187441317 0.17763037248715652
1322875000.0 -0.11051749622436992 0.15292642769614861 0.0828734677527197 -0.12962882111220672 0.08377789167362767 -0.13111864880714186 -0.19482484192459418 0.17838212905907036
1323562000.0 -0.10925788774418453 0.1523774553578989 0.08025787360826936 -0.13111120454324585 0.08067373972466652 -0.13280004977343657 -0.19294853945568893 0.17902033687895472
1324250000.0 -0.10817415890517355 0.15176970642717905 0.07747456260311282 -0.13233026994295957 0.07763417083269984 -0.1343029501808288 -0.19080395688812893 0.17979198773974023
1324938000.0 -0.10703841143092623 0.151073203817072 0.07480655486182694 -0.13359674233928961 0.07448186444027774 -0.1355305956005112 -0.1887442003487061 0.18072495463190802
1325625000.0 -0.10586400669705336 0.1502983510619279 0.07219828163386101 -0.13489028049593926 0.071517452745959 -0.13663054630939342 -0.18667772603554092 0.1815322416256677
1326312000.0 -0.10480318438536486 0.14959404010913352 0.06948395588558338 -0.13611351274960454 0.0685137623482104 -0.13762602855785103 -0.184420493212202 0.18237687259196717
1327000000.0 -0.10384584408590214 0.14904163004526985 0.06681899323570972 -0.13744824897119626 0.06554531544747355 -0.13844378116565803 -0.18231596109840298 0.18338062431781227
1327688000.0 -0.10290344981519055 0.1483866989149679 0.06412203891275052 -0.1384229926268641 0.06276740717997059 -0.13922793794746283 -0.180221258477507 0.18439918150519471
1328375000.0 -0.10209849666968993 0.1478496562837472 0.06137906942923795 -0.13952958530701484 0.05998115768072738 -0.14000467613690978 -0.1779086052693362 0.1855546531638755
1329062000.0 -0.10147230848211625 0.14742087813586827 0.05865271136780329 -0.14073875060897292 0.05726427126397079 -0.1406578984483924 -0.1756643527993702 0.1868135163113031
1329750000.0 -0.10057878823713778 0.14698523620952278 0.05580264811301003 -0.14179298070428425 0.05457719412738486 -0.14128368869792493 -0.17339849505758517 0.18793413911647444
1330438000.0 -0.09999197467709571 0.14675241625764673 0.05307047675821929 -0.14268004195594383 0.05198813026735693 -0.14203722649585254 -0.17114721614940087 0.18928373227024448
1331125000.0 -0.09925311405461455 0.1464933788135397 0.05022895434572151 -0.14367549361482015 0.049471185675765715 -0.14275872558009772 -0.1687836705316044 0.19057443855931863
1331812000.0 -0.09865050810085242 0.1463692716361825 0.047392379103457775 -0.14448645232132298 0.04685434127274768 -0.14347151282526524 -0.16656431081061074 0.1918907620267089
1332500000.0 -0.0979669856095662 0.14635136348851904 0.04439327372766338 -0.14519807625074546 0.044339750560417064 -0.1442204566238888 -0.16427518032794555 0.19329680383266315
1333188000.0 -0.09742637447747304 0.14641602893295116 0.04157546011543702 -0.14597987354104966 0.04163916947482469 -0.1450708368557046 -0.16199074968448274 0.19474432480185888
1333875000.0 -0.09675829844145586 0.14646722762351472 0.03859672435854902 -0.1466726864451487 0.038952457990901954 -0.14592559496800114 -0.15968181979562782 0.19613652554188063
1334562000.0 -0.09620248108824862 0.14658945667161877 0.03572755833763992 -0.1471548387958797 0.03625020563060795 -0.1467529719354573 -0.15738569602672337 0.1974552565223495
1335250000.0 -0.09548345105686844 0.14669416619342637 0.032764354390857946 -0.14765297268803185 0.03339956764301432 -0.1475595636086861 -0.15509808872771544 0.19890835202650756
1335938000.0 -0.0947499252510095 0.14672839961020231 0.02978316195663015 -0.14802256461706886 0.030459922685062882 -0.14823598480521186 -0.15284760890849078 0.20013975886830943
1336625000.0 -0.09408921559059341 0.14676040283540037 0.02696733681324355 -0.1483478862108607 0.027436336425817894 -0.148873085336751 -0.15061197574105165 0.20129688375876442
1337312000.0 -0.09342164482465132 0.14673166033407214 0.024105859109747954 -0.14867326996422434 0.024410335662127573 -0.14940463986716665 -0.148466027892875 0.20236761916173365
1338000000.0 -0.09280334792477409 0.14667274672871056 0.02101345354469807 -0.14885946349073198 0.021232384344580607 -0.14983619801504283 -0.1462223521521011 0.20352752322446094
1338688000.0 -0.09213383167841245 0.14656967163838452 0.018158384383259382 -0.14902259499635812 0.01809339075122233 -0.15002631362488306 -0.144085743228433 0.20457488319921716
1339375000.0 -0.09161970716226718 0.14637883759083178 0.015192664369579 -0.14929673523279618 0.0150110129256 -0.15021437338367702 -0.14207186456532842 0.20551837773685686
1340062000.0 -0.09111972505921188 0.14609820040124238 0.012405659293101778 -0.14918109742002894 0.011812645350645946 -0.15020185222250848 -0.14006492733129272 0.20637664598514696
1340750000.0 -0.09076463313785389 0.14581609062402487 0.009521508934675944 -0.1494113264459544 0.008769029908501725 -0.1501078952904164 -0.13836063253085612 0.20707681435316572
1341438000.0 -0.09035391840985083 0.14546679385932698 0.006558929425931265 -0.14935626785530848 0.0057434019367655015 -0.14986897759880988 -0.13642576648578797 0.2076937582121279
1342125000.0 -0.09010275876910862 0.14514684902985486 0.0037647123222492146 -0.1492656235286781 0.002825166521070732 -0.14966255811751808 -0.13478846815440362 0.20827413095606717
1342812000.0 -0.08985764127742485 0.14488401538760434 0.0008696205963874524 -0.1492496933004638 -0.00011200635738351769 -0.14924594376355108 -0.1328718945738432 0.20869562645133974
1343500000.0 -0.08956997960383144 0.14449913707967635 -0.0018676139095499926 -0.14913759435016039 -0.0029670590383138063 -0.14884511020475144 -0.13126727964731646 0.20901849588062293
1344188000.0 -0.08947988126598069 0.1442705457765163 -0.004713458566722491 -0.14882918332428066 -0.0056388765020526374 -0.14834877324437817 -0.12980334969467244 0.20929575944448
1344875000.0 -0.08932044664828762 0.14392108064797832 -0.007594466021514415 -0.14862218029617905 -0.008303429404602153 -0.1479276837528044 -0.12817371555575005 0.20967558769516387
1345562000.0 -0.0891296769433642 0.14370205027976748 -0.010377357352759034 -0.14824842476095118 -0.011003003628444297 -0.1474337679081675 -0.12667554943222462 0.20992268351213242
1346250000.0 -0.08884414316416007 0.14356316007628453 -0.01331767853371282 -0.14796274283328778 -0.013579404175046604 -0.14702569220842435 -0.1251287638043559 0.21000889264520384
1346938000.0 -0.08875937827208032 0.143423011108646 -0.016027583971980383 -0.14766657292577154 -0.016117133832939032 -0.14664461465939396 -0.12385535731913329 0.2102399717369656
1347625000.0 -0.08822938332736986 0.14321827937367923 -0.01895109916255931 -0.14702918836771994 -0.018642061486021724 -0.14625200151014842 -0.12238191092535902 0.21023486875820696
1348312000.0 -0.08785450484941124 0.1431734109142782 -0.021739661423098782 -0.14644416933544283 -0.02126288229923594 -0.14590077179962485 -0.12075094753510762 0.21038297324656938
1349000000.0 -0.08742227066678919 0.14297576163765655 -0.024549710657153764 -0.1457779551412549 -0.02385899512748172 -0.1455633008304288 -0.11933381505804903 0.21022347833187763
1349688000.0 -0.08681557571212013 0.14281378636709205 -0.027294837723910136 -0.14522530165812292 -0.026453298326983562 -0.14511968281255833 -0.11814105080998034 0.21016271527517308
1350375000.0 -0.08616627897264338 0.1427167198747074 -0.02999916973309171 -0.1444903945980702 -0.02922679266493129 -0.14468402854198392 -0.1163242276539796 0.21023394730393846
1351062000.0 -0.08542028922680396 0.1424365212103781 -0.03276789599353748 -0.14367622921136733 -0.03186043321736737 -0.14416345784075266 -0.11462369553513024 0.21006365727176665
1351750000.0 -0.08461984311773893 0.14226416202733022 -0.03538196354677945 -0.14277603186041424 -0.03466891471652002 -0.1436521838545089 -0.11315341427300984 0.20995041985639284
1352438000.0 -0.08376549798255797 0.14207990321880126 -0.03809444997902005 -0.142127647609541 -0.037511258539374925 -0.14306881433994992 -0.11141030095131449 0.20968950078454776
1353125000.0 -0.08309448297196986 0.14174647168310572 -0.04058090764008926 -0.14123328769959614 -0.040253889280803534 -0.14246553890477748 -0.10965962585461213 0.20943666824313797
1353812000.0 -0.08217375040605353 0.14136286577772605 -0.04308016607470318 -0.1405144103397099 -0.04318753526206205 -0.14159932829616512 -0.10777458080487651 0.20923862045152058
1354500000.0 -0.08137866307128996 0.14114250030558928 -0.04558997028193729 -0.139581023831338 -0.04591216737213776 -0.14079452135628587 -0.10609738680498282 0.2090888659088577
1355188000.0 -0.08046956332999672 0.14077556871268834 -0.0481310877417306 -0.13856086027263687 -0.04871024194603604 -0.13973327602062338 -0.10411483449271895 0.2088923682633069
1355875000.0 -0.0797437487805105 0.140322969213613 -0.050658499966958204 -0.13772699687764142 -0.05145898963978355 -0.13862306922642695 -0.10212221914147303 0.2083790289104511
1356562000.0 -0.07903239226573229 0.13995203061800915 -0.05313085811117313 -0.1366702349235313 -0.0541526378057701 -0.13739052918335726 -0.10019580178819115 0.20821204428116175
1357250000.0 -0.0782942941589973 0.139581104739961 -0.05553111674737999 -0.1356128333255448 -0.056760098886005014 -0.13610002970033766 -0.09831736291404346 0.2079242772518248
1357938000.0 -0.07756380698295659 0.13928612369018165 -0.05796477438483619 -0.13459983996991312 -0.05938775182675515 -0.13479670632523477 -0.09633440392341007 0.2075208196756598
1358625000.0 -0.07701947718497386 0.1389405995367634 -0.06039787364965564 -0.13349256264267947 -0.06190979453328258 -0.13343837331791403 -0.09426970605016549 0.20721899189866827
1359312000.0 -0.07642721047467686 0.13873317622115813 -0.0629040735234202 -0.13240518261920856 -0.06428335780774008 -0.13200448293093944 -0.0922842014728169 0.20677065281604182
1360000000.0 -0.07584925817621599 0.13852030517584213 -0.06538597250395409 -0.1312124424939878 -0.06662768642785609 -0.13066687664399085 -0.09038154563906022 0.2063504936093222
1360688000.0 -0.07532632883419867 0.13838813415834955 -0.0677426760218914 -0.13009554307592228 -0.06900016565038745 -0.1292604914642187 -0.08851779033259875 0.2058361229285968
1361375000.0 -0.07482404428905468 0.138249341743584 -0.07020777235932085 -0.1288560711034516 -0.07114294673991164 -0.1278344876785097 -0.08688736270429472 0.20527499199474572
1362062000.0 -0.074252130171768 0.1381050001323333 -0.07268279374193255 -0.1274651292085294 -0.07333212965253409 -0.12644580435927977 -0.08496228387735208 0.20460807962064323
1362750000.0 -0.07390022657388143 0.13814276575825735 -0.07509559241100187 -0.12608086581540354 -0.07551294453218764 -0.12505269068327157 -0.08335947444793979 0.20399199118154676
1363438000.0 -0.07325706023822758 0.13793496154619414 -0.07750996686679784 -0.12473629863550825 -0.0776292141133125 -0.12370173081327882 -0.08159744692101854 0.2033603661586052
1364125000.0 -0.07278651816360907 0.13789400109145283 -0.07993119724740136 -0.12315995687757904 -0.07977105945955396 -0.12219521352382075 -0.07997935849039964 0.20262973471208165
1364812000.0 -0.07236441206815537 0.13771501604231545 -0.08224703438093858 -0.12173060303693894 -0.08202221694708786 -0.12084589052201208 -0.0783857924843171 0.2017143430990628
1365500000.0 -0.07176036571611746 0.13762615745347517 -0.08459722739162057 -0.12005994648821883 -0.08405032884875675 -0.11947771719123254 -0.07662741348947064 0.20085145734176826
1366188000.0 -0.07132184319288941 0.13732946068110982 -0.0869504650669139 -0.11851665484321657 -0.08621578407796829 -0.1180242991501583 -0.07515955647381865 0.2001296041388872
1366875000.0 -0.07089973064826859 0.13716374472535325 -0.08925047872385594 -0.11683196962347288 -0.08837895907408526 -0.11654561007399199 -0.07341367185652295 0.19910042404855716
1367562000.0 -0.0704498300214662 0.13680081443291664 -0.09134902056532673 -0.11498807175167734 -0.09068036778087517 -0.11493401404241341 -0.07178040787923319 0.1980413323513301
1368250000.0 -0.0701043229527439 0.1364519866938551 -0.09348724754660305 -0.11319488308189533 -0.09286462014141544 -0.11340583695050449 -0.07022914451390919 0.19718240364092338
1368938000.0 -0.06965086074598087 0.13595163677222966 -0.09561372264931481 -0.11138103482512834 -0.09508823389525999 -0.11165043958428551 -0.06842299186856875 0.1961460246121216
1369625000.0 -0.06944457268434014 0.135400271882291 -0.09758250581196827 -0.1094313978566961 -0.0973088547674665 -0.10996567944270556 -0.06690512446176787 0.1949982178380805
1370312000.0 -0.06912637360770105 0.13482398953543576 -0.09952111323366201 -0.10766829025335235 -0.0994699205210435 -0.10816590149977483 -0.06523092731836125 0.19378400407799196
1371000000.0 -0.06897604171629709 0.1340998759764366 -0.10156807150515991 -0.10561121173940419 -0.10160247561999904 -0.1062654530306016 -0.06342782603901544 0.19272747635320747
1371688000.0 -0.06876465479796375 0.13348663395262156 -0.10355750883452845 -0.1037295722836415 -0.10374907475918398 -0.10429031964382528 -0.061547312800468726 0.19160381531401138
1372375000.0 -0.06856876974089395 0.1328638153115344 -0.10537693271575187 -0.10173179208243638 -0.10584645958713271 -0.10231803982555755 -0.05981953635968867 0.19023797991472574
1373062000.0 -0.06860087541722472 0.1320408413878157 -0.10722595672227804 -0.09988530499412998 -0.10782665993207043 -0.10027009560837172 -0.0577068776048931 0.18903460178953657
1373750000.0 -0.06847503370357008 0.1312329190537194 -0.10901089960136962 -0.09774632682833279 -0.10962657323983346 -0.09816094482796237 -0.055797887554655506 0.18757922158035403
1374438000.0 -0.06837994822453236 0.13051559197259704 -0.11079005002436938 -0.09570274813989811 -0.111548092878827 -0.09605151887893343 -0.053778105900802224 0.18630448046004758
1375125000.0 -0.06820519473805584 0.12989950207562875 -0.11259477735890411 -0.09368288537744458 -0.11334032191270287 -0.09383742402610888 -0.05167884587446925 0.18494020169858
1375812000.0 -0.0682761923929498 0.1291155379457429 -0.11426847235100272 -0.09166168506842363 -0.11507196328448885 -0.09168452589623653 -0.049506530610177166 0.18358716312429546
1376500000.0 -0.06810418712563288 0.128376554944528 -0.11589483842945306 -0.08958245508681976 -0.11668068382314685 -0.0893964719114789 -0.04730455768708468 0.18220680452254936
1377188000.0 -0.06799427641168118 0.12770155533835167 -0.11756245059421686 -0.08754239007863969 -0.11835816422849588 -0.08720602981482052 -0.044925778518544346 0.18091268684228762
1377875000.0 -0.06785322782544699 0.12703686090248126 -0.11928114856493575 -0.08532071753336555 -0.11980455856645164 -0.08501934126576778 -0.04281378981541706 0.1797430533057599
1378562000.0 -0.06776546363449562 0.12626559320774164 -0.12083242492253593 -0.08323197117862159 -0.12136066889181898 -0.08276727634253472 -0.040601401376014 0.17834693367301285
1379250000.0 -0.06747542649674766 0.12555878066426593 -0.12245518743001446 -0.08104760300687741 -0.12289070549824349 -0.08046710485876245 -0.03827838052983405 0.17717541854729388
1379938000.0 -0.06721137179298566 0.12500075481292575 -0.12408642454448535 -0.07884074392161916 -0.12438229492637952 -0.07824322398275228 -0.036085441275713906 0.17604497161862076
1380625000.0 -0.06688153159203333 0.12430085926826388 -0.12560503085418778 -0.07652589891203619 -0.12581263844922794 -0.07594925417495949 -0.03399551333716563 0.17489193727018057
1381312000.0 -0.06658417022595878 0.12357662284569142 -0.12712312344344717 -0.07434281212987387 -0.12722588028039808 -0.0736504996691846 -0.03191424838884065 0.1736956070270862
1382000000.0 -0.06625304139294473 0.12304514963885456 -0.12858207490751727 -0.07189915586587564 -0.12866824298098894 -0.07141247252647744 -0.02999856636541788 0.17265347971579664
1382688000.0 -0.06576468455798605 0.12247919467655766 -0.13002231187214497 -0.0696174011822641 -0.13007584102822067 -0.06907160548397864 -0.028077006154947536 0.17171537137770143
1383375000.0 -0.06545584721087452 0.12186450293959716 -0.13145376850231077 -0.06710376414485382 -0.13139850230320585 -0.0667456798759534 -0.026201196703997676 0.17079124627800488
1384062000.0 -0.06493852983179492 0.12125803669620776 -0.1328914575300579 -0.06473208317479975 -0.13269080472597605 -0.0643265171276578 -0.02453518644018566 0.1696253706271585
1384750000.0 -0.06471306526969806 0.12078094686297218 -0.1341378658237163 -0.06226182904874997 -0.13406847873495042 -0.061947456986122064 -0.022873217494701663 0.16859300255900111
1385438000.0 -0.06429199405938457 0.1202625508483219 -0.13538512972246403 -0.05977770457726436 -0.13527034732224405 -0.05953206695209178 -0.02138820782233091 0.16751550291763262
1386125000.0 -0.06388777762431624 0.11974491320160781 -0.13654457108733756 -0.05719816421120159 -0.13657975001167386 -0.05702768320491472 -0.019848972861302112 0.16632766743110158
1386812000.0 -0.0634770235032537 0.11927610753385932 -0.13773117718126768 -0.054599069533266174 -0.1377870747164648 -0.054505677105361965 -0.01851157701536493 0.1654516065599225
1387500000.0 -0.06330340894385472 0.11878964756633496 -0.13895831398851757 -0.05211025106494608 -0.13898465081142047 -0.05197896651577333 -0.017243801752129584 0.1642071311291265
1388188000.0 -0.0629855508614366 0.11843302750686699 -0.14002511705207885 -0.04942716814640963 -0.14007417443139658 -0.0493478769283356 -0.016022469395147995 0.16310619047783936
1388875000.0 -0.06273569389083702 0.11811316129426191 -0.14099530044662095 -0.04677731516751262 -0.1411537995027753 -0.04685613311691574 -0.014983625161629321 0.16185623854153572
1389562000.0 -0.06244320305980079 0.11783568173946221 -0.14200713701080697 -0.0441012641744627 -0.1421430592477528 -0.04411575764217263 -0.013958287581982958 0.160494898854002
1390250000.0 -0.062350339339460305 0.11753007673099318 -0.1429272758440586 -0.041431994168396116 -0.14310667108018732 -0.04137338892563398 -0.012948277614145385 0.15928888168317085
1390938000.0 -0.06219077272375707 0.11725679609113376 -0.14380503243162832 -0.03876483098896938 -0.14405250122740507 -0.038651581621243325 -0.012061540567322296 0.15794041373747927
1391625000.0 -0.06208616299307929 0.11711666392287812 -0.14465259323434343 -0.03603313362573115 -0.14483003806947473 -0.03584963618378634 -0.011173607544799544 0.1565647823329654
1392312000.0 -0.062104734035298675 0.11678383839349539 -0.14537364764603486 -0.03318571559509322 -0.1456798305767599 -0.03308926927145406 -0.010388846253054907 0.1549987133718735
1393000000.0 -0.06204807830037046 0.11672390463136947 -0.14614459299109972 -0.030448973964663683 -0.14637671314320794 -0.030301477162753446 -0.00945660530229892 0.15349653226052
1393688000.0 -0.06211413289681306 0.11663208142465646 -0.14679506940553033 -0.02767222867794475 -0.14714549713358785 -0.027495812555716946 -0.008690192886539756 0.1519615619060783
1394375000.0 -0.06214971508235101 0.11643569315068598 -0.14743918637159048 -0.02488261713478249 -0.14771593876701822 -0.02459753706147546 -0.007881515704545842 0.15026485861049807
1395062000.0 -0.06220036405760341 0.11638145507096366 -0.1480521523116467 -0.02201671997987559 -0.1482334461753522 -0.021760010461704147 -0.007090135280358604 0.14873580443772308
1395750000.0 -0.06232043571000714 0.11621698123943543 -0.14849859411423671 -0.019314479081323454 -0.1487426081396531 -0.01883996354737706 -0.006294543227763703 0.14721203411170913
1396438000.0 -0.062416414931301 0.11612993275831335 -0.1490685570630482 -0.01633107402609292 -0.14922471868429493 -0.015971872497866732 -0.005352188335104697 0.1455473368540245
1397125000.0 -0.06258907230560937 0.1159547751739825 -0.14944819158427966 -0.013484290681123782 -0.14960812762209366 -0.013093290152026772 -0.004708574833200527 0.1438762709616972
1397812000.0 -0.06262339162626986 0.11590956829229078 -0.14982498931921073 -0.010598343886699706 -0.14987800238635068 -0.01022233948185544 -0.003855864876054234 0.14230067133700464
1398500000.0 -0.06284838395595677 0.11585331761876126 -0.1501719937289805 -0.007756256323704562 -0.1502567626758963 -0.007351244591413499 -0.0030282823872134755 0.14076011827639637
1399188000.0 -0.0629379204054261 0.11572101965720226 -0.15032900132519775 -0.004864043199595826 -0.15053334767427745 -0.004452073763031408 -0.002268793814494952 0.1391817690205536
1399875000.0 -0.06310485590149607 0.11555077356275954 -0.15072312595919077 -0.00200952052133936 -0.15073211051958169 -0.001530142014156583 -0.0017696153341173544 0.13754315400623826
1400562000.0 -0.06326730006023146 0.11534271487219243 -0.15094261324648695 0.000964102859331987 -0.150838835816613 0.001396491265538205 -0.0009253804963035314 0.1360750821093222
1401250000.0 -0.06341585989276825 0.11508999593078434 -0.15093721272359448 0.0039064015388591295 -0.1509705183062929 0.004342537106067621 -0.0002387513063187241 0.13465135935550399
1401938000.0 -0.0633862807537431 0.11497015041692875 -0.1511850959640522 0.006893660151614566 -0.1509438044189411 0.007197221657133777 0.00021244371114003833 0.13327041566870415
1402625000.0 -0.0635517018431883 0.11462590092462684 -0.15100940881171399 0.009878385475501699 -0.1508715475591622 0.01015219227306501 0.0006895335405730063 0.13185051640549292
1403312000.0 -0.06367245273733473 0.11422977174177835 -0.15089920705783028 0.01282476019077579 -0.1508112412975995 0.01307203500048835 0.0012906314422428055 0.13025453677653823
1404000000.0 -0.06367245159807937 0.113867709672976 -0.150853485536711 0.01588656621682937 -0.15062505687713096 0.015922454349770243 0.0017910371026822363 0.12905066869814513
1404688000.0 -0.06373712781507863 0.1136433988156188 -0.1505143423316666 0.018888187927113675 -0.15049499659211374 0.018926195807675524 0.0018474274657021635 0.1274707987593122
1405375000.0 -0.06382512257401067 0.11320571033207404 -0.1503111524853837 0.021867549977353004 -0.15023514720991626 0.021798201526119474 0.002208287208821911 0.1259897860086641
1406062000.0 -0.0637471275959918 0.11289113448757046 -0.14989449957424564 0.025008295697267154 -0.1499271368342886 0.024907336482103852 0.002374609027891338 0.12448785396186425
1406750000.0 -0.06388969528133705 0.11248803282382175 -0.14957454533431316 0.02787659805970596 -0.14960693877062445 0.02789294368986992 0.002372048482495522 0.12299856209561782
1407438000.0 -0.06379886963356006 0.11211193198237458 -0.1490965031964468 0.030999463106475066 -0.1491760562465505 0.030867381838265345 0.0023845206562770126 0.12166752565316959
1408125000.0 -0.06381405702134664 0.11186890646996872 -0.14853205301296063 0.033880887508647484 -0.14867066935819817 0.03380256982185559 0.0022258028389541768 0.11986831378028905
1408812000.0 -0.06365984037757885 0.1115969660481751 -0.14801106670692457 0.03683227596869616 -0.14808506409147504 0.036848835729534034 0.0020386114458023335 0.1184149289180468
1409500000.0 -0.06368061488257136 0.11131813641046516 -0.14723128764724608 0.03980158096643561 -0.14750138579593852 0.03975620809133917 0.0016593985711961326 0.11670293334274807
1410188000.0 -0.06355920747254522 0.11115350530504158 -0.1465546375333532 0.042766600166311106 -0.14680874293811932 0.04283789027426856 0.001435263827405511 0.11512851509957796
1410875000.0 -0.06343435194384651 0.11101312257114798 -0.1456899558987609 0.04561432875335435 -0.14608093449410162 0.045867244023786016 0.0008791980194251264 0.11329026988814951
1411562000.0 -0.06327584973587914 0.11100539077372973 -0.14490686809711179 0.04859024282017799 -0.14521269357192138 0.0488004209007267 0.0004722875881873828 0.1115357503781157
1412250000.0 -0.06315164829726397 0.11098196288790017 -0.14397036887680398 0.05142315814987133 -0.144346726738236 0.051780732342500885 -1.048047885240413e-05 0.10951106804461201
1412938000.0 -0.06283640237342238 0.11096772583949986 -0.14296839760588037 0.054212033781610436 -0.14342569267038974 0.054727236268032796 -0.0003987230232055768 0.10777463321203289
1413625000.0 -0.06254023996744952 0.11128920259350783 -0.14200656809992318 0.056991520530697184 -0.14233495327899537 0.05762616743217143 -0.0012259662089365714 0.10589185520641979
1414312000.0 -0.0622469733607896 0.11138174656565669 -0.14085698174251 0.059891432013615416 -0.14128616113935982 0.06049199775138197 -0.0017078077159085226 0.10395339595186087
1415000000.0 -0.06181935003752466 0.11167415866294589 -0.1397126400360646 0.06251767216140444 -0.13998745200531787 0.0632910771076086 -0.0020954268053056777 0.10201794993535614
1415688000.0 -0.06140534447985954 0.11187096707556415 -0.13861472186630716 0.06520353490996596 -0.13868113890922962 0.06611187342268192 -0.002793722262377981 0.10038026458038111
1416375000.0 -0.0610407070488992 0.11221325837446133 -0.13736591258874153 0.06803473270886398 -0.13741878913631358 0.06880865383885952 -0.0032272206636065146 0.09857247073347065
1417062000.0 -0.06064491839363298 0.11254100674628073 -0.1361129422768924 0.07079989152559066 -0.1360180713249121 0.07157383488048635 -0.003591630661338848 0.09676642541285126
1417750000.0 -0.06015721795425283 0.11287196396440322 -0.13482230235608664 0.0734993106958284 -0.13455488491571968 0.0742816622436782 -0.004047357184280631 0.0952015018634849
1418438000.0 -0.05977417369830079 0.11331408443515625 -0.13352776029479607 0.07633983903342281 -0.13318604446404625 0.07696665062641915 -0.00460796077434657 0.0935391923289259
1419125000.0 -0.05932879945606894 0.11357205391026153 -0.1321267305604678 0.07909631050783882 -0.13170650197848935 0.07960304531494693 -0.005016892389789954 0.09198822200451316
1419812000.0 -0.058865377231763265 0.11395174274072711 -0.13068454625918363 0.08177435987876115 -0.13015103586135351 0.08228817296630032 -0.005365629480716812 0.09054662241195173
1420500000.0 -0.058484665832093156 0.11418364930282396 -0.12930887064671123 0.08444469242364114 -0.12855344626970394 0.08483715506106979 -0.005752139413398765 0.08928317565463656
1421188000.0 -0.05817591324980131 0.11459344502260665 -0.12766874258458327 0.08709715027709239 -0.126893712160105 0.08743242239908815 -0.006146196377422184 0.08780390259661959
1421875000.0 -0.057983620064323844 0.11494218906151588 -0.12597407384409842 0.08975825293050757 -0.12527717279391 0.08993044456890832 -0.006516998015582137 0.0865653812934558
1422562000.0 -0.057732840793282496 0.11524604931091814 -0.12425114856750527 0.09244571475013384 -0.1235163530300848 0.092504372670886 -0.006981250024965783 0.08530832933874144
1423250000.0 -0.05769376348037453 0.11566432259472867 -0.12247393004906533 0.09500859081456196 -0.1218980050002202 0.09494588345664547 -0.007322297062792971 0.08410040743434806
1423938000.0 -0.05752604809654166 0.1160241539548734 -0.12051451967474697 0.09761425618994578 -0.12006109683322116 0.09750183889497689 -0.007604110701182136 0.08281536341573811
1424625000.0 -0.05743072230738351 0.11640917834841406 -0.11857975949757375 0.10009643967109264 -0.11811901466998301 0.09987208182318975 -0.008300193023626362 0.08173963978283617
1425312000.0 -0.05738312392123156 0.11685047645013855 -0.11647262302681655 0.10254661687866033 -0.11621179276189866 0.10232309103298194 -0.008582755040658533 0.08067470465197435
1426000000.0 -0.05741161803642311 0.11735974942889246 -0.11429959382253686 0.10490526392602559 -0.11430585531859368 0.10471337957305822 -0.008925763989391319 0.07961815594558683
1426688000.0 -0.05734680413058508 0.11786606839790566 -0.11201153020642605 0.10737895006652107 -0.11222437634253324 0.10699164776812727 -0.009621748645618445 0.07854184387289127
1427375000.0 -0.0572388962463399 0.11841689242744105 -0.10974983863014462 0.1095490108114224 -0.11011746739082257 0.10925039588462601 -0.010196846695454813 0.07755940952121361
1428062000.0 -0.05722206510665084 0.11886386994139038 -0.10753838629181155 0.1117425744928817 -0.10786954561474056 0.11150046615573034 -0.01063670877648725 0.0763941042178696
1428750000.0 -0.0571123020803532 0.11936263830585365 -0.10515865251076914 0.11385227657243269 -0.1056267662299995 0.11369306903558069 -0.011426387362638643 0.07547962097481772
1429438000.0 -0.056966340698123855 0.11985098088650976 -0.10279201399303269 0.11591170086742877 -0.10329995171704082 0.1159105799897576 -0.012040568051685012 0.07464179160298356
1430125000.0 -0.05673636307442343 0.12028463486507626 -0.1003530215725114 0.11790818753003653 -0.10091722364179963 0.1179597121855035 -0.01273585474815605 0.073537277794526
1430812000.0 -0.05639944417552151 0.12069617834866045 -0.09796009873463847 0.11985407903347954 -0.09844346997276422 0.11999562468738843 -0.013541395635942723 0.07261429140651811
1431500000.0 -0.056093672450571896 0.12104919184192693 -0.09568262858058021 0.12172471712034119 -0.0960199246906272 0.12205133372188251 -0.014291997901353215 0.07176054477372391
1432188000.0 -0.055689676832351806 0.12133637807603317 -0.0932932104313405 0.12352060428765792 -0.09347635509877432 0.12399409332744525 -0.015067792921479055 0.07110603751049634
1432875000.0 -0.05533520843525979 0.12160391525199746 -0.09082546707111741 0.12519715519068156 -0.0910148143155412 0.12581813658237997 -0.015946155609600828 0.07031111792125204
1433562000.0 -0.05485149294346046 0.12172884530306166 -0.08848482428565725 0.12689009235264684 -0.08845418785529031 0.1275779119043745 -0.01678590853032349 0.06953277415406534
1434250000.0 -0.05442142616410347 0.12185619906559825 -0.08598836112518345 0.12851366893491664 -0.08592546827653398 0.12931813711077658 -0.017617035450692986 0.06893291202831234
1434938000.0 -0.0540008012102331 0.12195791452478884 -0.08361704309156881 0.13013284526403757 -0.08341547291498308 0.13095628111305316 -0.018579158875754134 0.06831859576710327
1435625000.0 -0.053455957898052325 0.12194431161362841 -0.08117687677737881 0.1316893133661238 -0.08078951137515687 0.1325462814895852 -0.019329035285681733 0.06778409852380066
1436312000.0 -0.05293434980049793 0.12196948498567521 -0.07864413312410927 0.13328457981329064 -0.07819978814043341 0.1341260614749904 -0.02020389009071363 0.06731772320589531
1437000000.0 -0.05247131729884947 0.12187807227675204 -0.07608396029440918 0.13489146580716244 -0.07556501660671353 0.13560785365800856 -0.020747572464093717 0.0670932807958386
1437688000.0 -0.05198508973003841 0.12190514552566017 -0.07357130102295353 0.13643968920007118 -0.07292595431925575 0.13710754552852275 -0.021470332314297905 0.0667990844297013
1438375000.0 -0.051570530620320514 0.12180416547888534 -0.07087149142821574 0.1378976626534851 -0.07036298080081102 0.1384246442083732 -0.022149633160677137 0.06671822104639404
1439062000.0 -0.05108398470012364 0.12182378636348956 -0.06819161370484851 0.13940410189717553 -0.06754324366436691 0.13981329326074518 -0.02283803858875961 0.06667383079919686
1439750000.0 -0.05051580013165855 0.12188401865352302 -0.06548090021664826 0.1408924120025997 -0.06486889938616253 0.14109389863635965 -0.023446678083247283 0.066578752834564
1440438000.0 -0.05000172789312945 0.12199301929450639 -0.06274440807498986 0.14233608275521947 -0.062063498847975775 0.14234616138513673 -0.024082518320515858 0.06663803189365868
1441125000.0 -0.049423431122875186 0.12213507480890484 -0.059942114239174865 0.14364497732328504 -0.05934445107953459 0.14358845583796828 -0.02460583623688947 0.06675652715781338
1441812000.0 -0.048955517415026066 0.12227911077962125 -0.05717117091247545 0.14490598441321298 -0.056522467670053755 0.14473842647192003 -0.025272792023050224 0.06681800773519196
1442500000.0 -0.04828487667100098 0.12254054804566754 -0.054147589140063186 0.14606156378790452 -0.05368746561317238 0.145933900879279 -0.025862739609592997 0.06712713230332931
1443188000.0 -0.04767497605048066 0.12292667663809632 -0.05114805698578345 0.14737174583238644 -0.05086439940786562 0.14700855405527702 -0.026413662281189434 0.06730104634939534
1443875000.0 -0.046978342624619966 0.1232479351628659 -0.04815656371733758 0.14838362606381364 -0.04798480003483857 0.14809723775877154 -0.027081980203705502 0.06731290091013185
1444562000.0 -0.04622940676660005 0.12349038538023423 -0.045178209504623285 0.14938484307355337 -0.04501534485691203 0.14902953782095904 -0.02771632704148876 0.06752227549529545
1445250000.0 -0.045445027375456186 0.12397264451154724 -0.04219839927005078 0.15025276247952307 -0.04210681116801699 0.14994934425094839 -0.02837204611367724 0.06778367578369898
1445938000.0 -0.04464050817018341 0.12430617130913957 -0.03933143948346258 0.15101861382149767 -0.03916300988350622 0.15085158145681385 -0.02907073260879462 0.06771191550461388
1446625000.0 -0.04377642675398543 0.12463617874376744 -0.036219096740217414 0.15178936711339988 -0.03615802397979928 0.15158859598357843 -0.029717465817476856 0.06778778267084834
1447312000.0 -0.042948980928564334 0.12487388658704636 -0.033150651481272324 0.1524119524723728 -0.033194751090869556 0.15237385980549165 -0.030516701440566688 0.06788328086670847
1448000000.0 -0.04211947870077054 0.12521807484356476 -0.030148696334086983 0.15292527454841395 -0.03008192832173038 0.15306404311831726 -0.03116169837792803 0.06775790260807785
1448688000.0 -0.04135345374646552 0.12534545595941743 -0.0271071183024197 0.15336616498527927 -0.027140270417579083 0.15361172581434884 -0.03204941653347078 0.06788879932385906
1449375000.0 -0.040579753397287054 0.12554750741608806 -0.02407303264572881 0.1538778574361226 -0.023978423666575568 0.15416740037641063 -0.032745397281913335 0.06772241216543631
1450062000.0 -0.03986019209016352 0.12573024838841076 -0.021037472707511135 0.15416650633126758 -0.02108206346692185 0.15466502880524033 -0.033528955467680054 0.06762880477098081
1450750000.0 -0.039184291690129415 0.12567213216482306 -0.01803024462070559 0.15454249872590411 -0.018015766482437554 0.15494004151877713 -0.034313621915077815 0.0675931659005916
1451438000.0 -0.038516884317013125 0.1256973830041247 -0.015138325216058875 0.15488133820919786 -0.015023333198584506 0.15527063300117977 -0.0350967145480909 0.06754430929029012
1452125000.0 -0.0380270862531628 0.12578277028214216 -0.012157011548720962 0.15511594323803912 -0.011975326703265503 0.15554251411921718 -0.03588731539869635 0.06739245895826544
1452812000.0 -0.037497577724858684 0.12584992095527495 -0.009162038896399749 0.15543666748928 -0.008949851392654936 0.15577869557174367 -0.03663704560850931 0.0673691786712723
1453500000.0 -0.03711665399370512 0.1258454857030158 -0.006210482424904807 0.15557500296159082 -0.0058843604969007314 0.15588028676423912 -0.03732425098694733 0.06738630920828383
1454188000.0 -0.03662862734354296 0.12575031526681676 -0.0032097714213321937 0.15570146179076208 -0.0027596913185905804 0.15593605780641184 -0.0380369400600975 0.0674538819117598
1454875000.0 -0.036337409546709824 0.12571548556478696 -0.0002478411425485787 0.15592162351351746 0.0002539808028026481 0.15605549281720726 -0.03864418172678153 0.06753285424358053
1455562000.0 -0.036033248931069614 0.12565081401862013 0.0027593956543115307 0.1559767385817767 0.003206046846795332 0.15598880428248435 -0.03914467082638836 0.06779913646527545
1456250000.0 -0.03564930749411032 0.1256705756154735 0.0057327297533493055 0.15597384496085134 0.0062132694967604145 0.15591166991268898 -0.039667374356403204 0.06796533284906418
1456938000.0 -0.035288028416742646 0.12557166005240375 0.00873267542112887 0.15591167930496622 0.00925890819242287 0.15574303549495297 -0.04013965406831693 0.06805767868448989
1457625000.0 -0.03500191791000027 0.12552670775396718 0.011809602473914032 0.15586469547482712 0.012290280474622056 0.15571098481487095 -0.040487395893726616 0.06854224274863573
1458312000.0 -0.03461818665605803 0.1254278848161294 0.01491406672294111 0.15565637370168048 0.015204589717671255 0.1555772689206075 -0.04094650499154666 0.0690134632662081
1459000000.0 -0.034137297207675034 0.12531387510246306 0.01804747068862046 0.15547815219228223 0.01833975138050889 0.1553386464567859 -0.04145782447056165 0.06943480953422326
1459688000.0 -0.03366546295956814 0.1251050367478086 0.021077364137516996 0.15520432531271394 0.02131343789104118 0.15507220748982914 -0.041547301277599376 0.0699566543674131
1460375000.0 -0.03305941833454501 0.12483333662835834 0.024189368980493366 0.1547600967334459 0.024319804391124165 0.15468169402000095 -0.04197623836202397 0.07045648254599253
1461062000.0 -0.032536458476189495 0.12452859675516269 0.02732610009041721 0.1543193369191499 0.027347757047868227 0.15427903890402922 -0.042490104686594414 0.07103346830437178
1461750000.0 -0.03189891539502803 0.12412460172126176 0.03036409457340969 0.15367959685359237 0.030416248721491655 0.15383132765736196 -0.04264119359817442 0.07177276779263653
1462438000.0 -0.031216715682364022 0.12368641613118529 0.03345657744604227 0.15307303936945818 0.033434658374678176 0.15319706291850904 -0.0431348594600895 0.07232231994919369
1463125000.0 -0.030524411917298346 0.12310478740746301 0.03645765182286746 0.15240592339377512 0.036473134529565694 0.15262802239617335 -0.04344390034871662 0.07281551174466645
1463812000.0 -0.029939915180335577 0.12241248820212657 0.03945687792338033 0.15168380807931522 0.03950392727030845 0.15199440194811795 -0.04400841817613265 0.07326016704901109
1464500000.0 -0.02926715225346918 0.1217828138472679 0.042395507867489704 0.15086590238913158 0.04255339195029216 0.15131428705274136 -0.044492067332923095 0.07389492481766037
1465188000.0 -0.02856193859429948 0.12105720103785798 0.04539949876456233 0.15010462726235174 0.04546860659847793 0.15043458619115627 -0.044975585936468415 0.0740947565630521
1465875000.0 -0.02800587497019309 0.1203711460620639 0.04825127830843676 0.1492274084931381 0.048490699488385684 0.14956707363883043 -0.04544024906371581 0.07433145735809728
1466562000.0 -0.027300609630286157 0.11958447471678126 0.05106777334343981 0.14840298572769361 0.05145048627343344 0.14858123627698275 -0.04596067020217716 0.0746556610208806
1467250000.0 -0.02659280947709616 0.11877175946605341 0.053982259393368516 0.1473751951614675 0.054385518778710035 0.14769055321626606 -0.046469491740894854 0.07496418323921719
1467938000.0 -0.026034275700019576 0.11781081257103854 0.056761211726853285 0.14632869265029955 0.057343735733526344 0.14645781902213176 -0.04709959516015789 0.07505828435068136
1468625000.0 -0.02544221214520589 0.1170529645700987 0.05965416122249744 0.14523422236723926 0.060282465175450536 0.1453347171522168 -0.04739225405673068 0.07492123797861766
1469312000.0 -0.02496586724190517 0.1161665284930039 0.062453601808631146 0.14412771073807654 0.06316942119222471 0.144101440503315 -0.04794803470165259 0.07486662689045837
1470000000.0 -0.02445239821477322 0.11543300279693121 0.06530971401158213 0.14297310318826414 0.0660369079451044 0.1428696186276222 -0.048423941273585236 0.07472411456058364
1470688000.0 -0.023952651550116142 0.11475085785193867 0.06809879542442233 0.1417682426474606 0.06889813863774476 0.14165112083811732 -0.04898661668658161 0.07468791373134134
1471375000.0 -0.023517730641624674 0.11410409691815586 0.07102172288004358 0.1404888244124878 0.07166157887578259 0.14017742437665415 -0.04915701474434436 0.07434441890504495
1472062000.0 -0.023032507339188792 0.11346344441898706 0.07391371924546092 0.13911043571607204 0.07446146290823306 0.13874716953899405 -0.04933546687465412 0.07412288288587365
1472750000.0 -0.02256193440360244 0.1128552930958514 0.07662258952939495 0.13768015162681732 0.07714536317762376 0.13732565364111846 -0.0497331444833797 0.07391785803044837
1473438000.0 -0.022217481563726525 0.11239089114729252 0.07949285437703844 0.13641104568067303 0.07991893515036175 0.1358756729369072 -0.049757091627412924 0.07371111338641105
1474125000.0 -0.021615370338023937 0.11181561315184446 0.08225255551898074 0.13483870028389633 0.08256432680986557 0.13433064256383426 -0.04970096050928573 0.07328968859902932
1474812000.0 -0.021079555746259814 0.11133381896492521 0.08498598981182633 0.13321944683523257 0.08517133867388568 0.13278861967510217 -0.04939057650095629 0.07294082330212931
1475500000.0 -0.02062338668267687 0.11077747977622014 0.08773034712755931 0.131569992074458 0.08777085896921276 0.1312181841524443 -0.049293051849686256 0.07271312538873136
1476188000.0 -0.020131074091968938 0.11043912625673653 0.09045846341983042 0.12995549847381696 0.09038628579369376 0.12955403534419008 -0.04902718648145181 0.07238044469160183
1476875000.0 -0.019706611650745543 0.10981381048966847 0.09306744897635219 0.12816485266262195 0.09300141748816759 0.1278944741270367 -0.04834596702082548 0.07211681126394547
1477562000.0 -0.01930197388719838 0.10924154086901854 0.09580923030496367 0.12637248301440152 0.09556329958836317 0.12611767414946742 -0.04781891712949401 0.07192823355116501
1478250000.0 -0.018756023181716135 0.10866330091312716 0.09827009877376802 0.12452215502078363 0.09810651440423399 0.124328979000613 -0.04745616850766326 0.0718744751254762
1478938000.0 -0.018366000699919238 0.10808853044914875 0.10087396978972005 0.12260427516187344 0.10061722863697226 0.12243440722043049 -0.04678158252908374 0.07189550333683226
1479625000.0 -0.01812351814751161 0.10754088827350446 0.1033065460809718 0.12055324176247233 0.10307935896046382 0.12048985238676063 -0.04593476482434663 0.07183405466210517
1480312000.0 -0.0178879840408063 0.10678207903912823 0.1057016211939468 0.11836502534679255 0.10559285235219901 0.11847181306905813 -0.04536887856005343 0.07197457846301825
1481000000.0 -0.017632929113727824 0.10615143118559951 0.10809574641758966 0.11628197784305543 0.10796222073381924 0.116418525582627 -0.04474122132406854 0.07209727025091642
1481688000.0 -0.01762143920549103 0.10552600473063602 0.11034100793592637 0.11425712223099978 0.110334154210191 0.11430800176458968 -0.04418760113547728 0.07255455474952087
1482375000.0 -0.017449978961993042 0.10479299084046206 0.11264169558079534 0.11198927168951142 0.11272234413835489 0.11216792182305033 -0.043601990255047365 0.07274206397863883
1483062000.0 -0.01731722416111245 0.10406149392968042 0.1148421582133199 0.10982119306001807 0.1150172769497381 0.10996290582137527 -0.043043873935820855 0.07287221459170604
1483750000.0 -0.01727137491848906 0.10324769955931966 0.11717978443379805 0.10748414856715702 0.11731377178456556 0.10772200284035774 -0.04274181863139702 0.07361107376722638
1484438000.0 -0.017397439350086672 0.10243189837291057 0.11928080336553445 0.10524156685087195 0.11951895656109357 0.10544538433460976 -0.04234131704988446 0.07345943165020859
1485125000.0 -0.01734335997081783 0.10170126673677157 0.12131579122525783 0.10279330467423674 0.12164008436708322 0.10314059326659109 -0.04199007214486038 0.0736962042385021
1485812000.0 -0.017390662285570815 0.10084548283787065 0.12328716607492685 0.10041081059546549 0.12373307447388313 0.10070320633875514 -0.04166630871842735 0.07379419204809691
1486500000.0 -0.017446876778349843 0.09997340432938724 0.12518998255809002 0.09806761213859201 0.12565225436219818 0.09837331937078869 -0.0416285264084978 0.07399031652301565
1487188000.0 -0.017560396934411183 0.0991829946210997 0.12716193751806926 0.09563533874381015 0.1276686433920513 0.09581939987201703 -0.04148498259468035 0.07413746995623337
1487875000.0 -0.017567747474334643 0.09837181973576603 0.12914077648014977 0.09325648987091649 0.1296252684167695 0.09340763034343681 -0.041408149402337974 0.07396668707410994
1488562000.0 -0.017676001963726165 0.09746851298212691 0.13084226919555003 0.09080489866584862 0.13140511553750855 0.09078854342964318 -0.04124678913217083 0.07403975682984158
1489250000.0 -0.01772817653233732 0.09654692830142468 0.13273944050371744 0.08828771022646686 0.13322499470932375 0.08822700866543533 -0.04118527439410463 0.07393910062796599
1489938000.0 -0.017759758443126147 0.09568383024757966 0.13440239613220736 0.08577019242837987 0.13512490254244383 0.08565139522009192 -0.041135465597117817 0.07357769857369419
1490625000.0 -0.017718781966149937 0.09477843763280298 0.13620670328111176 0.08305686700459855 0.13679852712407925 0.08288617811164291 -0.04115064450127055 0.07313948622005342
1491312000.0 -0.017767543785657692 0.09389636385085579 0.1378332418607426 0.08050416683732435 0.13849288559108483 0.08027307419053852 -0.04113828256628392 0.07258109984952045
1492000000.0 -0.017691060982661905 0.09292096304665819 0.1395146665329538 0.07783515146773483 0.1400627899170144 0.07747289505030698 -0.04088991246139992 0.07227745632873334
1492688000.0 -0.01757518028773647 0.09192584593361587 0.14104434328672485 0.07511548024503246 0.14160660678675543 0.07475778917831088 -0.04091349431676485 0.07156444082110665
1493375000.0 -0.017427719651015864 0.0909756825736906 0.14262376363900564 0.0723138104964953 0.143111506723255 0.07192917908998918 -0.040731395253106234 0.07097844582548613
1494062000.0 -0.017267947342337713 0.08999973217113366 0.14408126076305103 0.06961575146867813 0.1445682038492122 0.06905289968216743 -0.04055468432665634 0.07038476323723666
1494750000.0 -0.01707443001438534 0.08907031274913316 0.14562075850604717 0.06683719443052236 0.14605102473601803 0.06618770601644478 -0.04041185272720289 0.06965529926094394
1495438000.0 -0.01692826719391627 0.08807135093914557 0.1470012939057776 0.0639554673615666 0.1473157056343628 0.06327811895862558 -0.04039807273664811 0.06883235693423052
1496125000.0 -0.016708966672757133 0.0871225644688229 0.1483747823131311 0.06103894633833607 0.14871754684251845 0.06035160249594195 -0.04003390239175467 0.06806348098045835
1496812000.0 -0.01649298898615936 0.08620511375167084 0.14987202583882192 0.05806641313620355 0.1499420812625941 0.05745442201650168 -0.03944075056806704 0.06738275828643095
1497500000.0 -0.01619542506212814 0.08525898088596263 0.15116770866588214 0.055222172944673686 0.1511778701823319 0.05442584942469514 -0.03920439708645186 0.06659105530103114
1498188000.0 -0.016007034552762926 0.0843532864628555 0.15232664023369227 0.0520913729859304 0.15228215151949698 0.05143334401244287 -0.03870595027724883 0.06590698877592127
1498875000.0 -0.015757491602739114 0.08352935845678645 0.15348721938284413 0.049180280053196065 0.15334294773477028 0.048509653427145534 -0.03826275186065709 0.06536364223720383
1499562000.0 -0.015569748889101722 0.08260596335219657 0.15456265995854518 0.046034030260012425 0.1543654896979762 0.04545917037399233 -0.037924066298157796 0.06479113540458022
1500250000.0 -0.01540657191726743 0.08175867491530688 0.15558458160922764 0.042902239567694456 0.155284669664853 0.042388846341693265 -0.0373756511695561 0.06438613179345754
1500938000.0 -0.015195364554893263 0.08098764553791969 0.1565767617666595 0.03961812297583135 0.15621199412097875 0.039415011779721926 -0.036834455042097335 0.06392569947534651
1501625000.0 -0.015098096004215408 0.0802626168074268 0.15750412988850956 0.036470220342270245 0.15713702018802736 0.03627470583301043 -0.03649245898708209 0.06361938901412725
1502312000.0 -0.014985348592271006 0.07951209578669469 0.15832987990741693 0.03309701110168724 0.1579068331295491 0.03312687557110264 -0.03622349556640784 0.06340047283901275
1503000000.0 -0.014907765946601498 0.07886643564350249 0.15901153551629651 0.029988228235402693 0.15878335958487563 0.030068652575363727 -0.03581479707088144 0.06316962109644489
1503688000.0 -0.014863001735001253 0.07827772920940161 0.15963180455848175 0.02665761972857217 0.15939803216165 0.026878987339119812 -0.035564906134776635 0.06313772991214092
1504375000.0 -0.014879287940312735 0.07776244666786157 0.16024053347246664 0.023446106819195598 0.16011118105931574 0.023644004161029547 -0.03561644169123737 0.06301689740310919
1505062000.0 -0.014848957362925389 0.07730273748924091 0.16076175436013002 0.020174113647078436 0.1605902468057004 0.020456124547332647 -0.035725846218692306 0.06300882465906407
1505750000.0 -0.014887807189430077 0.0767405474628747 0.16114000928756325 0.016723743678719906 0.1612057145568274 0.0171243172860119 -0.035918138518578356 0.06269747165321038
1506438000.0 -0.014979240101020199 0.07644264829004906 0.16152483206002752 0.01347019345025435 0.1616906102362217 0.013798625501300718 -0.03602954229512166 0.06245350729051632
1507125000.0 -0.014953988925439279 0.07605862375912596 0.16195931988108536 0.010228389008765593 0.16204294773717842 0.010399432937527072 -0.03629468204699369 0.06231254724392394
1507812000.0 -0.015060014679749701 0.07568737893152665 0.16201822348320974 0.006990757199217154 0.16233325315177846 0.007113894012528728 -0.03684005531087126 0.062121210490459475
1508500000.0 -0.015148152064996128 0.07527503053602194 0.16211476795773572 0.003584223211641564 0.1625218585566453 0.003762541219971017 -0.037191442701722595 0.06160555137354278
1509188000.0 -0.015257304520905705 0.07499397933789993 0.16204763372745368 0.00033318394067797104 0.16257336994287513 0.00034287688010289544 -0.03787855655466758 0.06110966449420631
1509875000.0 -0.015388313320071909 0.0746291672816715 0.16208311163005917 -0.002959998174947162 0.16265173380448858 -0.0029536025685609254 -0.03852192920754078 0.06059788151060044
1510562000.0 -0.015528383391979983 0.07430423489669648 0.16204078853845 -0.006232312846849676 0.16254362456963872 -0.006374820014993302 -0.03909945334707411 0.06002003545474888
1511250000.0 -0.015650900189363267 0.07396045259876616 0.16180069589329857 -0.009391041062049918 0.16240973933108527 -0.009729060985338198 -0.03972653140455081 0.0593448677852754
1511938000.0 -0.0158384010070824 0.07350825068920121 0.16148772305976242 -0.012523107281928722 0.16222466492384582 -0.012979285648144483 -0.04025692828611704 0.05836905359910038
1512625000.0 -0.016061315992339214 0.07302253555129255 0.16120501054464023 -0.015809850796759232 0.161841999718361 -0.016392068913823745 -0.04099328683543634 0.05742883510792186
1513312000.0 -0.01624782037178501 0.07241976594304844 0.16086704030240648 -0.01903517871941075 0.16144311804647699 -0.01969060078341718 -0.04176544421468716 0.05641013584082427
1514000000.0 -0.016438846200563417 0.07188204957026448 0.1605637466751219 -0.02224916666160649 0.16093445220045793 -0.022840429041979457 -0.04237634811181115 0.05532848876743946
1514688000.0 -0.01668746556303381 0.07120889050326326 0.1601701866370586 -0.02531724201375574 0.16032390460612836 -0.02604674097254866 -0.04306769717574106 0.054182464965400114
1515375000.0 -0.017003005405491555 0.0704792788659383 0.15953152856408603 -0.028560714639533673 0.1597862879943567 -0.029260642960669818 -0.043769242373529686 0.05300019565247968
1516062000.0 -0.017394676696434276 0.06984835399179586 0.15915297731533162 -0.031695835765793004 0.15913055074590504 -0.032491839230603885 -0.04443410831376359 0.05171874702913564
1516750000.0 -0.017739278377347525 0.06909224529339679 0.15856339587023527 -0.03483009145545352 0.1585125636304953 -0.03562397334984695 -0.04510484118471471 0.050733796944815626
1517438000.0 -0.018149876162339013 0.06830615350412209 0.1579499752211948 -0.03811038418270419 0.15768397006900237 -0.03881371704369238 -0.04589119759202663 0.049604347633557276
1518125000.0 -0.018557754248259607 0.06761076352586516 0.15723365861294147 -0.0412871444124326 0.1569198917970813 -0.04193100281544103 -0.04648643502877973 0.04833226671054791
1518812000.0 -0.019052889649500183 0.06682913631657135 0.1564984966002543 -0.044576784544271476 0.15605046784440055 -0.045006102980208414 -0.04720343019761129 0.047120175235283494
1519500000.0 -0.01952653549274951 0.06609842934275162 0.1555466091671243 -0.047771920823964246 0.15514556777459032 -0.04816238482440787 -0.04767234748615433 0.04596961718434244
1520188000.0 -0.020114795544150195 0.0653623579853034 0.15456939313722345 -0.0508115125805008 0.15411969355501798 -0.05121618367063547 -0.048274964129712064 0.044867314391415336
1520875000.0 -0.020512207770923076 0.0646179116046746 0.15359883525311654 -0.054084743605873065 0.15311252323820754 -0.054320973178890924 -0.04899639405729725 0.044035327774293746
1521562000.0 -0.02094213555545936 0.06393640891344954 0.15241060203365972 -0.05723760340021859 0.15204822624659672 -0.057408478210228195 -0.04955133907662721 0.0432565921728919
1522250000.0 -0.021395890512806683 0.06332574101028231 0.15124242919985736 -0.06042211933292936 0.1509307377947236 -0.06045436548404842 -0.050283659525493955 0.04246276950637529
1522938000.0 -0.021776331905436073 0.06277749227756861 0.14990496526560831 -0.06352183246706675 0.14972205317722698 -0.06365926899776672 -0.05089072754215559 0.04169926579327871
1523625000.0 -0.02202828030151871 0.062293699254012694 0.1485611324623385 -0.06660119656798925 0.1484683654028399 -0.06666067979506016 -0.05153086608547782 0.041150972653609674
1524312000.0 -0.022320041027362184 0.06172627141677286 0.1471669801342932 -0.06957078763230756 0.14712441528257067 -0.06974278338569476 -0.052209415043757146 0.040681835637612955
1525000000.0 -0.02247682311881697 0.061257187485289674 0.14565196319320647 -0.07266168060138714 0.14569277322562987 -0.07283659748254673 -0.052894308015253286 0.040247354282329145
1525688000.0 -0.022621038434149632 0.06073556427698955 0.1439949879143368 -0.07561052273272321 0.144262048025073 -0.07578719134281153 -0.05366976792341632 0.03979615766784968
1526375000.0 -0.022797055163664766 0.06025808097549569 0.1423720048881562 -0.07847256589190732 0.14266388506405792 -0.07869501018794865 -0.054309182039299304 0.039267855638250124
1527062000.0 -0.022833774773170785 0.05981061957091546 0.14069243611929594 -0.0813248440134924 0.14095633496299875 -0.08155777760984106 -0.05490907372418091 0.03909759129582397
1527750000.0 -0.02291245731119968 0.059399105343435135 0.13901424463793782 -0.08419327172862737 0.13921248192738253 -0.0844590638030411 -0.05583055634308474 0.03871557247922395
1528438000.0 -0.022838849446630755 0.05894224314000489 0.13731627746196068 -0.0868595015901932 0.13736274928434858 -0.08717564997848802 -0.056610717707285166 0.038369454610660506
1529125000.0 -0.022900292824264833 0.0584938186590426 0.13546629973543298 -0.08952077536441401 0.1355041059572283 -0.0899464780042828 -0.05743221868519361 0.038000140854198804
1529812000.0 -0.022960611868621552 0.05803214244548884 0.13363647324466685 -0.09218935288080986 0.13358715357432907 -0.09256172031724104 -0.05826732669163596 0.037526759062666316
1530500000.0 -0.02307596202542707 0.05760421503732493 0.13176249105180643 -0.09474037468900282 0.13160659593661928 -0.09526669767741225 -0.05887925104430455 0.036962426018041096
1531188000.0 -0.023205920242620047 0.057159898568326664 0.12990701281707323 -0.09728996344235405 0.12955104346645646 -0.09773265973365164 -0.059876070442580295 0.03666203549546467
1531875000.0 -0.023233904000366196 0.05677596097707371 0.1278162394306222 -0.09991488163064073 0.12755240467364173 -0.10029488166814077 -0.06085849549791161 0.03604986733471917
1532562000.0 -0.02343082630934965 0.05634330329954581 0.1259201110229655 -0.10241597967478173 0.12548512644535587 -0.1026415887252111 -0.06151373786394283 0.03542917078183561
1533250000.0 -0.02364291492247986 0.0559726722296665 0.12385658962148229 -0.10490090015091404 0.12339417218226681 -0.10503019165075733 -0.062455038585795986 0.034886046307235234
1533938000.0 -0.02404450384618983 0.05569458556712785 0.12172616499734552 -0.10728830980419028 0.1212850474022736 -0.10740109227244932 -0.06335460369071078 0.034286397664943534
1534625000.0 -0.024394092093810587 0.05542431768412086 0.11949933208756365 -0.10971418951601042 0.11909600624448875 -0.1098379279641733 -0.06439231878403323 0.033593953271681035
1535312000.0 -0.02482846301167823 0.05513188725619435 0.11727428350816856 -0.11209621569020045 0.1169770581315113 -0.11215445626234759 -0.06524289841742181 0.032708395835113646
1536000000.0 -0.02534859023849227 0.05494605678176604 0.11503640510262207 -0.11452247394271074 0.11480921927742746 -0.11440662951074565 -0.06626957979412101 0.03221307524483304
1536688000.0 -0.025915932741469323 0.05476429973134175 0.11260239695397958 -0.11672643994964679 0.11260782765066159 -0.11668156388715094 -0.06747961621169195 0.03146889872420538
1537375000.0 -0.026481789942787253 0.05461072782831215 0.1101795616327186 -0.11897257069976852 0.1104067692969466 -0.11894262455392851 -0.0685294212482082 0.03086297751300663
1538062000.0 -0.027121887401334106 0.05450324361362429 0.10780312936127112 -0.12122711890606479 0.10810650613143073 -0.12109014883280679 -0.06953202834642783 0.030357658982887555
1538750000.0 -0.027742915263124144 0.05439800510217069 0.10529856065047873 -0.12333637916739185 0.10566923229569875 -0.12321447643257982 -0.07034902856700134 0.02968459796618265
1539438000.0 -0.028419894248678308 0.054355424983657384 0.10292189294549799 -0.12542684582883595 0.10331772864423897 -0.12537664141594537 -0.07152621949033763 0.02940900368933581
1540125000.0 -0.029144927316680877 0.0542547024045454 0.10034053171667112 -0.12734794569832766 0.10087782421584035 -0.1274896810102233 -0.07271330559519808 0.029046843095977624
1540812000.0 -0.02979864378588286 0.05406548017151883 0.09773448953218197 -0.12936509017923745 0.09834173324765777 -0.1294633518226012 -0.07364335522464481 0.02896454473005873
1541500000.0 -0.03046937298014506 0.053815043074639655 0.09521386637301173 -0.13121372930758188 0.09568086501551798 -0.13146016312760303 -0.0747394536545854 0.028770511137009607
1542188000.0 -0.03117425522967901 0.05356688095420548 0.09263908291884655 -0.1330656351130566 0.09298491997892418 -0.1334418586750512 -0.07579160409687533 0.02869597535941518
1542875000.0 -0.032008038555165236 0.05321581247134654 0.08998281832697202 -0.1347466028140284 0.09030698502026357 -0.13542673218593584 -0.07680109175670691 0.02869697913238931
1543562000.0 -0.03276850848786259 0.05275334742308567 0.08739777641969822 -0.13650064178957888 0.08754290511042193 -0.13723849030835317 -0.07770588522208652 0.02866825238328838
1544250000.0 -0.0336719710591797 0.05229092696501225 0.08476529263818704 -0.13812343836548888 0.08468197236949679 -0.13913159529983088 -0.07883091750095894 0.028799513477399067
1544938000.0 -0.03458751234063575 0.05176189388606635 0.08204536343103046 -0.13966527028390854 0.08176145524901333 -0.14075596477226376 -0.07977199460042293 0.0289504043560395
1545625000.0 -0.035581306860329044 0.05119223057193086 0.07940434834569376 -0.14148782342703892 0.07888473306373732 -0.14251056482877397 -0.08064188779569835 0.029032639272931808
1546312000.0 -0.03659739762241791 0.050617744106518044 0.07659833962407685 -0.14309534349826608 0.0759751316367983 -0.1440326374368043 -0.08158083240458802 0.02924290115684927
1547000000.0 -0.03772439812471864 0.04994887115607582 0.07389938243074601 -0.14465731500607618 0.07303918915766486 -0.1455314981404971 -0.08239861388443276 0.029615084334104286
1547688000.0 -0.038814797017516146 0.049244008300420625 0.07096984715960494 -0.14608319468856734 0.07004442964134533 -0.14694069229140988 -0.08330406970820765 0.02976671399209931
1548375000.0 -0.040031694472740346 0.048546027538028454 0.06812775403899675 -0.14772647731602565 0.06708771717342357 -0.14826677666637358 -0.08388926737972176 0.030203743398439842
1549062000.0 -0.04134177935981015 0.04812412882867029 0.06515495880404183 -0.1491551261338755 0.06403336659703283 -0.14958519778217488 -0.08472327643928575 0.030447281209664914
1549750000.0 -0.042586362030577314 0.04758637634233502 0.06211345779462919 -0.15057923066902745 0.06104964563828626 -0.15082469719560349 -0.08558251099609243 0.030644685769642632
1550438000.0 -0.04385684312258428 0.04705903598992765 0.05893698139770964 -0.1519263185341105 0.058009479887285414 -0.15198955281501028 -0.0862310440720892 0.030966480190642968
1551125000.0 -0.04507850709835062 0.04671692955897436 0.05587891107806242 -0.1532548831568454 0.05506380302151941 -0.15299562909576853 -0.08693582834344027 0.03120052609337955
1551812000.0 -0.046395460757436696 0.04628003803691803 0.052677227931396176 -0.15445207680444156 0.05191438009093058 -0.15406802622757682 -0.0875645780065544 0.03170838003409059
1552500000.0 -0.04758241237866282 0.04596808323988959 0.04947425904085376 -0.15560131085378012 0.04882050310442727 -0.15500341866732095 -0.08828637027549459 0.032059331882923314
1553188000.0 -0.048623468162614224 0.04576821233107382 0.04606037512174622 -0.15679079135683766 0.04574211478072073 -0.15604537563517507 -0.08898676706018346 0.03240683497595554
1553875000.0 -0.04964633278870445 0.04562795661718351 0.04281147447918871 -0.15772709817128006 0.04260081368688957 -0.1569827928760931 -0.08978497641814773 0.032779626894736534
1554562000.0 -0.05076880362576523 0.04545610889970634 0.0393519426642215 -0.15865215875704494 0.03940044313202292 -0.15772828473940553 -0.09064676124995466 0.03317672951629394
1555250000.0 -0.05171859941597143 0.04525896983344496 0.0359416750490886 -0.15949634047470712 0.03623625574669872 -0.15862439322917485 -0.0914997746434319 0.03374182507145895
1555938000.0 -0.0525858302240478 0.04510549128459609 0.03266634141001916 -0.16002667469765378 0.032886392059298886 -0.1594086193879691 -0.09247866971614542 0.034309352279923974
1556625000.0 -0.05340209818510273 0.045023526279041735 0.029195295543162778 -0.16052359387688436 0.029656559091753354 -0.16012277588794183 -0.09341444938705427 0.034963258675876366
1557312000.0 -0.054340044118094004 0.04486279465323603 0.025784530533434796 -0.16097149944065006 0.02628101927403382 -0.16067534035481623 -0.09429315516465803 0.0356730798025311
1558000000.0 -0.05513884963127253 0.04471946604511076 0.0224359952106555 -0.1611767778340031 0.022996216594110264 -0.16134828410452773 -0.09540945445217953 0.03641423370420722
1558688000.0 -0.05596240248727855 0.04465861593902662 0.019185184882139536 -0.161494809940355 0.019623460139142682 -0.16171521276733633 -0.09665642741304772 0.037213245986785305
1559375000.0 -0.05677395790644672 0.044563715852051586 0.015821737158546515 -0.161615628330821 0.016251560490418614 -0.1620426222571515 -0.09774528854258366 0.03806539337389195
1560062000.0 -0.05779281185064845 0.04439160238823202 0.01254434802099243 -0.16173515942550457 0.012897017523416432 -0.16231498317122714 -0.0990736433711856 0.03904441840049834
1560750000.0 -0.058779194020050204 0.044339630255822333 0.009270719595135143 -0.1617676103796562 0.009463313479925371 -0.1624474892177536 -0.10034204242536993 0.03991393430376174
1561438000.0 -0.05982076314711792 0.04432232076534368 0.0060578150992195825 -0.16168020682213705 0.006146695372435142 -0.16265277094775488 -0.10155353538216812 0.040821466117901044
1562125000.0 -0.0609615407072178 0.04437728873998969 0.0028764507178365615 -0.16160599802147532 0.002812124612989736 -0.16244374344589135 -0.10272443868733994 0.04174785535202739
1562812000.0 -0.062152485090942414 0.044547641621987426 -0.0003126033730849938 -0.16142923060093367 -0.0005017114792513641 -0.16245721755791262 -0.10386899059418898 0.042993730065380834
1563500000.0 -0.06339082912449531 0.044649852512504994 -0.003326773523970944 -0.16129838648152456 -0.0038509510278038886 -0.16220658440941219 -0.10533869989859296 0.04403315571420615
1564188000.0 -0.06471288171532565 0.04492512710021949 -0.006556905161989987 -0.16115165152816782 -0.007088474649058736 -0.16195176114530033 -0.1065856842307796 0.044913615854228796
1564875000.0 -0.06609280061560861 0.04525550446715317 -0.009698074985163967 -0.1609171425389944 -0.010345550571693786 -0.16155206254439855 -0.10788690188547759 0.045739048510152654
1565562000.0 -0.06741276141436697 0.045698559977242065 -0.012903630885141994 -0.1606620329614872 -0.013586853273025754 -0.16101916038060404 -0.10890316248401961 0.0467984268846591
1566250000.0 -0.06876068212235119 0.04615059349121505 -0.015985025663042073 -0.16029411058471113 -0.016764031888113713 -0.16058563738653828 -0.11026171035978438 0.04758393747076531
1566938000.0 -0.07014686395771733 0.046816465542228146 -0.019078106006948387 -0.15999560775276148 -0.019926022854352556 -0.16003307060080202 -0.11130124504483928 0.04833557642117778
1567625000.0 -0.07155078649105061 0.047158939079887656 -0.022150023261126906 -0.15964294650306554 -0.023088474089163404 -0.1594133908226122 -0.11243145656519499 0.04922069713604268
1568312000.0 -0.07292254581550893 0.04788119743629536 -0.025308155996524848 -0.1591034036616882 -0.026236252768395654 -0.1588460168710691 -0.11327266709613118 0.04967082724722331
1569000000.0 -0.07420454600043548 0.04856135815140715 -0.028469450553264858 -0.15863043644181654 -0.02928213509312423 -0.1582143274535145 -0.11423071151173732 0.05047412097918513
1569688000.0 -0.07544434080992551 0.04916907364076964 -0.03176195467221309 -0.15785382885589275 -0.0322757728137228 -0.1574512608726219 -0.1149118643578317 0.051197368487693844
1570375000.0 -0.07671880075778574 0.04980544407983146 -0.034809169684416746 -0.1571915176005759 -0.03544741991503035 -0.1567925992089696 -0.11572044633652975 0.05141910915566482
1571062000.0 -0.07796502078803295 0.05031249767467281 -0.03803076767864344 -0.15639075931808818 -0.03848609951232201 -0.15598431473814053 -0.11626750099532318 0.05206236215388178
1571750000.0 -0.07919529312961769 0.05089334679800315 -0.04129036032158947 -0.15542706817494467 -0.04153961032520786 -0.15512353316381275 -0.11670295855017986 0.052576592819825595
1572438000.0 -0.0803874754856444 0.0513857459755521 -0.044333660955646184 -0.15457279782932223 -0.0446222898443579 -0.15426165788901758 -0.11725840044891214 0.05323232870455146
1573125000.0 -0.08151141982622688 0.05186698260192374 -0.04747918695588057 -0.15336775793243637 -0.047656049949515354 -0.15328641771179366 -0.11762328011920377 0.05379605996848707
1573812000.0 -0.08270446509361111 0.052283779190581595 -0.05060160492147495 -0.15220124372466007 -0.0508001696055499 -0.15222758177108744 -0.11786968973755152 0.05446808596628533
1574500000.0 -0.08397952578164118 0.05268034339075458 -0.053826250786644235 -0.1511470959609619 -0.05379939220428219 -0.15115967525648458 -0.11814574486464717 0.055122031724291295
1575188000.0 -0.08514990301026758 0.053115493468440717 -0.056773358137075604 -0.14991978579004586 -0.056871159205741956 -0.14995641700051043 -0.11841935211732395 0.05596251645317682
1575875000.0 -0.08636752171908862 0.053421278009224256 -0.05972919386141912 -0.14857695790525158 -0.059950400197049995 -0.1486137387959286 -0.11864921535461632 0.05684977979063743
1576562000.0 -0.08763564354426945 0.05374011597023242 -0.06280775111100596 -0.14715977488943316 -0.06292925832461772 -0.14729571895376078 -0.11882145186623715 0.0578530964244534
1577250000.0 -0.08885080216875932 0.05408401095024146 -0.06560902283882523 -0.14569944873177954 -0.06586808921679152 -0.14584478597600592 -0.11913073784486321 0.059012282342160806
1577938000.0 -0.08996256027659845 0.05446011044291422 -0.06857197136134134 -0.1442935988089404 -0.06867601975600958 -0.14430447873817165 -0.11939880832258876 0.06002659954684139
1578625000.0 -0.09115917153908097 0.05493232788138879 -0.07131272444561088 -0.1425968396413427 -0.07154817646557834 -0.14272383666684074 -0.11968297716571456 0.06125898323637932
1579312000.0 -0.09229443144773908 0.0553840186980101 -0.07404030458875167 -0.14109783423400285 -0.07439897750307385 -0.14108163446932323 -0.12011336144218149 0.06245032798879214
1580000000.0 -0.09328241895778985 0.05584304045319808 -0.07675863245521758 -0.1394608808383833 -0.07709699070290083 -0.13933487141509016 -0.12045208237764223 0.06376685947283091
1580688000.0 -0.09429652161934038 0.0564511561504554 -0.07930367477938209 -0.13782367727284106 -0.0797664978700282 -0.13756728855689362 -0.12090958208129568 0.0651863019779608
1581375000.0 -0.09527978592363727 0.05707208369791765 -0.0819508643298034 -0.1360431130081742 -0.08239463290170257 -0.13582380788114992 -0.1214617455790367 0.06656663574674268
1582062000.0 -0.09619020910115947 0.05769127981666419 -0.08445800249987152 -0.13428770849994448 -0.08492574801262037 -0.13398622086232947 -0.12206502253809644 0.06783662573405343
1582750000.0 -0.09689279832939854 0.05843847231953914 -0.08695782834767439 -0.13257752981163426 -0.08738324121159424 -0.13208643138309833 -0.12267827057817078 0.0691723131944574
1583438000.0 -0.09762761873437757 0.05915273383738463 -0.0895380822120839 -0.13062683407137435 -0.08982024873395275 -0.13030944815633494 -0.12336075263959212 0.0704067612633653
1584125000.0 -0.09823320747208512 0.059961627013585934 -0.09198507327298941 -0.12864111952183446 -0.0922360585053615 -0.12841987408741262 -0.12405621645446542 0.07171633051159482
1584812000.0 -0.09883933279460434 0.0607067775665155 -0.09432495407921718 -0.126810768366728 -0.09451806822124503 -0.1265479645183531 -0.1246909122940862 0.0728336652365793
1585500000.0 -0.09931575224838282 0.06160347423009722 -0.09673674999004683 -0.12472925609177857 -0.09682209832611322 -0.12455467603658733 -0.12562277617453302 0.07394903520442186
1586188000.0 -0.09978124551785315 0.062362540229016966 -0.09897588738455662 -0.12268320170543408 -0.09906345609205545 -0.12272306221282535 -0.1262136374066317 0.07486564872852616
1586875000.0 -0.10017188491044754 0.06329582078357487 -0.10125248378319868 -0.12067227172840685 -0.10127735384229937 -0.12064128154873506 -0.1271053400528623 0.0755687503215874
1587562000.0 -0.10058248994137048 0.0642039325279961 -0.10354993280738703 -0.11865638074586413 -0.10360235983426314 -0.11863217368320188 -0.12772119442002997 0.07634409541586318
1588250000.0 -0.10077475460823229 0.06500438689208196 -0.1056398843422382 -0.11650242387211528 -0.10571786619781354 -0.11656599931879735 -0.12824773064804273 0.07673716740860802
1588938000.0 -0.10108779961466666 0.06595531125896076 -0.10789106552486465 -0.11441049118811278 -0.10786299953727606 -0.11441714333149174 -0.12894227882040854 0.07730973463794061
1589625000.0 -0.10138518733310095 0.06687245331581834 -0.10992715508833101 -0.11231205430004018 -0.10996848681328548 -0.11227158605788748 -0.12925344903396171 0.0776621521593089
1590312000.0 -0.10175524203196998 0.06778993157884 -0.11195991223199044 -0.11000118691093828 -0.11206250026355097 -0.11003664668542713 -0.12965837276443865 0.07787399418545113
1591000000.0 -0.10203325598491574 0.06878139766736635 -0.11392629043347892 -0.10771128897292892 -0.11408168584105932 -0.10786127920411409 -0.12970594654355577 0.0781524482544201
1591688000.0 -0.10226929401173686 0.0697269765732413 -0.11591159463582364 -0.10536463847082828 -0.11603518075427534 -0.10558283113899548 -0.1297214338219302 0.07842096973126342
1592375000.0 -0.1025464819734061 0.07078465726946931 -0.11769505959171855 -0.10310425353407364 -0.11808354519239285 -0.10314854278233289 -0.1296378399863606 0.07858677527734738
1593062000.0 -0.10295364743414502 0.07173394378662148 -0.11962725963916927 -0.1007114622433226 -0.12001724455295962 -0.10085322803236628 -0.1294716845795654 0.07900472916288895
1593750000.0 -0.10325808931883539 0.07286203111369682 -0.12150898604129327 -0.09835459649123053 -0.122001625448237 -0.09852324322055876 -0.1289226050494875 0.07938449538908834
1594438000.0 -0.10354115593081684 0.07385547201833226 -0.12340570391236381 -0.09601708611223114 -0.12381551017935669 -0.09602741007095822 -0.1285858103091178 0.07982574963614827
1595125000.0 -0.10393142047811171 0.07490917185558782 -0.1251102719310014 -0.09362358484001823 -0.12563013577742288 -0.09370336797157416 -0.12789500387633246 0.08033326882177909
1595812000.0 -0.10422516677196482 0.07606605625290196 -0.12684971976927184 -0.09131555153547091 -0.12743936829201105 -0.09115508288009636 -0.12735320339019865 0.08110970974979922
1596500000.0 -0.10453811727526799 0.07703877175187657 -0.12844524648802857 -0.08877037567551593 -0.12913113414301675 -0.08869428155317154 -0.12664391275640274 0.08185241063276306
1597188000.0 -0.10484722544037121 0.07808649948195888 -0.13013210624503466 -0.0863546290556572 -0.1307085377618443 -0.08623918855234251 -0.12584807557167457 0.08305499459023633
1597875000.0 -0.10520880739406306 0.07923093739654347 -0.1317873004590849 -0.08377370143677194 -0.13237351954840293 -0.08373964414224049 -0.12511381558274604 0.08429262318789016
1598562000.0 -0.10553815027984856 0.08015429587002083 -0.13334137440131458 -0.08136074048696046 -0.13385301554049378 -0.08116071014544637 -0.12455986437823509 0.08552514951956283
1599250000.0 -0.10576174420707116 0.08117727975764945 -0.1348175927614575 -0.07874589529258659 -0.13537945123901465 -0.07860654473587049 -0.12383404182292161 0.08698443153876242
1599938000.0 -0.10612495811728244 0.08206013959570035 -0.1362179986035121 -0.07625999819154691 -0.1367735416606485 -0.07598840722935837 -0.12335432133911806 0.08861199599096019
1600625000.0 -0.10635756690461691 0.08306741331542829 -0.1376686351664426 -0.07371901534342788 -0.13834443728855103 -0.07334594625446617 -0.12289195643417929 0.09039287069883667
1601312000.0 -0.10664092806115175 0.08397711459246125 -0.13921320769963416 -0.07110822688489556 -0.13951462719683783 -0.0708130978235919 -0.12245826750328605 0.09204960974299159
1602000000.0 -0.10679299439964764 0.08485111232272671 -0.1404167583795624 -0.06842276462397005 -0.1407663864795703 -0.0681535003606832 -0.12235200813624633 0.09383622216693253
1602688000.0 -0.10695868242009895 0.08576789811786163 -0.14173435672849502 -0.06586354975497165 -0.1420837196782717 -0.0653558618550019 -0.12203559539434566 0.09610771615216486
1603375000.0 -0.1071274561993401 0.08656854553560869 -0.1429012211737958 -0.06322315434145684 -0.14325795470730213 -0.06269553606918087 -0.12225576854021748 0.09791989918032273
1604062000.0 -0.10730554962957388 0.08732034212255602 -0.14410469756528566 -0.06050310665927039 -0.14441978460050187 -0.06000586520693642 -0.12251036299349301 0.10003498947620018
1604750000.0 -0.10743021575253667 0.08798072944448605 -0.14529581569738112 -0.05790674677544934 -0.14556664897331012 -0.0571973287941403 -0.12259510876340768 0.10201605070121078
1605438000.0 -0.10747060267348975 0.08869573336015463 -0.14646773972104993 -0.055158303341608185 -0.14657820301788718 -0.05446482790460703 -0.12346391080564781 0.10383082860695536
1606125000.0 -0.1074433004225204 0.0894281432645925 -0.1476263954571348 -0.052416606657571585 -0.14756221483283813 -0.05168996235466391 -0.12411034964417966 0.10569579917577133
1606812000.0 -0.10744609135026237 0.09009113872385154 -0.1485128171318294 -0.0496104017742639 -0.14862879874592272 -0.04887286732604262 -0.12459794541520527 0.10753935672257474
1607500000.0 -0.10754492317840805 0.09069989131366375 -0.14982384234299168 -0.04680427592348585 -0.14972819572637663 -0.04600789522175245 -0.1251340550645301 0.10916570812265884
1608188000.0 -0.10748546367723429 0.09137180565875566 -0.15068789080508818 -0.04398005509558182 -0.15057600487571043 -0.04336071350132259 -0.12675707398866531 0.11065766297567685
1608875000.0 -0.10738952513559903 0.09195666009680743 -0.1516449303411026 -0.04110109352187924 -0.1513359760494201 -0.04038567579078651 -0.1273541059631616 0.11167463848499425
1609562000.0 -0.10732578386040699 0.09253699130667768 -0.15263333123112094 -0.038126735226487414 -0.15221195805792082 -0.037482336340398686 -0.1283075316058606 0.11301563548475431
1610250000.0 -0.10709896285270289 0.09310671022243368 -0.15339216283728077 -0.03501614522691968 -0.1528148169142179 -0.03466393497164951 -0.12910369876926492 0.11398922970096248
1610938000.0 -0.10690744009346817 0.0935126798761172 -0.15398924583155985 -0.032168686252741566 -0.1535126415203742 -0.031827519415875236 -0.12982417211571984 0.11466827217553673
1611625000.0 -0.10663359628805084 0.09408278619258825 -0.15484988631291946 -0.028991419220278102 -0.1542111189693307 -0.028795953639477873 -0.13059490275704888 0.11518759926010183
1612312000.0 -0.1064022863448084 0.0947554460831175 -0.15530605981544204 -0.025929947137423852 -0.1549155244729649 -0.02588319470197125 -0.13108971771366934 0.11594772641263398
1613000000.0 -0.10609091844634763 0.09529283869767564 -0.15592576799588073 -0.02278828180939714 -0.15537469626301426 -0.022915390542482105 -0.13132028036314786 0.1167490814059187
1613688000.0 -0.10591079755136712 0.09589372612830854 -0.15615230937453983 -0.019638509967597653 -0.15591398561812078 -0.01996246045689262 -0.13148480866669385 0.11696202149393513
1614375000.0 -0.10565248192689902 0.09660443205646217 -0.15641152470566316 -0.016449773681940234 -0.15627607059113435 -0.01685805966798037 -0.13112979925149995 0.1174425711110864
1615062000.0 -0.10545350131458937 0.09735035767625316 -0.1566153384142773 -0.013180494698650144 -0.15661209321055514 -0.013856061718604495 -0.13100568295113058 0.11805917346308649
1615750000.0 -0.10528741121614091 0.09805774315282703 -0.1567718632236303 -0.010099594836368785 -0.15697763999777276 -0.01064673074921754 -0.13034902858126757 0.11838726995843302
1616438000.0 -0.10501283328427552 0.09876955740190188 -0.15673422384814975 -0.006871678165327774 -0.15714392962687654 -0.0075499408059901294 -0.1294124176909911 0.11930472023666013
1617125000.0 -0.10470480449342169 0.0997439905455543 -0.1566964252794853 -0.0039000878523467886 -0.15740626229937996 -0.004160592248235205 -0.12911153679768425 0.11996030314303589
1617812000.0 -0.10453011425960729 0.10041709803539653 -0.15674503626380354 -0.0009163596323817679 -0.15749757857718547 -0.0012191123615987434 -0.12862108898697888 0.12111359323891294
1618500000.0 -0.10425942088380435 0.10146885549254342 -0.15649891021423712 0.0023009975128286952 -0.1574921183356548 0.0020765331575788686 -0.127513242241395 0.12201900500880203
1619188000.0 -0.1039941165919102 0.1023597940530862 -0.15632252167749758 0.00525643914317478 -0.15739896731144776 0.005231955860047619 -0.1267934752791889 0.12311691611446075
1619875000.0 -0.10377583157572437 0.10347296530585433 -0.15609445745852277 0.008197662781283725 -0.1572664831313662 0.008475197174991235 -0.1262012691942299 0.12406274497347257
1620562000.0 -0.10355496668227798 0.10441645240767404 -0.1559164576573366 0.011082661753645258 -0.1571294318151053 0.011535436286832743 -0.12554216458629427 0.1252179006868116
1621250000.0 -0.10344184945793726 0.10531953397627286 -0.15556523663264557 0.013933483684219818 -0.15677127718908762 0.014652061778536637 -0.12471262145353205 0.12676908276773735
1621938000.0 -0.10310141065985466 0.1062765369657224 -0.15524739233885962 0.01677385777841282 -0.15633909051890163 0.01770656645459355 -0.1245305750533977 0.1280424711948209
1622625000.0 -0.10294541406062861 0.10712549926062391 -0.15500439266753732 0.01946470327697198 -0.15596296139336846 0.020719282628673015 -0.12410114043430356 0.12976835870948125
1623312000.0 -0.10273837894442885 0.1081294683505719 -0.15465434961955846 0.02240526444347311 -0.1554530871897869 0.023657025737541925 -0.12413696900431288 0.13132411624904625
1624000000.0 -0.10246612153237719 0.10905943416463501 -0.15440782707050998 0.025201520216420345 -0.15487856339396514 0.02661744213564215 -0.1239762132942409 0.13282055376190227
1624688000.0 -0.10254506814154812 0.10987665479529787 -0.15409963359904727 0.027843881153410112 -0.15452816267496317 0.02950492317707161 -0.12431170676619777 0.13420394435635347
1625375000.0 -0.10239068314909403 0.11068086611914772 -0.15371191888444907 0.030783216052710394 -0.153841401290711 0.03243141968970702 -0.12443760498133488 0.13594590843381393
1626062000.0 -0.102452504748098 0.11147154251186057 -0.1534276462210185 0.0336262069520345 -0.15323672792919343 0.03530095819960384 -0.12550299757535432 0.13765369513228043
1626750000.0 -0.10258475106295357 0.1120923945085988 -0.15292877166759433 0.03670423984665025 -0.15262002144770426 0.038082765818363666 -0.1263026981078145 0.1393342883401844
1627438000.0 -0.10275187683575349 0.1128932644745664 -0.1525427940632842 0.039682642042235754 -0.15196321487633674 0.041018466367685406 -0.12729956099569262 0.14015954300256203
1628125000.0 -0.10309265051269478 0.11355047712941771 -0.1520034918125176 0.0426653346258119 -0.15115839248794213 0.04382524332054327 -0.12841558384275797 0.1416577994370531
1628812000.0 -0.10321302118378294 0.11431371818093196 -0.15148554598090533 0.045757347910873214 -0.15042794878574745 0.04679430785477067 -0.13004841665492822 0.14265937774651563
1629500000.0 -0.1036900731772453 0.11498352985306344 -0.15082030337678828 0.048766703234448254 -0.14967510589975272 0.049585877063800125 -0.1311206091453977 0.14347346509765807
1630188000.0 -0.10393347256721658 0.11564998527440057 -0.1499473384418191 0.05205338219484706 -0.14881665845079428 0.0525170411279105 -0.1323672445137006 0.14392070870958465
1630875000.0 -0.10446358700697782 0.11639872851077743 -0.14918018248831288 0.05513994707706113 -0.1479176567909582 0.055517034865500865 -0.1338434931731715 0.14479192648942513
1631562000.0 -0.10481330688619542 0.11704624655679913 -0.14802459238167126 0.05842157767021091 -0.1470083367134624 0.05840213899521694 -0.13518527265782992 0.14508262017733786
1632250000.0 -0.10519187282473434 0.11779936417913381 -0.14689230385623164 0.06153054730862187 -0.14597428314323807 0.06138937040412877 -0.1365820593556657 0.1449769470986674
1632938000.0 -0.10559901814545856 0.11837989743339487 -0.14573923644941003 0.06472064306655335 -0.14492156130853823 0.06435583839369496 -0.13780892674464446 0.1449970246339958
1633625000.0 -0.10609411975370092 0.11918723919642912 -0.1443217566587609 0.0679386539946162 -0.14367775366561503 0.06734483005954586 -0.13870621807406489 0.14466146265100766
1634312000.0 -0.1063858136387831 0.1197106384941255 -0.14270591633230548 0.0708398165406647 -0.14231903410099914 0.070263818038345 -0.13953550795288341 0.14417375367617333
1635000000.0 -0.10655542190691655 0.12045646465849014 -0.1410735449010318 0.07383561220956644 -0.140788129195459 0.07317646300956725 -0.14008385102002527 0.14350179562893126
1635688000.0 -0.10692543587299859 0.12115476837625534 -0.1391108578615603 0.07666488665466815 -0.1393634580757176 0.07603282634791111 -0.1406615890993656 0.1428230614781979
1636375000.0 -0.10697904438114081 0.12175853634449915 -0.13726257652946855 0.07942502646519978 -0.13776810705711065 0.07898050250499494 -0.1405855704349954 0.14206841463468226
1637062000.0 -0.10710004240614072 0.12228179860926178 -0.135447335531872 0.08206994009597222 -0.13588558153155206 0.08174809353870478 -0.14055252705816107 0.14128619065248849
1637750000.0 -0.10730687902678968 0.12281651780794525 -0.13351143865353196 0.0847126656988497 -0.13404964124533852 0.08447056257173877 -0.14039228218437796 0.14031327557247322
1638438000.0 -0.10721367857500001 0.12332151598139497 -0.13138707853872775 0.08715677183585564 -0.13209975710574515 0.0870452042782997 -0.13981835410252907 0.13975116516796124
1639125000.0 -0.10733135055254059 0.12390761161245929 -0.12937132824995343 0.08960914206014046 -0.13014171139110764 0.08972062764260876 -0.1394180330241073 0.13930411653305888
1639812000.0 -0.10733086091621752 0.12434592199878641 -0.12730893195632514 0.09186610563691916 -0.12809627895115372 0.0921046900899985 -0.13888171492679033 0.1385856262678444
1640500000.0 -0.10719862330365608 0.12481089421090667 -0.12530779113981275 0.09417613258738128 -0.12592814207182293 0.09457625625273514 -0.13792993140774562 0.13812079113300207
1641188000.0 -0.1074192502053534 0.1252334156423093 -0.12340679744053762 0.09645388375010867 -0.12399910406933748 0.09694609600126322 -0.13723596538225746 0.13800232958960604
1641875000.0 -0.10739715181027594 0.12575178474869483 -0.12150313859304224 0.09858169715997117 -0.12179611681798748 0.0992438393491066 -0.13624211981363754 0.13772502850750776
1642562000.0 -0.10757742705828911 0.12613468468730554 -0.11943825115045029 0.10054500507915208 -0.11991905677997201 0.10138374383448885 -0.13564786926263842 0.13785418194361834
1643250000.0 -0.10783478054355468 0.12657609338309092 -0.11748230943677507 0.10270945769559921 -0.11778815419016685 0.10352670006260942 -0.13504526869505795 0.13809328254609454
1643938000.0 -0.10789961291149477 0.1271914448272637 -0.11553419393521083 0.10471926653054169 -0.1156967539470019 0.1057246526427674 -0.13441774532559683 0.1383664188157653
1644625000.0 -0.10823835297123782 0.12787776762567904 -0.1136794207624271 0.10684079519999368 -0.11365651585763008 0.10784229495407523 -0.13383277343580063 0.13875716167009844
1645312000.0 -0.10852924346304135 0.1285655165817412 -0.1116294431945726 0.10903740172299194 -0.11160317535658434 0.10998440978710654 -0.13324331521578928 0.1395762288466256
1646000000.0 -0.10880363629682893 0.12938229418158922 -0.10974068929889788 0.11111592824764337 -0.10963249381854465 0.11213771267965096 -0.13285687909060095 0.1403114541945338
1646688000.0 -0.10898822647694029 0.13024304851914703 -0.10771331088441229 0.11328005316638115 -0.10741479978790658 0.11437046679198994 -0.13276104722122203 0.14123364196045923
1647375000.0 -0.10942190972004472 0.13115973311422488 -0.10547288267102696 0.1153553285257379 -0.10529512506112662 0.11643359688774893 -0.13254675654415332 0.1421994520844989
1648062000.0 -0.10976442344226839 0.13219095510443676 -0.10338081263649203 0.11747623026070546 -0.10309210423850941 0.11870891541518887 -0.13262956053792155 0.14335154628669686
1648750000.0 -0.11000909684065541 0.13332565297598126 -0.10104172141456884 0.11975129758146497 -0.10068752666660259 0.12079614933032849 -0.13265666786018004 0.14461855888498049
1649438000.0 -0.11029344319409251 0.13442534001305054 -0.098914753769481 0.12184243370288929 -0.09835151464970919 0.12295091886453105 -0.13322161780778574 0.14576812732772187
1650125000.0 -0.11064954109341507 0.13556995929446236 -0.0965403155129723 0.12390604365154319 -0.0958636015389439 0.12504876589448602 -0.13371446405930656 0.14687167700899664
1650812000.0 -0.11099547806196741 0.13680103628183454 -0.09398838511682321 0.12613970056881096 -0.09336586320714776 0.12701130387584827 -0.13421022301317426 0.14793806938177043
1651500000.0 -0.11115275485799099 0.1381498989282658 -0.09148840925152946 0.1281671363301707 -0.09069864030815543 0.12917942340293034 -0.13487612930286477 0.1490415426122982
1652188000.0 -0.1115253126414734 0.1393835531273011 -0.08888845235061367 0.13013761735891344 -0.08793368660470172 0.13100577166745184 -0.13542134570463576 0.1501231867984412
1652875000.0 -0.11180472656058814 0.14037765530785973 -0.08621071962736829 0.13199767417797312 -0.0849799895130733 0.132798519264968 -0.13588963916356125 0.15101580854354615
1653562000.0 -0.11229571090135496 0.1416236647406723 -0.08360217846230822 0.13380468790653724 -0.08229341161572915 0.13450079422063688 -0.13667951404287268 0.15158838026208923
1654250000.0 -0.1125288538160331 0.14245856228880313 -0.08064343701326226 0.13550060323946173 -0.07927367748408996 0.13601317805854757 -0.13693236750194424 0.15252345006600096
1654938000.0 -0.11302971847285763 0.14353313833348363 -0.07774711416537575 0.1372294920370019 -0.07646778046201681 0.13732341031160666 -0.1375304360328152 0.15290133031340242
1655625000.0 -0.11352016995698712 0.14458209228765928 -0.07489072673498408 0.13868893572288835 -0.07348200278410318 0.13881195190730644 -0.13786505431991952 0.15325436375209456
1656312000.0 -0.1139637335647536 0.14556256566465214 -0.07190575136966182 0.14024563138040178 -0.07054332029753793 0.1400268882435329 -0.13812226605126832 0.1538007358824137
1657000000.0 -0.11473544981082061 0.14640173056835032 -0.06905210629104527 0.14156508402755968 -0.06778547012440518 0.14111849855596853 -0.13819313845470335 0.1538587330621396
1657688000.0 -0.11552987978603396 0.14737520406799615 -0.06599685691161902 0.1428507439785341 -0.06493430385090924 0.1422199574658195 -0.13806399195696628 0.15415411715301341
1658375000.0 -0.11622858815293052 0.14818520314275108 -0.0628794436364915 0.14410070130526442 -0.06207336164408967 0.1433004083680781 -0.13816932937122312 0.15440806775351898
1659062000.0 -0.11715135110439455 0.1491594980580672 -0.059941834925971216 0.1452135788860145 -0.05926324200994661 0.14423996045892978 -0.13768741506448828 0.15465826085119638
1659750000.0 -0.11804212380745573 0.15010384560898088 -0.05686496225162809 0.14622016111040115 -0.05642569850593094 0.14522972120033906 -0.1373386154412663 0.1550369565287904
1660438000.0 -0.11884313374790317 0.15115197610678155 -0.0537768432293205 0.14726281345773598 -0.0536965202205059 0.14614665743822491 -0.1369384991072772 0.1553568728182177
1661125000.0 -0.11978403107068104 0.15220525044495598 -0.050526038218681645 0.14812634998700963 -0.05098323092450009 0.1472041902053969 -0.1359926358125338 0.15593168006852454
1661812000.0 -0.12064443381944698 0.15326178300873944 -0.04757246786262589 0.1489611292053059 -0.04814187740778374 0.1481966520091244 -0.13540181474904855 0.15653657065470977
1662500000.0 -0.12133711904246344 0.15441336860290583 -0.044574349590361814 0.1497721012885644 -0.045366092367566724 0.14919435349020885 -0.13460184192991548 0.15722702965849655
1663188000.0 -0.12222733914830161 0.15552629381586267 -0.04155701188448899 0.15054104998017956 -0.04261739056151601 0.15006726822356262 -0.13381513834525197 0.15820782064943703
1663875000.0 -0.12282103107956743 0.15658387216568806 -0.03856892685088468 0.1511690012772081 -0.03967143619736311 0.1509885737064786 -0.1330029592231006 0.15933082530383777
1664562000.0 -0.12334277809110633 0.15773398503589195 -0.035654926865368614 0.15170142334327336 -0.03665045371704657 0.15199680072618887 -0.13204274833853596 0.16078218663878283
1665250000.0 -0.12396726126284718 0.1589213090557115 -0.032580461443003625 0.15215854993980668 -0.033694155987757185 0.1528520176875595 -0.13110774930626481 0.16231649355241323
1665938000.0 -0.12434108192526902 0.1599581371539636 -0.02965968873354621 0.15278551712797106 -0.030560389696870367 0.15353374812085596 -0.13037234339555884 0.16423039545596335
1666625000.0 -0.12475267735432594 0.16101831150498164 -0.02658248193587847 0.1530813057342348 -0.02744032811942641 0.15440569016723682 -0.12962961006939602 0.16624748071220316
1667312000.0 -0.1250784944911278 0.16218215132367642 -0.02358768212976057 0.15349687268113993 -0.024150546962517064 0.15499936108136889 -0.12894349397141786 0.16854425614831522
1668000000.0 -0.12537321508172133 0.16301401234682975 -0.020726975957401153 0.15375762251383207 -0.020898280775161877 0.1555148095324707 -0.12843905952103155 0.17097970944700555
1668688000.0 -0.1254424972805349 0.16404915057664587 -0.017721187163325332 0.15402384531140687 -0.0175086597099712 0.15587983818243842 -0.12790842745235387 0.17366707941251044
1669375000.0 -0.12562957752030782 0.16492930274866727 -0.0149412331252652 0.15427376478184826 -0.014252521424965562 0.1562051267279188 -0.12778679642476276 0.17632194609208035
1670062000.0 -0.1256307375937436 0.1659586497095161 -0.011677527174329998 0.15438001948987976 -0.01073397366103149 0.15626240867074798 -0.12752868392938807 0.17936944784663605
1670750000.0 -0.12587020727162568 0.16696573949397164 -0.008800157214807687 0.15464074367678213 -0.007515341988889187 0.15632345100417544 -0.12754910011592988 0.18251299530370932
1671438000.0 -0.1261557827412224 0.16793405112086993 -0.005969795205040686 0.1548563707261023 -0.004332087023434023 0.1562607064962698 -0.1279706874738686 0.185240598138323
1672125000.0 -0.1261292537021281 0.1688837434750122 -0.0028614652259322825 0.1548108997529956 -0.001001609245178388 0.15593248926719616 -0.1281243234191722 0.18813124687296043
1672812000.0 -0.1263216392227917 0.17011024523248547 0.0001112239975290218 0.1550314000072613 0.002123592587521726 0.15577839656129064 -0.12858850397498936 0.1911521433680119
1673500000.0 -0.12651802638738466 0.1712508942391791 0.003021280041064409 0.1551057291851841 0.005211999041596534 0.15550864280941246 -0.12917443342998045 0.1941601112494481
1674188000.0 -0.12672073410566204 0.17247456505758502 0.005995415586476284 0.15514135094140974 0.008229397858564538 0.1551277438165392 -0.12999343957186743 0.1967263089650358
1674875000.0 -0.12677486594292378 0.17377501768088124 0.009134646484652701 0.15509341611526428 0.011176680664002257 0.1546821319986546 -0.1308006686064232 0.19928154164293244
1675562000.0 -0.12698231110959976 0.1752294263380884 0.012173953122382414 0.1550356898054633 0.014076187326686156 0.15423062013951172 -0.1317156600161452 0.2018058890277651
1676250000.0 -0.1270510515981094 0.17680671178240628 0.015139255476743711 0.154967541789324 0.01684608060334948 0.15373378046717362 -0.1326732307401483 0.20409626044224133
1676938000.0 -0.12715299549053005 0.17835521327957543 0.01831342700169997 0.1548369164723929 0.01960837944987349 0.15331861815399875 -0.13375330338495967 0.20622794847988335
1677625000.0 -0.12708943514610938 0.1801987077146614 0.02138719076826547 0.15438480494017057 0.022449904347201264 0.15297092259044964 -0.1348186742017573 0.20793857509311917
1678312000.0 -0.1271106316681558 0.18180182566931288 0.024565143267907253 0.1541450389308198 0.025225001710175988 0.15241646564337066 -0.1357416917653183 0.2098181226096789
1679000000.0 -0.12709411821570962 0.18366983803797893 0.02766199309471471 0.15353543536264885 0.0280492906286978 0.1519600600090283 -0.13647316931281925 0.2115482015942632
1679688000.0 -0.12697070959438994 0.18547228064773955 0.030930073937558783 0.15299355984052912 0.030808226701224267 0.15165528394757424 -0.13759725636168266 0.21288686931528103
1680375000.0 -0.12681325976858612 0.18721107088234967 0.034101730255200705 0.15230811936389765 0.03376389660077315 0.15109225131231804 -0.13844704332484234 0.21435170852323904
1681062000.0 -0.12656764484146338 0.18908134913757949 0.03733343878282068 0.15148064226395744 0.03680410915162054 0.1505358201454783 -0.1389366961408461 0.21545021916334067
1681750000.0 -0.12653181721390278 0.19085695904847907 0.04039916563441 0.15060331828239693 0.03966558948291364 0.15001382271113942 -0.13978228700555823 0.2166192617412874
1682438000.0 -0.1262163264999491 0.192746537711873 0.04362025030727663 0.14964115614509793 0.04279974913336122 0.14929899372249922 -0.1403123341663263 0.21778018905081864
1683125000.0 -0.12618665092493153 0.19447118767799332 0.04668427319702683 0.14847762894718197 0.04572439941113629 0.14843171126186103 -0.14031514487426974 0.21834717584239038
1683812000.0 -0.12589497875212288 0.19614920163073699 0.04973619964489926 0.1472968927478117 0.048921038790232 0.14745890564628508 -0.14049626757288922 0.219525008225452
1684500000.0 -0.12574974840893194 0.19779848482825552 0.05264107281667889 0.14600597849639801 0.051977911582531344 0.146515368567915 -0.14058491311909238 0.2205198177451999
1685188000.0 -0.12554193540822264 0.19932545569167948 0.0555623367735099 0.1445684356830527 0.055005662570520884 0.14540601921156474 -0.14001797907212418 0.2216657896078028
1685875000.0 -0.12559608723368768 0.20111915901401142 0.05832039070573588 0.1432351127248057 0.058063815805510385 0.14417670750427197 -0.13974917199204762 0.2228966247284173
1686562000.0 -0.12547269595674507 0.20262648839257363 0.06110889403407597 0.14186914293239442 0.060893636515005276 0.142709870649971 -0.13902308281746198 0.22399873771431547
1687250000.0 -0.12522727098539202 0.2042822606020742 0.06370296300724956 0.14015734611763958 0.06405846515754336 0.141153065024522 -0.13831187440163345 0.22523825239378137
1687938000.0 -0.1251570286619139 0.20592222058719645 0.06639006381116949 0.13868259165815627 0.06691784052284548 0.13964572952426194 -0.13736678814628714 0.226821402202908
1688625000.0 -0.12511561381206346 0.2073966257631681 0.0690520721548529 0.13705796670925124 0.06973478317708813 0.13806818431729395 -0.13629550804578813 0.2285110448969791
1689312000.0 -0.12498336323848806 0.20898370189424728 0.07146543393536768 0.13564618420823304 0.07239773727542105 0.1362671304256228 -0.13513109601803094 0.230221151923078
1690000000.0 -0.12491642782818145 0.21063261808962702 0.07380719254148967 0.1340020969550917 0.07496929775545026 0.13461302869107344 -0.13438108435297916 0.23209551354072178
1690688000.0 -0.12464713720643807 0.21240790917575997 0.0763250014066971 0.13247870356462824 0.07752548678110156 0.1328145466069147 -0.1330930787330251 0.23437192724883318
1691375000.0 -0.12440929969115669 0.2140621990189139 0.0786002097253465 0.13080827680832052 0.07993003128706878 0.13105902786453774 -0.132340464970596 0.23664530642103873
1692062000.0 -0.12403884317875068 0.21559584348087735 0.08116985049589166 0.12916686177056919 0.08245833417262066 0.12922406122376395 -0.1314122170304659 0.23921868251234232
1692750000.0 -0.12369894971685377 0.21725258903156355 0.08348579926928722 0.12748586290406957 0.08461726717461024 0.12744303239056812 -0.13041291979888056 0.2413369889348768
1693438000.0 -0.12325341923320281 0.2188603270585501 0.08587430915265483 0.12586944102897446 0.08693370553983056 0.12559537802769732 -0.12957648135392888 0.24362230234013113
1694125000.0 -0.12277589427115816 0.22059879937946494 0.08819463300046532 0.12411758749721474 0.08927523354722436 0.1237066870832797 -0.1288226275098681 0.24599236715355371
1694812000.0 -0.1220138813189547 0.2220725462426747 0.09065319095537226 0.1224782915168219 0.09148816412261937 0.12195398252517362 -0.12848012858588972 0.2485308359589129
1695500000.0 -0.12136177271295281 0.223722727425269 0.09290858825609045 0.12065067239318589 0.09365630885246624 0.1200693890032091 -0.1280831123694928 0.2507234200398604
1696188000.0 -0.1207282312829254 0.22542951823697277 0.09527679599023411 0.11890011000252494 0.09581439841677761 0.11820332501636152 -0.12771883432003703 0.2527658363781944
1696875000.0 -0.11970889500952227 0.22688022939088312 0.09745661884865364 0.11700704536364955 0.09801266102922546 0.11638085238569448 -0.12763914065722806 0.2552574383220807
1697562000.0 -0.11892492108323821 0.22841827691084007 0.0997805358539608 0.11505761643270103 0.10015047027209907 0.11452570884875209 -0.1278012586643643 0.2570307592161191
1698250000.0 -0.11789009996480865 0.22996682767052276 0.10194347410940886 0.11308861249855269 0.10235899167096446 0.11270953370095302 -0.12806653492480188 0.25891374524689886
1698938000.0 -0.11682271240832055 0.23152072272122368 0.10411857030117264 0.11097501490299673 0.10450210882848646 0.11049497011500302 -0.12814453536998563 0.2603384543354745
1699625000.0 -0.11594739110708972 0.2330604727487998 0.10626115331022083 0.10895871216244588 0.10658212024946008 0.1084697257472515 -0.12813874433563852 0.2617969069701158
1700312000.0 -0.11458866819183773 0.23449163122441044 0.10830624417015543 0.10680992026827078 0.10863257195775573 0.10638691044239618 -0.12837453982580943 0.26325382415604853
1701000000.0 -0.11344497087757256 0.23624156198363927 0.11055598217012884 0.10446597610683463 0.11069709958859845 0.10423428579928533 -0.12812903544178217 0.2641847705103963
1701688000.0 -0.11228224536936743 0.23778609622461566 0.11259732166091246 0.10225351026789942 0.11280695623424428 0.10207014070713032 -0.1285750575369657 0.26511750168180626
1702375000.0 -0.11104566308159365 0.2392901506785594 0.11448196401089256 0.10006659085168738 0.11469061123540696 0.09981502300225208 -0.128216370355823 0.265691686094897
1703062000.0 -0.10985713675287868 0.24097633803675333 0.11634255449222604 0.09768097769618243 0.11659954011927427 0.09739222209182014 -0.12779274314392758 0.26616770544826057
1703750000.0 -0.10847294327023362 0.2428359976377746 0.1181844775054664 0.09530042725232929 0.11852958573554655 0.09496382729369766 -0.12742885720351727 0.26669416436012017
1704438000.0 -0.10721537731946697 0.24439063243703663 0.11983071635237785 0.09280332277691886 0.12035979765830465 0.0925792207122997 -0.1267424535014497 0.2668179004859975
1705125000.0 -0.10592433319837721 0.24614918094328542 0.12169287801662573 0.09030150166319707 0.122110689376344 0.09004354516196622 -0.12552757112551668 0.2667184811026224
1705812000.0 -0.10465264908857823 0.24806095731242167 0.12319513996872077 0.08776411340362092 0.12369982319332105 0.08752375536575652 -0.12446230206286121 0.26665164168168737
1706500000.0 -0.10332755497845628 0.24968044678887902 0.12480075206510213 0.08531570070324451 0.12527998505074775 0.08499336595228144 -0.12289467974952639 0.2669922775330176
1707188000.0 -0.10189432207550983 0.25155457697651146 0.12630666808525273 0.08262105987874259 0.12682044235780499 0.08238502867648162 -0.12086434907979116 0.2669457623001411
1707875000.0 -0.1006043592710997 0.2533607512826586 0.12780332126329555 0.0801606145286229 0.1281873739974341 0.07974489740027715 -0.11876475019630818 0.2671464273482161
1708562000.0 -0.0991845849328403 0.2552851137060811 0.12930287887335482 0.07751341031128602 0.12957864465729643 0.07711669495659684 -0.11642269025104464 0.26731344153010317
1709250000.0 -0.09783786058152807 0.25723756384720436 0.13067812883393964 0.07484009296380872 0.13099482989771521 0.07447601358826145 -0.11371265821075681 0.267619354319556
1709938000.0 -0.09643307400682372 0.2590466803478585 0.13195229230403122 0.07229045664183706 0.1322522523182093 0.07181181933889412 -0.11059535109941376 0.2682259912929163
1710625000.0 -0.09507567037953692 0.2609259302043854 0.13309735321400878 0.06952738873684211 0.13346713103787897 0.06911774544261821 -0.10755287367585378 0.2689026593786498
1711312000.0 -0.0936531739556875 0.26278536534266544 0.1344533952017605 0.06686295935636374 0.13462836117408591 0.06637580645500135 -0.1041815228551736 0.26988767666404484
1712000000.0 -0.09219850075409011 0.2647385930757744 0.13554704316692523 0.06425027116570525 0.13568155321987374 0.06368047119656091 -0.10128528304647273 0.2711477111671171
1712688000.0 -0.09104786979775756 0.2666749555318678 0.13657484365903452 0.061477283838590954 0.13673113515513485 0.06097822305359035 -0.09802014525121704 0.27231354616516357
1713375000.0 -0.08952592243013967 0.2684865818486715 0.13756937849613793 0.05864167153203947 0.1378182065916973 0.05841012301519841 -0.09465113280760984 0.2740315160704643
1714062000.0 -0.08821918495463923 0.27031662880028834 0.1387218852723269 0.05612463616907411 0.13873867198786685 0.05555745691316593 -0.09138212911889917 0.27582243551350255
1714750000.0 -0.0866727883674621 0.27210358358377135 0.13963393165424215 0.0531713893886332 0.13951125776522275 0.052796521557373376 -0.08798266755962239 0.27793988467240816
1715438000.0 -0.0855390277786919 0.2738348537164495 0.14040864655855462 0.050407228330542904 0.1404735832426103 0.05010718594477423 -0.08499103102383603 0.28018054699081285
1716125000.0 -0.08389576106965398 0.27561361711040266 0.1412305111753972 0.04759609407897676 0.1412559344072706 0.04726183920579523 -0.08199931441591383 0.2827994212865342
1716812000.0 -0.08243841565971693 0.277236740678166 0.14197215748723632 0.04475824768603815 0.14194958826713816 0.04454025125901061 -0.07921477802992054 0.2852891634130189
1717500000.0 -0.08119089918126944 0.2789340526006281 0.14253596904691165 0.04196298519491627 0.14272213352030505 0.041874623784668163 -0.07686946008516675 0.28798259960805883
1718188000.0 -0.07950023251713786 0.2804589676600648 0.14320983163747295 0.03908282614173379 0.14334077238162155 0.0390523494500598 -0.07480290374676461 0.2904493624533
1718875000.0 -0.0778686267594237 0.28198712480739513 0.14383299988171386 0.03639463134366615 0.14395049660375336 0.03633733313101875 -0.07265602178884566 0.29324767625430054
1719562000.0 -0.07631062395899452 0.28340885114591285 0.1443777759606326 0.033404160720432174 0.1444939622460439 0.03362877366805937 -0.07102912678033002 0.29574524791132867
1720250000.0 -0.07466402626373303 0.2850075340769636 0.1447282368191832 0.030673234140413324 0.14502245346800102 0.03070577366099485 -0.06925404157674842 0.2980214802634184
1720938000.0 -0.07309352118215098 0.28650446277800073 0.14518762955779346 0.027845025185201534 0.14557861149631723 0.028061297645447267 -0.06815516774245732 0.3005174738341991
1721625000.0 -0.07140876485045444 0.2878407122770545 0.1456054361722182 0.025210820278735273 0.14598596433246613 0.025095343028440152 -0.06653807209248425 0.30291915075308373
1722312000.0 -0.0696387715252768 0.28921748287050986 0.14591231774962252 0.022225432442335703 0.14645542339189607 0.02223044680130854 -0.06524084939865882 0.30488123300525727
1723000000.0 -0.06796770921112452 0.2905804651895181 0.14607516551375901 0.019433585712306484 0.14678043651334707 0.01946539377918354 -0.0641573864570401 0.3065106996787131
1723688000.0 -0.06617692260030936 0.29182199722766644 0.14637376411849423 0.016551572228301656 0.14709307654174278 0.016552844126660807 -0.06297286704068912 0.30805238010029634
1724375000.0 -0.06433667215411826 0.29317617504843246 0.1464332121006718 0.013902261835214537 0.1473032815884318 0.013646191725092878 -0.0619309989395262 0.3092401361003461
1725062000.0 -0.06242504424324761 0.29449951838696714 0.14664168351110266 0.011224140312992468 0.1475104391022151 0.010750414594790274 -0.06064395201346332 0.3104842315533082
1725750000.0 -0.0605925985461899 0.2958500512116597 0.14667511333577363 0.008269243106917528 0.14767056500196846 0.007948112737081351 -0.05928268030388354 0.3108921355370714
1726438000.0 -0.05865998466941033 0.29682060134092225 0.14676702870191538 0.005593579783516215 0.1475456621393786 0.005038301129175775 -0.05776294148230849 0.31180715403153797
1727125000.0 -0.05669189013794683 0.2983773637825193 0.14670214793963263 0.0028824756114627288 0.1476042135638146 0.002060847520242676 -0.05607536852125499 0.31225648714256254
1727812000.0 -0.05470234151852852 0.2995044469503786 0.1466845890028042 0.00021063932013916235 0.1474961994430843 -0.0008145605384238696 -0.05408923551473833 0.3126867961104593
1728500000.0 -0.05250180108136254 0.3009621502220488 0.14648887972359728 -0.0025430519364887344 0.14716553021367304 -0.00394223958194202 -0.05187834085510634 0.3125780653246674
1729188000.0 -0.050579928554620665 0.3024133562711345 0.14644257038632327 -0.00539002280098341 0.14685844649913168 -0.006735772370922981 -0.049759014053559265 0.312828381689499
1729875000.0 -0.048115472263455715 0.303614472072914 0.14610879381428307 -0.008102378524567144 0.14649825377263812 -0.009552297781319753 -0.04728653983771794 0.31294735669243295
1730562000.0 -0.04611472358093989 0.3048980021927746 0.14588961860780267 -0.010791922042875338 0.14607786639333556 -0.012300149189899346 -0.04440690732134271 0.31321279989697653
1731250000.0 -0.04370793147636676 0.3063547580054062 0.14568095546922133 -0.013714030626092489 0.145602533732406 -0.015150479399500554 -0.041295461995956274 0.31352901741677336
1731938000.0 -0.04148378459352837 0.30767008514685285 0.14538593421949658 -0.016388140803291214 0.14507344328992802 -0.017918455404298334 -0.03827986027048002 0.314312961947599
1732625000.0 -0.038926614825622805 0.30907146130866753 0.14508233189670025 -0.019357219891465282 0.14450834838200052 -0.020535712731644062 -0.035350102003276845 0.31482423070097204
1733312000.0 -0.03683374013863454 0.3102746737332798 0.1446566770772448 -0.022141032483622862 0.14390552396341308 -0.023111784047213705 -0.031959605078691125 0.31563997470303784
1734000000.0 -0.03462691441156788 0.3113891231297546 0.14429014228895254 -0.024824730936801896 0.14325970247825023 -0.025722876739791217 -0.028724295675690216 0.31675339520082246
1734688000.0 -0.03200961540091072 0.3127575109627315 0.14385198137385702 -0.02775638098787467 0.14272269973465251 -0.0283907046298747 -0.025603565725631768 0.3179253420808968
1735375000.0 -0.029667731737437794 0.31402877914800803 0.14328219101268583 -0.03052558662334587 0.1421206897726388 -0.03090650435777527 -0.02237511672759401 0.3194394150220173
1736062000.0 -0.027433352271289724 0.3152133986438782 0.14257032668312525 -0.03326211379078676 0.14157487574130845 -0.03340053313332516 -0.019346214635315214 0.3213192456046587
1736750000.0 -0.025174691158698168 0.316492170986384 0.1419820822170096 -0.03610311110638108 0.14098234838486345 -0.03591331904941042 -0.01649981155799423 0.32317948510094197
1737438000.0 -0.02291128124578117 0.31744446053223047 0.1410916911426115 -0.038889726589000494 0.14033143761808134 -0.03845907575265285 -0.013945872890099126 0.3253947119022591
1738125000.0 -0.02064846642303967 0.31853857579777384 0.14042365480700897 -0.04154479962223234 0.13967657046086118 -0.04108315221826031 -0.011688889927619017 0.32757168628793404
1738812000.0 -0.01847411837438327 0.3197854787350805 0.13940598522941997 -0.04434159194574923 0.13907382611814112 -0.043723869262180186 -0.009115888210167277 0.32972832656897744
1739500000.0 -0.01648576489563603 0.3207559240849666 0.13838908950693934 -0.04714285563071353 0.13840570371033564 -0.046336367550274836 -0.0072227720176322 0.33204896104063264
1740188000.0 -0.014178720162166505 0.32186613269167924 0.1375281842808477 -0.04974342837109962 0.13742518587411962 -0.049081717875202546 -0.0051881382459798495 0.3347058549056019
1740875000.0 -0.012216439969301324 0.322950501831345 0.13629989136284462 -0.05234399320004341 0.13652942340686913 -0.05170506759210453 -0.004121867382053048 0.3366278606873193
1741562000.0 -0.010048659000004524 0.3239478826980754 0.13506561526126618 -0.05500577247777498 0.13567445527751104 -0.05440239324362159 -0.002869043258204639 0.3388876209278079
1742250000.0 -0.008063320284754783 0.3250457922908208 0.13408280329124903 -0.057546729673036534 0.13472933734648782 -0.05714879640445992 -0.0018894373850635022 0.3412770084606003
1742938000.0 -0.005836406145237133 0.3260297344897851 0.13258665183188917 -0.06005164663098526 0.13351500162898344 -0.05980123939232142 -0.0009909433947807328 0.34253913691983395
1743625000.0 -0.003807837169924168 0.3269808354418699 0.1313659654790054 -0.062353230651740525 0.13239000448203128 -0.062364141795830615 -0.0007120491008569098 0.34442159851957627
1744312000.0 -0.0017786583012137263 0.327779032805773 0.1300221911632031 -0.06470905215905884 0.13110886103625252 -0.06494668146994373 -0.0001136496144394675 0.3460555037339667
1745000000.0 0.00033266310263287716 0.32856864533312014 0.12855331549931617 -0.06697318813573631 0.1296868820721097 -0.06754363863279392 0.00042419855897892167 0.3465520925713335
1745688000.0 0.0024133349057573394 0.32950996789455206 0.12723733221909628 -0.06914170018213524 0.1283227077425494 -0.06993892691540918 0.0007372880943069665 0.34718416928882767
1746375000.0 0.004490895816606224 0.3299556584521081 0.12577505979976086 -0.07121841675205298 0.12670563648259373 -0.07241698481395457 0.001131923232656577 0.3472889473348849
1747062000.0 0.006838768245673645 0.33045854512625567 0.12424497412262318 -0.07340902894447537 0.1252006418314125 -0.0745981162035286 0.0014698971819716714 0.3469822745453896
1747750000.0 0.008969223920693381 0.33131852569831266 0.12294911524243496 -0.07540411716609176 0.12368183871038553 -0.07700699785191421 0.0021789221128117806 0.34620923035202744
1748438000.0 0.011130254019758782 0.33143549449527104 0.12157186212104935 -0.07735472733000208 0.12192732208302537 -0.07901907237209463 0.002989833287572752 0.3454576869335241
1749125000.0 0.013168300322393543 0.33168541957704545 0.12007737735201746 -0.07935058312613834 0.12031182858738756 -0.08103653367379146 0.0036521554827421416 0.34429357602285554
1749812000.0 0.015388375271714117 0.33223875750324827 0.11888806294307502 -0.08132369814140329 0.1186680328457425 -0.08314513416403777 0.004717017459102663 0.34282021284994946
1750500000.0 0.017579002031912053 0.3322148864978271 0.11729107990555895 -0.08338542749506246 0.11692827482509766 -0.08502395453829815 0.006652693896387372 0.3416812748914724
1751188000.0 0.019777729165266007 0.33232111375068607 0.11603588945444075 -0.08544989810027086 0.1153685701372231 -0.08697666674569815 0.008345527156825754 0.34034492334115013
1751875000.0 0.022178633686537507 0.33237891267592157 0.11454676693517954 -0.08740116302069557 0.11355890197074822 -0.0889146003083575 0.010259150832554877 0.3381615949930652
1752562000.0 0.024154120324493274 0.3322749087592106 0.11307717081677071 -0.08944699250737904 0.11187791474489205 -0.0907328692299085 0.012548318223177748 0.3364267120279297
1753250000.0 0.02635695813277125 0.332256763625342 0.11146261991785793 -0.09174010984884293 0.11035049676580136 -0.0926513020435603 0.015186426574766074 0.33470075153124984
1753938000.0 0.028739609966587695 0.33193769007342505 0.10999047820423187 -0.09386538511453012 0.10867196904404343 -0.09464644006729374 0.01768191884305605 0.33351247807530426
1754625000.0 0.03105838801338405 0.3317330707251365 0.10830868014504473 -0.09601950698959545 0.10697875310327148 -0.0966346802811098 0.020590716363740436 0.33185581344852977
1755312000.0 0.03310713369415308 0.3316201582800337 0.106653248096785 -0.09813630616784108 0.10533025171039254 -0.09854849031998027 0.023458944512483107 0.33078399480343285
1756000000.0 0.03542138183361111 0.33155231026650667 0.10481900446039297 -0.10040690804277762 0.10366376804002231 -0.10050475603639103 0.026597859147673052 0.32954586239765127
1756688000.0 0.03765581398864176 0.3313092306189051 0.10282309338475792 -0.10251781800490681 0.10172768588630339 -0.10257545044826782 0.02998353098046626 0.328515529889464
1757375000.0 0.0400417819628744 0.3310826112070627 0.10073392787722689 -0.10476703163790754 0.0998595043153762 -0.10456318283590918 0.03313992233877281 0.3279869909716003
1758062000.0 0.04248033565461947 0.3309320249254514 0.09876411879479328 -0.10679794678400838 0.09791097881194252 -0.1065808886927998 0.03636250627589826 0.3273736673023195
1758750000.0 0.04473862804049003 0.33079244104889416 0.09652305828954942 -0.10883583778007261 0.09590314875076182 -0.1085655325563123 0.03938645946284023 0.3269785401209707
1759438000.0 0.04722513351094941 0.33075855561295686 0.09422335421257948 -0.11082956709314057 0.09380808645380186 -0.11051911825169146 0.042690097850994146 0.3267317291810634
1760125000.0 0.04953938687910346 0.3306082614391657 0.09187519730162856 -0.1127246537815613 0.09147173811771243 -0.11243442005469298 0.045734267805890266 0.32663409637548074
1760812000.0 0.052127530769705034 0.3303692315960464 0.08947757727778709 -0.11447283397817148 0.089206419792426 -0.1142610067184319 0.048831519064133584 0.32677016090185873
1761500000.0 0.054630846359698636 0.3303402071324663 0.08693763191124824 -0.11626357213848408 0.0867143739424902 -0.11602838159446936 0.051365444767468696 0.3269212489671329
1762188000.0 0.057023000066322806 0.3300646217816743 0.08453140549910972 -0.11790722528687221 0.08441239552339475 -0.1176804495707877 0.05390886785945894 0.32723390326500734
1762875000.0 0.05970813735608432 0.3299511152721586 0.082097293158911 -0.11942529704360882 0.08188855757303247 -0.11927307707784755 0.05626260802311346 0.32759211275901756
1763562000.0 0.0620554083526818 0.3295732294358722 0.07933162446538518 -0.12086043310656469 0.07941509557814479 -0.12078795287940595 0.058963995659847536 0.3280280450123889
1764250000.0 0.06471002173984265 0.3290880522641599 0.07676243744297508 -0.12230474148927845 0.07694823008327527 -0.12208473576938095 0.06076241212941357 0.32810564092567734
1764938000.0 0.06682226278802503 0.3287887578719062 0.07424191888615067 -0.12339166615476564 0.07452725065191149 -0.1233300817264473 0.06231234513738259 0.3283268720107346
1765625000.0 0.0692152885539095 0.32859685823347135 0.07177682192891971 -0.12477006636678116 0.07209934942585759 -0.1246650279501359 0.06374030821090382 0.32806738079118536
1766312000.0 0.07120876599617391 0.3280415488290536 0.06936237211043829 -0.12572080056255364 0.06969329170097152 -0.12580656927806286 0.06515212636979392 0.3280397740779849
1767000000.0 0.073376785965971 0.3277551210088834 0.06701455667284292 -0.12696108954626076 0.06724497773422239 -0.127064540268558 0.06627871563946265 0.32756384739368133
1767688000.0 0.07552160979275138 0.3272390898086984 0.06457591915078323 -0.12790501784596148 0.06491607380984371 -0.12816304112644178 0.06744260785712311 0.32702655267340164
1768375000.0 0.07751392974646489 0.3267696320752874 0.06218818421794049 -0.12888100887889462 0.06264628378094186 -0.12930018590743247 0.06852687708186708 0.3261127866517815
1769062000.0 0.07935244324647016 0.3260638761532343 0.059784648800737604 -0.1299278002042123 0.0602212292776875 -0.13041231109381868 0.06988908512932673 0.3247000074422239
1769750000.0 0.0814537503923891 0.32556789498074235 0.05749178755543584 -0.13079650016856162 0.05790420716109523 -0.13153281139079853 0.07094265298039723 0.3234838682792756
1770438000.0 0.08309562426589825 0.3249854375920432 0.05526347125669544 -0.13182555515208386 0.05561952605155449 -0.13260277170929224 0.07200971594059806 0.32194486614328205
1771125000.0 0.08472089671743044 0.32446472388242287 0.05303148222681055 -0.13279172008049747 0.05331561405317803 -0.1338862677245929 0.07348923907369766 0.32024277600646067
1771812000.0 0.08668386406582385 0.32386608239015835 0.05074380953910872 -0.13388166553264524 0.050867356790938685 -0.13484800880406017 0.0749110063443053 0.31832574400026614
1772500000.0 0.08815070549969033 0.32330491778117154 0.048372342986842384 -0.13470826958976925 0.048535264862936425 -0.13601085530008497 0.07640178061480772 0.3163800890852971
1773188000.0 0.09011718541201355 0.32254362057763464 0.04607790255233374 -0.13577099949668184 0.04581180485559044 -0.13699401905492525 0.07828669047187577 0.3145559606285113
1773875000.0 0.09164765550047768 0.3220698611614296 0.0437388030608492 -0.13673026678415123 0.043279971239671734 -0.13807126027275962 0.08015752672994912 0.31272694880340013
1774562000.0 0.09339886696590233 0.32122239489052035 0.04120756110575257 -0.1377480099160184 0.0406126757343522 -0.13895646760123595 0.08247834902165337 0.3109649352600048
1775250000.0 0.09509856586441373 0.3204118276013054 0.03882930738825586 -0.13876697635474494 0.03777377441706027 -0.1398749334506293 0.0846817320966248 0.3091620209700207
1775938000.0 0.09693339568411422 0.31952254765088867 0.03613936940940983 -0.13952347040252464 0.0349678450917345 -0.14063487848312398 0.0868112882750329 0.3071321835872248
1776625000.0 0.09847308640347624 0.31867670348825883 0.03336803896375691 -0.14044680258929282 0.0321702958157046 -0.14136242454868048 0.08967720044991508 0.30577075330819736
1777312000.0 0.10041265264856848 0.3179735038871246 0.030757762661649753 -0.141396615777051 0.02918379092347219 -0.1419324542092045 0.09205361449248926 0.3042544182872818
1778000000.0 0.10190969419438932 0.31678651808847447 0.027968340184428227 -0.1421108574994203 0.0262791156229823 -0.14251481642324718 0.09543445237362384 0.3029602834966671
1778688000.0 0.1036710611293992 0.31588565124677054 0.025159764985058494 -0.14286242774949834 0.023492866766712125 -0.1429683844308036 0.0979387889779702 0.30204584938596696
1779375000.0 0.10555836192159722 0.31480671053057774 0.022420805189709493 -0.14336126654700465 0.0205383282954588 -0.14328805339198494 0.10095066606583765 0.300818187288243
1780062000.0 0.10715765801412128 0.3133301451516717 0.019409979345867107 -0.14386813292709616 0.0178295851778695 -0.1435517654069094 0.10381591056201589 0.3001528754610837
1780750000.0 0.10895866937821644 0.31213692543989696 0.01637114343949194 -0.14425441737901656 0.014935333000232722 -0.14369477143850296 0.10696661182932585 0.2996308179150565
1781438000.0 0.11086549670559898 0.3109349739970168 0.01347383119504475 -0.14463567200201907 0.012179230049745993 -0.1438771730762681 0.10970166443690695 0.29926350920573846
1782125000.0 0.11250539000618417 0.30971500948283986 0.010436787063276597 -0.14485903541767536 0.009499550995463216 -0.14397230016103701 0.11258144006681974 0.2992277294368864
1782812000.0 0.11407889422514586 0.3083947854847116 0.007467735815141051 -0.14502986602938442 0.006775149049547769 -0.14406097391155828 0.11522447062745961 0.2992952637887098
1783500000.0 0.11548996577004085 0.3070155130668719 0.0045623220428836755 -0.14508031233501564 0.004202409286666314 -0.14401999281011396 0.1176730951161199 0.29945060465235834
1784188000.0 0.117237790903906 0.3057801178806832 0.0016746546495238063 -0.1450677784870304 0.0015658390435671725 -0.14401145372073615 0.11998560048880413 0.2996466779816892
1784875000.0 0.1187528122034663 0.30453757249888835 -0.0012335017659747078 -0.1448927139129695 -0.0011049877254059224 -0.14394843438444704 0.1220940865870592 0.3002381459545676
1785562000.0 0.12031517872989268 0.3032333359504663 -0.004116913744590141 -0.14484345544723626 -0.0037593230773735734 -0.14392550291454134 0.12391154060131769 0.3007546359211822
1786250000.0 0.12204486125185922 0.3020270756354722 -0.006994401463157994 -0.14463974179465827 -0.006444999826972769 -0.1439721021956504 0.12556909219504872 0.3011913927188434
1786938000.0 0.12363182733803173 0.3007797418774974 -0.009773389727262626 -0.14425800466941072 -0.009144337559498698 -0.14395266901534293 0.12680016245579337 0.3020080999600211
1787625000.0 0.12526867540218134 0.2998723242031962 -0.012573836381440578 -0.144078430026217 -0.011843418317640181 -0.14385837996687253 0.12797878668352883 0.3026068124217215
1788312000.0 0.12681017609908107 0.298713525971995 -0.015351928720476945 -0.14364250857915095 -0.014704217698480838 -0.14384576653335643 0.12864587392847696 0.3030945978654419
1789000000.0 0.1285512976582671 0.2976008935542873 -0.01813805930692649 -0.1432872870182866 -0.017496113414486317 -0.1436694545549325 0.12937622697762574 0.3032749013820669
1789688000.0 0.13041008143032445 0.2965142230436655 -0.020854512256756743 -0.14294391671862963 -0.02051596467620651 -0.1434246062435853 0.1298486864465646 0.3034182750005936
1790375000.0 0.1318265231051287 0.29561888373622974 -0.023612533408733226 -0.14249879516864417 -0.023374937368736522 -0.14320357678965354 0.13013981928132642 0.30339955035940686
1791062000.0 0.13385191051054107 0.29485289777992746 -0.026373985247609286 -0.14197910738527558 -0.026355304138270783 -0.1428918327944055 0.13047746500056628 0.3032971224380978
1791750000.0 0.13555233860132124 0.2939218889763917 -0.02917120485844976 -0.14144413642914022 -0.02931234497045448 -0.1425092746540751 0.13084854376625443 0.30308163029795443
1792438000.0 0.13738414862108694 0.292995903699632 -0.0319351070855919 -0.14095308258441674 -0.032317864309165154 -0.1419175254265532 0.13079243749279396 0.3026049448768312
1793125000.0 0.1390788122177898 0.29220079846168817 -0.03461947976571777 -0.14022155717916487 -0.03521205083908169 -0.14138631727887815 0.13102207723280607 0.3018197002015523
1793812000.0 0.14077937541491722 0.2914726287321711 -0.03735625561878719 -0.13955703401701147 -0.03809964177745043 -0.14066174761392805 0.13122495327620234 0.301195668990831
1794500000.0 0.14242369302107688 0.2904762856812287 -0.040109351113762404 -0.1388040975188069 -0.04093974361160966 -0.1398465725880211 0.13143358988127504 0.30061588447422427
1795188000.0 0.1440107748949529 0.2897992633475188 -0.04293206042455927 -0.13823007542549773 -0.04372405658074903 -0.1391026630097237 0.13174226710566436 0.29991922698466017
1795875000.0 0.1455097442747126 0.28895866004995274 -0.04548410209596406 -0.13744940525594743 -0.046720241337417076 -0.13803067991233356 0.13211608131088357 0.2989551557633502
1796562000.0 0.1472412143896091 0.28846258577466793 -0.04827325987639321 -0.1365150904651438 -0.04929192586933096 -0.13701389148745574 0.1323250416857293 0.29768448167767736
1797250000.0 0.1485689716466547 0.2875478279662364 -0.050773671580025014 -0.13544285783439217 -0.05210930109260408 -0.1359032633308661 0.1330451131527077 0.2963914356820849
1797938000.0 0.1500152216427257 0.286899836840198 -0.05349734461800732 -0.13470933241443428 -0.05472345527096073 -0.13485268391190816 0.13361368834631368 0.2949641728189763
1798625000.0 0.15142218833639437 0.28623708899993217 -0.056079982832689085 -0.13378081329942748 -0.05733344611362479 -0.1336094143379354 0.13420007751204763 0.29401376414353303
1799312000.0 0.15261431677957774 0.2853999293414859 -0.058770029267067966 -0.13263491517011222 -0.059843312138719844 -0.13231273259673862 0.1349408433958453 0.29222214219781756
1800000000.0 0.153867092255352 0.2848123652823387 -0.06146557458820865 -0.13149593913925367 -0.062481873595693294 -0.1310945141514513 0.1361953874589541 0.2912471110654524
