! Created with skrf 1.9.0 (http://scikit-rf.org).
# Hz S RI R 50.0 
!freq ReS11 ImS11 ReS21 ImS21 ReS12 ImS12 ReS22 ImS22
700000000.0 0.158478013735686 -0.833209635170555 0.04121459621574518 0.04273851329521775 0.03996308073025776 0.04588899725834206 0.14938105936262874 -0.830074631713774
700687500.0 0.1530259360696062 -0.8327984588833248 0.04211874907770722 0.04171972446935793 0.04165855114763778 0.045069467066707634 0.14300382897472738 -0.8290583581418898
701375000.0 0.1466794634128896 -0.8320514007912446 0.04302737873906724 0.04075696250777809 0.043414242818494084 0.04407028779502171 0.13598637691021537 -0.8282600595659295
702062500.0 0.14112519247688124 -0.8318492975702019 0.043916767405103536 0.0398761347755216 0.04506768200907344 0.0429177974433441 0.1290249841071048 -0.8275786231763426
702750000.0 0.13495374298930354 -0.8312005276152543 0.044817865016774004 0.03899865353449435 0.04664013722725841 0.041670347035024397 0.12197999815074269 -0.827231003933988
703437500.0 0.12911217505149306 -0.8306718341738514 0.04570844110354808 0.03817220510850487 0.048065939343978535 0.040298096681780984 0.1153480527401774 -0.8271152145925271
704125000.0 0.12285452175564515 -0.8301501255777599 0.04659436995757265 0.03743522763162777 0.04936662781305737 0.03887762669215613 0.10897483820719732 -0.8270394110169096
704812500.0 0.11696745394563526 -0.8295754099847045 0.047526072558392404 0.036750178484285176 0.05053163757796186 0.03735625790017625 0.10212497461720653 -0.8269851815773646
705500000.0 0.11100075774410961 -0.8290434573713724 0.048555172859511074 0.035972431846946394 0.05148880884687934 0.03587446221012626 0.0958026681422077 -0.8270478615738647
706187500.0 0.10519250408929086 -0.8285676852713012 0.04953714573896423 0.035295488218165944 0.052393707929036214 0.03445950880327259 0.08940198816279066 -0.8274035241461846
706875000.0 0.09964469464786163 -0.8280414338606709 0.05055862554604167 0.034609784069705905 0.053086551079139156 0.033133382859224014 0.08353152178658232 -0.8279811295643036
707562500.0 0.09358861056201156 -0.8274524314152196 0.0516839971086393 0.033821626309240634 0.05379007107242264 0.03183637987440497 0.07764033920479325 -0.8284421591530079
708250000.0 0.08787404155703796 -0.8268415581905577 0.05284188299049166 0.03299477409944519 0.054339482480666446 0.030628097094199988 0.07180027598044127 -0.8286997451936327
708937500.0 0.08232885079676994 -0.8260988104591753 0.05404285559970559 0.03218313309096257 0.054951670630723315 0.029547826460606375 0.06644163768198535 -0.8291766189565529
709625000.0 0.07640204475035267 -0.8256964916956833 0.0553054369153725 0.03126423677546939 0.05557988522299739 0.028626107817988754 0.06077808192804334 -0.8297369055712472
710312500.0 0.07069966628699786 -0.8247190924300141 0.05657534670319999 0.030299367269911438 0.05627177449664412 0.027678796680578724 0.055716838598048934 -0.8300122107555886
711000000.0 0.06547185565341106 -0.8237934945875697 0.05781371222454256 0.02922737983100377 0.05697411399726593 0.026850860407407296 0.05036078460278691 -0.8300619791157564
711687500.0 0.059682121341001336 -0.8229791768831759 0.059137453725266464 0.028022438961807887 0.05783969145413572 0.02600967807328918 0.045729971953042264 -0.8300347915804154
712375000.0 0.0542936843253521 -0.8219200655603719 0.06041504240959974 0.026883504921003314 0.058775140850598484 0.02523118387240859 0.04083769858810048 -0.8294775362278306
713062500.0 0.04888542467220598 -0.8208235515237716 0.06163477048723311 0.025485256927425436 0.05979786570291128 0.024380271993458658 0.036036503829729755 -0.8289719206343258
713750000.0 0.04310904023915784 -0.8197470005817267 0.06291870689064492 0.02413347006237058 0.060921085887343816 0.02340253615123522 0.031219808667976922 -0.8282132936999897
714437500.0 0.0379352106878928 -0.8181764582344648 0.06401008556457619 0.022669881927452205 0.062023673413156996 0.022366772823849992 0.026376514922415023 -0.8265245213312435
715125000.0 0.032609221851129966 -0.8168692933197083 0.06509132615278047 0.021060741802720204 0.06321013698269878 0.021248137486338234 0.021549322598781673 -0.8248472790319658
715812500.0 0.02752289656391949 -0.8154311852660543 0.06618946130260102 0.019420303647383785 0.06445680223649833 0.01996515802022154 0.015531241195467938 -0.8228696766592195
716500000.0 0.022486950617783975 -0.8135617651986047 0.06713344905625529 0.017776053169706672 0.06569027102177147 0.0186242793344717 0.01003082097013666 -0.820843594908869
717187500.0 0.01722961156417525 -0.8116648861437559 0.06802939469581476 0.01610048992486164 0.06682137249667473 0.017085639878783566 0.004291879242229155 -0.8182251548520282
717875000.0 0.012014022315038717 -0.8096083762020796 0.06876957836492613 0.014330762664333295 0.06796123567190857 0.015516448389184917 -0.0017933848048244647 -0.8156122306396787
718562500.0 0.006701456532995109 -0.8072920296806838 0.06945132705325893 0.012626892324188423 0.06898481484956233 0.013829797352776632 -0.007813318635630067 -0.812502142245249
719250000.0 0.0019433812966426728 -0.8049331569579535 0.0701145807252904 0.010983038217311584 0.06990942736540864 0.012114132174476435 -0.013976691449940582 -0.8094182347139903
719937500.0 -0.0030828640163944655 -0.8027172789814804 0.07079291036848634 0.00927852854634705 0.07083118935503446 0.010305038816681752 -0.020783343332831095 -0.8065473189142235
720625000.0 -0.007949965411047807 -0.8001151920971269 0.07137631098273457 0.007588024679941796 0.07156792710974882 0.008463138782276532 -0.027680311498676072 -0.8030368481758207
721312500.0 -0.01268967788478887 -0.7972495561277865 0.07189499969929652 0.00593395295068893 0.07226025674334861 0.006663675660952373 -0.03443473033552502 -0.7995998929212275
722000000.0 -0.01759826636686923 -0.7947963699525334 0.07256698460674264 0.004099540097716737 0.07298435936807593 0.004667651493962909 -0.04173393630089246 -0.7964546412547325
722687500.0 -0.022212965089518772 -0.7923261062353725 0.07300443859210773 0.002326675693994597 0.07347574408123565 0.0026955461025179326 -0.0488215591257237 -0.7934746633778207
723375000.0 -0.026896142488741292 -0.789708224398841 0.07328414139496052 0.00042918239379348075 0.07379808065377938 0.0006792759904317403 -0.05665073446199855 -0.7908877230964042
724062500.0 -0.03196003053058818 -0.787110217561017 0.07354486655771278 -0.0012984117964683257 0.07397746243450334 -0.001163209287029429 -0.0639724582006911 -0.78799409078229
724750000.0 -0.03750782493141534 -0.7844870096344722 0.07380601273851244 -0.002935130277374205 0.07409862786439864 -0.0028671909350858706 -0.07101312751949147 -0.7851642234324026
725437500.0 -0.04244364565476137 -0.7812044502667337 0.0739963466174167 -0.004424303139607071 0.07427688702085183 -0.004409835937702029 -0.07816306395608627 -0.7824649043088276
726125000.0 -0.04762046079093734 -0.7781659735004811 0.07441751197747146 -0.005963399810984324 0.07459351636679419 -0.00593167813002254 -0.08536080611109932 -0.780419577974025
726812500.0 -0.05276517346177895 -0.7749843927840859 0.07483103718084547 -0.007517265524401637 0.0749458966935097 -0.007390358830512481 -0.09197793256261957 -0.7781187708803087
727500000.0 -0.05759912439906854 -0.7714175891386666 0.07525308448765654 -0.009093760335468633 0.07537576567219362 -0.008980090093955147 -0.09876972952023286 -0.77626033873943
728187500.0 -0.062101233665607616 -0.7681827780427727 0.07569569393183959 -0.010776675189840039 0.07586646638909712 -0.010503285818845324 -0.10522606510265359 -0.7743747980471563
728875000.0 -0.06704237662748506 -0.7650127760061285 0.07618206133406576 -0.012447321068659551 0.07636622485829174 -0.012251983821282368 -0.11150515733438092 -0.7728581039672453
729562500.0 -0.0720300881021703 -0.7617369154610296 0.07669738524133245 -0.014290716826414758 0.07697963494521431 -0.01402976277382063 -0.11723719995863696 -0.7714567158162892
730250000.0 -0.07691278577182628 -0.7582841850073523 0.07710772669659606 -0.016205067091348443 0.07748608722075448 -0.016002374583795564 -0.12290584886204091 -0.7699160433091751
730937500.0 -0.0817178477713471 -0.7552538803511688 0.07752000370524496 -0.018215127401920075 0.07793946746582961 -0.018094904846923367 -0.12854423837748863 -0.7684154699232995
731625000.0 -0.08677910634883433 -0.7521257016849681 0.07783394729997899 -0.020299678851457083 0.07837204880010988 -0.02027084797363688 -0.1338852265813668 -0.7670687760048567
732312500.0 -0.09211461034563768 -0.7490830108818288 0.07804291161297913 -0.022389708124484733 0.07866235387094345 -0.022585955492612518 -0.1388438529603979 -0.7655370602495497
733000000.0 -0.0971353457920286 -0.7456539800809998 0.07822367446181337 -0.02463553873790019 0.07880007847967103 -0.02487980239133865 -0.14355842015241466 -0.7633911496063416
733687500.0 -0.10242462240086093 -0.742879737721794 0.07829686631924472 -0.02682089017039179 0.07884883945569267 -0.027245456246924805 -0.1478292699984265 -0.7612289898304235
734375000.0 -0.10751548493773802 -0.7396578558216261 0.0782473350000334 -0.029068315803974565 0.07885271501768105 -0.029666027709955415 -0.1528977789810055 -0.7589374767751468
735062500.0 -0.11238452749376508 -0.7362241601688237 0.07826895642086035 -0.03126448732647956 0.07868115512711589 -0.03204809140284813 -0.15718849028336468 -0.7563956263658406
735750000.0 -0.11736284167980492 -0.733057891658249 0.0781129995855957 -0.033536846183467986 0.07842006643347627 -0.03442105725939234 -0.16109240530170776 -0.7529720634361713
736437500.0 -0.12227078965415905 -0.7299010683950241 0.07788007382715742 -0.03593400272399789 0.07809495092066339 -0.03687009289916887 -0.16562366333260137 -0.74965461282333
737125000.0 -0.12704245341438203 -0.7267132778838526 0.07765459575455233 -0.03824832840886823 0.0776480475751201 -0.03927930304073451 -0.17004789687111305 -0.7458009781059076
737812500.0 -0.13159177791166843 -0.7232744010202989 0.0773940887532251 -0.04066801598338537 0.07717709954375086 -0.04170369383003099 -0.17436187281463872 -0.7418266809192331
738500000.0 -0.13606099515908815 -0.720214094957204 0.07711182199731392 -0.042997025094295274 0.0766166916742199 -0.044052385706333755 -0.17843738555007543 -0.737423287652398
739187500.0 -0.1405816801154315 -0.7170577322880006 0.0766743440022303 -0.04547537379982259 0.07598408580276492 -0.04631242768807753 -0.18286231452078408 -0.7325814413970182
739875000.0 -0.14495125035599546 -0.7134128382694567 0.07610489049621515 -0.0478382126402324 0.0751651418996996 -0.04865765367404666 -0.18758361132991228 -0.7273955736078939
740562500.0 -0.14907156847358333 -0.710395114793848 0.07550556592026181 -0.050370650591507825 0.07442507839731345 -0.05091575949131522 -0.19211826136085294 -0.7218245993167206
741250000.0 -0.1531029772471253 -0.7069938675702596 0.07488151425773426 -0.0527602756128872 0.07365629572320707 -0.053198489934670044 -0.19725846087692625 -0.7162668060408535
741937500.0 -0.1572657773958832 -0.7035039399587354 0.07420133219558728 -0.05521914907640801 0.0727943671983183 -0.055383408884310044 -0.20174176406528593 -0.7107826866668308
742625000.0 -0.16086790217063754 -0.7002365379207761 0.07341453966372422 -0.05773405035763976 0.07193776599486211 -0.05757519149735395 -0.20714734878559338 -0.7048626700393339
743312500.0 -0.1645463532132808 -0.6962978122342667 0.07246348815846773 -0.06019997992491143 0.07103401919067792 -0.05982222928968148 -0.2125220116432408 -0.6991702885812746
744000000.0 -0.16815244898790316 -0.6928574921612154 0.07149359684407322 -0.06269936588558443 0.0701542398047266 -0.06204341687255078 -0.2174630571619605 -0.6931940415901547
744687500.0 -0.17134298301346013 -0.6894494332768656 0.07052893154877414 -0.06517627358412356 0.06929466562653261 -0.06427724033384301 -0.22256163844521284 -0.6875415968486395
745375000.0 -0.1748531871110598 -0.6854301594381434 0.06931685392674292 -0.06772920734500948 0.0682409106200767 -0.06659094300895298 -0.22853565304296633 -0.6816118641339115
746062500.0 -0.17811970895809273 -0.6819609618250122 0.06806199352520105 -0.07021625159980234 0.06719614739018404 -0.06894138608799127 -0.233802227180695 -0.6762921716895937
746750000.0 -0.18096251109671396 -0.6779741522051429 0.06665462304212573 -0.07271199126224596 0.06611924891370811 -0.07123228373919605 -0.23904443704952238 -0.6711750023854964
747437500.0 -0.18399034253429017 -0.6741608038649759 0.06527927765689125 -0.07522311847828858 0.06494242009825607 -0.07368102642349501 -0.2444164958513275 -0.6659930133232678
748125000.0 -0.18703601422145685 -0.670216209880034 0.06368142066535237 -0.07769438401839408 0.06370436899585842 -0.07610829273464845 -0.2493443810401562 -0.6610995858793075
748812500.0 -0.18962020980967212 -0.6664679401683196 0.062010546331553264 -0.08006111571191776 0.062340021317454274 -0.07857175170695457 -0.25462381788089183 -0.6565257479558697
749500000.0 -0.19269801949114754 -0.6625371915727044 0.06027403878043945 -0.08244383815080995 0.06082080361789483 -0.08100458438855489 -0.25905075307828745 -0.6519070163115993
750187500.0 -0.19564569091168618 -0.6588317739974375 0.05830729705893786 -0.08485370811928494 0.05923204006794387 -0.08350459258722173 -0.26379519129970935 -0.6473951416227585
750875000.0 -0.19840487376226013 -0.655002447366002 0.05628822966510138 -0.0871714934489321 0.0575081901240237 -0.08596968168119665 -0.26821321696280886 -0.6429368569526229
751562500.0 -0.20155981250266977 -0.651044051808423 0.05416620981537672 -0.08933818921014003 0.0556008099455279 -0.08841732479065371 -0.2716724180125785 -0.6388831174525279
752250000.0 -0.20498271025180467 -0.6472259729871381 0.05182964827279172 -0.0915122355507329 0.05346084318821434 -0.09084059041209809 -0.2757165436235612 -0.6343558437567036
752937500.0 -0.2082182539220956 -0.6430062850962865 0.04942627575735396 -0.09350954423905211 0.05117727358467512 -0.0931828617267299 -0.27898958298663706 -0.629850329285488
753625000.0 -0.21192552056529826 -0.6387883560785045 0.04708189984856758 -0.09535923078470547 0.048873665103279375 -0.09540580702799913 -0.28177872131539566 -0.6257752844528586
754312500.0 -0.21512308254996337 -0.6342964374419141 0.044638850877837664 -0.09708535691372215 0.04652778471947736 -0.09753862932162481 -0.2846667057204213 -0.6214442861004552
755000000.0 -0.21865769190683693 -0.6293429639972968 0.04220699350440274 -0.09876842469190965 0.04392972808502163 -0.09961666578631459 -0.28710816882283946 -0.6170247514092253
755687500.0 -0.22206304936215826 -0.6243264906110793 0.03985676045980419 -0.10043318152919163 0.04139437342916318 -0.10159401855575775 -0.28914961068516465 -0.6126455901606463
756375000.0 -0.22500296322843286 -0.6193513266436832 0.03753405849474967 -0.1020528954260229 0.03875382462435262 -0.10351120358144059 -0.2911158904234364 -0.6076341608038011
757062500.0 -0.22786775337887627 -0.6141275672635074 0.03505908018330416 -0.10360666334591015 0.03596563416360004 -0.10540100822042653 -0.29308545636012895 -0.6026138881932299
757750000.0 -0.23061667225861684 -0.6092466022407067 0.03264558701784477 -0.10526208766313942 0.03317831498005376 -0.10722031327234802 -0.29479002062127996 -0.5970675664051165
758437500.0 -0.23316189990920505 -0.6041946977984736 0.030247703269899267 -0.10680203519354362 0.03025698127147079 -0.10893044585059174 -0.2961758258165381 -0.591389181507674
759125000.0 -0.23563021832789188 -0.5992911754820838 0.027716444257968802 -0.10832154045817889 0.027227387012058592 -0.11048066618358862 -0.29762994405329146 -0.5854192717597486
759812500.0 -0.23791528442019863 -0.5943501067751663 0.025070250913612417 -0.10981852080734755 0.024116337519247223 -0.1118505576582385 -0.2990857937446798 -0.5788703673451777
760500000.0 -0.24030899107072645 -0.5896182783069127 0.0223978192731492 -0.11125974630063208 0.02097692144400113 -0.1132206807100029 -0.3003866675441305 -0.5722529693300453
761187500.0 -0.24275629552120861 -0.5851829230719938 0.019620954201134994 -0.1127720649495096 0.017824223484393917 -0.11442645686644666 -0.3016379095457425 -0.5650176085415786
761875000.0 -0.24474652785919385 -0.580712577087694 0.01674451953435486 -0.11425159135233004 0.01462652168324186 -0.11537880591233785 -0.303176997409128 -0.557743493336695
762562500.0 -0.24692935362953317 -0.5763965661371063 0.013880247638038586 -0.11565114501944673 0.011523393247519153 -0.11634791929329352 -0.3042304719812644 -0.5504405141324475
763250000.0 -0.24904833849557892 -0.5721398100122381 0.010882972893542 -0.11705757319139726 0.008260028997961995 -0.11720053786278087 -0.3060766353589142 -0.5427222685925872
763937500.0 -0.2508693972929262 -0.5680318670050417 0.007783280859418287 -0.11836272750614465 0.005213313074281958 -0.11795212460356401 -0.3075585773319235 -0.5351411097449473
764625000.0 -0.25297268138844825 -0.5639594192483821 0.0044501568722055745 -0.11963560513592537 0.002020908381426012 -0.11854324205924649 -0.30925657961339104 -0.5273951997347004
765312500.0 -0.2548983701136309 -0.5599596691940751 0.0010557791563486536 -0.12082450324305771 -0.001129147995777441 -0.11923339114477541 -0.311079104297436 -0.5198094604385026
766000000.0 -0.256273015658769 -0.5560258711414211 -0.0024385429241180613 -0.12181812596792617 -0.004176953753059051 -0.11982836308532814 -0.31304280787613786 -0.5120935382046438
766687500.0 -0.2581822126054857 -0.552132017200217 -0.006004834409205243 -0.12276730768474885 -0.007360181172367372 -0.12037079953875578 -0.31497657138451374 -0.5047165904331955
767375000.0 -0.25967448632002477 -0.5485745931600903 -0.00966897725196402 -0.12365642360234126 -0.01045812709975498 -0.1210243322881452 -0.31694321305444617 -0.4974863924620175
768062500.0 -0.26110465901231494 -0.5450399109891177 -0.01341180585525993 -0.12427980567297196 -0.013692669580380436 -0.12157436415459077 -0.3187212995148934 -0.4901037872311637
768750000.0 -0.2624377343294723 -0.5415864227087221 -0.017298349492344968 -0.12492393807606168 -0.01693266683506983 -0.12207238899259083 -0.3208554572770681 -0.4832130454782601
769437500.0 -0.26393621386801136 -0.5378402056969481 -0.021236791763508348 -0.12522318513703265 -0.020306920248393617 -0.1226374660494982 -0.3226937321720541 -0.4765058766151862
770125000.0 -0.26510537961979125 -0.5343954899413328 -0.02525074217485059 -0.12543405835288476 -0.023779965999773653 -0.12313693283747408 -0.3246665152661908 -0.47013492264230655
770812500.0 -0.2663796699711187 -0.5310128548562822 -0.029189335153840222 -0.12547794615432276 -0.02731939787572732 -0.12350163085047952 -0.3265170253406654 -0.4640986734617236
771500000.0 -0.26770555261185297 -0.5274793187130465 -0.03321970844709375 -0.12519951439683755 -0.031112911067810053 -0.12376308987335471 -0.32808256191283436 -0.4578860964443486
772187500.0 -0.2686659728045076 -0.5239817512834678 -0.03723830668626014 -0.12472298959518677 -0.03484246202918402 -0.12388807648155264 -0.3294720490596084 -0.45206541459840954
772875000.0 -0.26986894018222646 -0.520461276837172 -0.04121973901890076 -0.12419696138281229 -0.03876070706363566 -0.12391377000776081 -0.3303816915987657 -0.4466137903915776
773562500.0 -0.2711299739966671 -0.5168360190405542 -0.04523910833037878 -0.12340879197197584 -0.04284568171662237 -0.12375073001629443 -0.33135625658383405 -0.44133530490730144
774250000.0 -0.27229171547834924 -0.5132142715256105 -0.049126812935970855 -0.12251381100373492 -0.04682439876522929 -0.12333552689356239 -0.3320256875853687 -0.4361544724860197
774937500.0 -0.2732657287811244 -0.509421823677241 -0.052937974452826365 -0.12135349354842408 -0.05096444483072953 -0.12271410078212096 -0.3322713526862301 -0.43116000150061473
775625000.0 -0.2742428689161207 -0.5056142221509083 -0.056721891950972804 -0.12026239467169476 -0.05514099123568477 -0.12185184629023021 -0.3323695544287836 -0.4261409624975468
776312500.0 -0.27509611087939007 -0.5016334818866724 -0.06043959226195202 -0.11889037274980122 -0.059169045619369386 -0.12075310362924295 -0.33221307226727237 -0.42104070104770763
777000000.0 -0.27607419402138106 -0.4979048478582479 -0.0638853962169628 -0.11750934631571913 -0.06315603171030174 -0.11957218105074882 -0.3313067959670487 -0.4162589265309331
777687500.0 -0.27702254647505653 -0.4937312969043663 -0.06738320685439014 -0.116023067576604 -0.06711373566703017 -0.11802945802994126 -0.33076041394714206 -0.4113496423692154
778375000.0 -0.2774825921639604 -0.4893936995320922 -0.07070274823175829 -0.11447908337972429 -0.07088033316005002 -0.11640604561131922 -0.3295513728973189 -0.4064839114332131
779062500.0 -0.2781722982512991 -0.4854078346904839 -0.07399773738383063 -0.11291959754757666 -0.07454030930963446 -0.11464207466585885 -0.32806303808346476 -0.40150426114976784
779750000.0 -0.27886783303336243 -0.48087032740443353 -0.07725465643239361 -0.11126442978836838 -0.07808082727872226 -0.1127964759915356 -0.32639037726791403 -0.39647267608736675
780437500.0 -0.2793609339059704 -0.47689807760490827 -0.08038105083408473 -0.10973208025857582 -0.08151614767743869 -0.11089866758708505 -0.32462381088234554 -0.391230233787477
781125000.0 -0.2799575741946511 -0.4725533307405632 -0.08357061606154872 -0.10810986893096027 -0.0848172169791971 -0.10890745527158213 -0.322532018402102 -0.3859839477188459
781812500.0 -0.280269793385657 -0.46828592380979905 -0.08678302777148168 -0.10641618966685533 -0.0880758608100353 -0.10697577642209156 -0.3203863348420902 -0.3807444994764223
782500000.0 -0.28078781600037517 -0.46417721952355956 -0.08996092910318336 -0.1047174659384036 -0.09129708442312813 -0.1050622462179152 -0.3180815649829317 -0.37526290849595206
783187500.0 -0.28123503837053143 -0.4601330629343786 -0.0932080720437948 -0.10297306453419913 -0.09454388346331748 -0.10302609214044849 -0.3157320293205482 -0.36980853043259154
783875000.0 -0.2815640157381367 -0.4558037214562171 -0.0964928462988455 -0.10113077782401118 -0.09769069240642193 -0.10099887698421678 -0.313662997833578 -0.3639431669187475
784562500.0 -0.281866720971365 -0.45174096453958285 -0.09975359060944222 -0.09925960252238498 -0.10094907894228977 -0.09896952374074529 -0.31142438042738546 -0.3582346889204478
785250000.0 -0.28246711769108906 -0.44779907935014834 -0.10315355012415126 -0.09727383676236563 -0.10421172370453174 -0.09681905255026785 -0.30915570783074825 -0.3525919677206745
785937500.0 -0.2831705297913738 -0.4438107771395378 -0.10654521918694469 -0.09508606258261315 -0.10753194926956021 -0.09461226245951974 -0.30688461395221 -0.34700254288660787
786625000.0 -0.2836347600278691 -0.4396124665838851 -0.1099749066419756 -0.09282395720711707 -0.11086145308316724 -0.0922040605104324 -0.30483006331051754 -0.3411919110425237
787312500.0 -0.2842160929272886 -0.43579402394589817 -0.11342243151292798 -0.09037235596877967 -0.11428724036901106 -0.089699187719077 -0.30283710403507447 -0.3359137474676976
788000000.0 -0.2846973270007404 -0.4317501062120857 -0.11694961538180046 -0.08772859754324108 -0.11759147965950346 -0.08700802126923055 -0.3009704583604147 -0.3303136576403791
788687500.0 -0.2852797629285687 -0.42795381880092853 -0.12029824035298967 -0.08505273322845944 -0.1209935244029834 -0.0841575168967621 -0.29898026206389244 -0.32515846297523554
789375000.0 -0.2862073108551342 -0.4241178841118952 -0.12376720957706519 -0.08199836543865215 -0.1243852724411676 -0.08098694580619362 -0.2972535137716547 -0.3200361790330635
790062500.0 -0.28676737176105593 -0.4202733086560479 -0.1271160522610961 -0.07880503010492869 -0.12755552063033626 -0.07764407860514579 -0.2953291175789976 -0.3149883955095745
790750000.0 -0.28715793747897206 -0.4163824765575201 -0.13034247457038034 -0.07541718894623084 -0.1306872056110131 -0.07413187275921936 -0.29357858159384814 -0.3103510376131433
791437500.0 -0.28779176846408233 -0.4126482599362044 -0.13341535327776224 -0.07185778447604278 -0.13353146697510998 -0.07043559741748136 -0.29164867916572057 -0.3058511893739079
792125000.0 -0.2879967514811528 -0.4088602457260664 -0.13641359023449093 -0.0681167873366051 -0.13627433641571696 -0.06652330237959717 -0.2898828569180357 -0.30171469806819573
792812500.0 -0.28834217997889955 -0.40532579357559373 -0.13920741353826244 -0.06420066854078446 -0.13882732493065308 -0.06257861930514387 -0.28788694378629665 -0.29798105274564385
793500000.0 -0.2886134242993497 -0.4017701101922769 -0.14190830602464694 -0.06008285337145172 -0.14107063360684235 -0.05844246110641615 -0.28593540722865035 -0.29425537456935463
794187500.0 -0.2888157533422537 -0.398089102788324 -0.14427342388413356 -0.05569100731126887 -0.143269505267108 -0.054289853096528465 -0.28376753267344706 -0.29104719923883055
794875000.0 -0.2886511946515466 -0.3948753154232344 -0.14650395487710974 -0.05138683652021001 -0.14525104260818286 -0.050064471593752526 -0.2814719752402667 -0.28795123999548694
795562500.0 -0.28863853887025537 -0.3914241073275232 -0.1484914418925256 -0.046853799734676634 -0.1468741098397066 -0.0457642217760375 -0.27918064316158603 -0.28526621686343656
796250000.0 -0.28845971768705925 -0.3884176463850151 -0.15041575454613204 -0.042406786369328354 -0.14845273909677878 -0.04168628544232746 -0.2766258797364632 -0.2828351017410015
796937500.0 -0.2882226623873726 -0.38531532149646675 -0.1519885689502947 -0.03779839779159215 -0.1498221241394033 -0.03742074456797628 -0.27389044866307755 -0.28085057798839164
797625000.0 -0.2878313134238349 -0.38235747284411153 -0.15336141731358183 -0.03315033644891351 -0.15114547266820574 -0.03335125621153288 -0.2710045439132824 -0.2789930249819339
798312500.0 -0.2876937973810241 -0.37938810157162256 -0.15454649813240465 -0.028526651968015154 -0.15231409293468764 -0.029248317061304967 -0.26773330472686885 -0.2773219617332278
799000000.0 -0.2873639854263374 -0.37661146784189975 -0.15561186602135693 -0.023951389038213918 -0.15345476674673644 -0.025154707997964005 -0.2646094907135876 -0.27582853522283274
799687500.0 -0.28714589952987296 -0.37380912875935557 -0.15637483391624932 -0.0192955998585508 -0.1546353533630991 -0.021027696577286033 -0.2610329242135066 -0.27463844838553203
800375000.0 -0.2869338305499794 -0.37078906889378294 -0.157069451362547 -0.014827455599667473 -0.15562167703842775 -0.016952941736612645 -0.2574416620727657 -0.27370263774399045
801062500.0 -0.2866457659854667 -0.3680417914916229 -0.15761578488169317 -0.01021281051519831 -0.15673086939450334 -0.012815639590075322 -0.2536865533582232 -0.2726465860986188
801750000.0 -0.2863359174282038 -0.36504916245004104 -0.1579515744766997 -0.005842637068914721 -0.157667028770794 -0.008450053307163271 -0.24958852215353064 -0.2717145896733248
802437500.0 -0.2860312350680529 -0.36210884104328117 -0.15837356824530893 -0.0014340766327172775 -0.1586487184141176 -0.0041045149822570084 -0.24582160484111568 -0.2708305532926168
803125000.0 -0.2856935369190743 -0.35900436048645246 -0.15852641510753074 0.0030951081177309926 -0.15942025647388106 0.0004110004321296381 -0.24189976116640405 -0.26967399177045587
803812500.0 -0.2852464136234425 -0.35583486641934775 -0.15857185417400083 0.007396165443106306 -0.1602059684997387 0.0050788048722794025 -0.23797922367656 -0.26855681506255996
804500000.0 -0.2847312550781492 -0.35260751526831474 -0.15870798560969956 0.011668607696393508 -0.16074034732560005 0.009811739991667314 -0.23390793531595402 -0.2677699626781685
805187500.0 -0.2841861127994915 -0.3494566394012385 -0.1587101540169754 0.016106947768098623 -0.16110894857748062 0.014718181743334393 -0.23034219189831961 -0.2663550612325844
805875000.0 -0.2834387550296119 -0.3459321615461628 -0.15867121867441264 0.020440910684930792 -0.16123058483839228 0.019643195378115978 -0.22646149711611005 -0.26522525040627315
806562500.0 -0.28289977910044367 -0.34254778052234336 -0.15845875263929268 0.024821949669777035 -0.1612289435650086 0.02476368205912057 -0.22272369348312862 -0.2636442181312641
807250000.0 -0.282102063004591 -0.3392446254456645 -0.1583172970354549 0.029291022214352754 -0.16091367382228938 0.029783369455182063 -0.21930177691402036 -0.2621247592841376
807937500.0 -0.2812848258723458 -0.3358283824109446 -0.1578936914400494 0.033860818741963075 -0.16040211548864994 0.03506265043963203 -0.21592625063909973 -0.2605785461247254
808625000.0 -0.2801606198886549 -0.33227983206895945 -0.15748291367175668 0.03841693172130357 -0.15954903798620482 0.040067378566723336 -0.21270521849679153 -0.2587333278883782
809312500.0 -0.27935556694102087 -0.3286716391986021 -0.15683679029298192 0.0430350751265172 -0.1585837138338881 0.045140335738256265 -0.20970876229351096 -0.2571232952448077
810000000.0 -0.27842276709663605 -0.3253332025868906 -0.1560872089762667 0.04765442615446417 -0.1573581965808987 0.05012017194972229 -0.20695197292728676 -0.25531583566087535
810687500.0 -0.2774120446532512 -0.32185889560840414 -0.1551853838272058 0.052428201171226534 -0.1558362526972714 0.05498713607397212 -0.20418728171087322 -0.2535238737513362
811375000.0 -0.27632616404375127 -0.31858815696268505 -0.15396036024396365 0.05719870879834897 -0.15414212747424907 0.059750633759615104 -0.20198373175336434 -0.2516787411708616
812062500.0 -0.2755094446624708 -0.31528134147863535 -0.15271532418592673 0.06188630729620119 -0.1523504189369753 0.0643497571515345 -0.19973574547137277 -0.2498475963760804
812750000.0 -0.2745732880056946 -0.3120960217829178 -0.1512163872284686 0.06660996381134529 -0.15033450472201476 0.06886574380183118 -0.1977795234276832 -0.24826135163061935
813437500.0 -0.2737126148509059 -0.3088151376030289 -0.1495634962576095 0.07124032178724993 -0.14817650895676285 0.07321158562056787 -0.19593776486596054 -0.24685080078690777
814125000.0 -0.2730033586987241 -0.30550026460960183 -0.14772401744526042 0.07587619994523218 -0.14588546553377515 0.07745641562968834 -0.1944368758686639 -0.24569236177163525
814812500.0 -0.27224906180573116 -0.30241118563409036 -0.14569793723109042 0.08038592330419327 -0.14356468619823962 0.08152416942512784 -0.19290780747540232 -0.24449113828133495
815500000.0 -0.2716438807876381 -0.2992793222069217 -0.14347267324787538 0.08484216135248715 -0.14117517643767286 0.0855529568771605 -0.19177259930246496 -0.24357433645895665
816187500.0 -0.2709787451650655 -0.29602340529213494 -0.14104568423762975 0.08927457395413604 -0.1386676046830337 0.08932253446886461 -0.19069295292323524 -0.2428844958752852
816875000.0 -0.2703883579020486 -0.2928975745153757 -0.13852683432381738 0.09349983202025174 -0.13613931498395584 0.09318219157628711 -0.18964622663773345 -0.24247777961839856
817562500.0 -0.2698354056632046 -0.28974836419590516 -0.13581130453552065 0.09766253330207182 -0.13357465287110679 0.09682982521870795 -0.1888720831287709 -0.24237318895243726
818250000.0 -0.26909977552976655 -0.28645267073513175 -0.132887113001086 0.10166605293615714 -0.13103163495684764 0.10041901335317496 -0.18806702970062877 -0.24249296998058997
818937500.0 -0.26863200591640896 -0.28340777728362954 -0.12996949643113478 0.10559493157203426 -0.12836990581892108 0.10409920273729609 -0.18741820930056735 -0.24261950863226775
819625000.0 -0.2678029170057166 -0.28024157206524475 -0.12686704535192023 0.10938827302349399 -0.1257000653582683 0.10750383342936543 -0.18681041047508115 -0.2432990531286791
820312500.0 -0.26709248579063494 -0.2772365547618716 -0.12368860999315491 0.11306690348728377 -0.12296192613385908 0.11103572998207789 -0.18604227150963717 -0.2438764330296925
821000000.0 -0.26615793306879404 -0.27418029723426135 -0.12038304017842485 0.11644252728241675 -0.12012615617530542 0.11453694052244355 -0.18534903829792085 -0.24483871184111128
821687500.0 -0.26517646190436306 -0.27126007747144587 -0.11691709341902423 0.11986601751974779 -0.11718405918388154 0.11797317251572845 -0.18472246574921564 -0.2457199373174351
822375000.0 -0.26417890643969616 -0.26862313902134755 -0.1133952011578857 0.12308918957775394 -0.11408561780705088 0.12138786198618068 -0.18385357836690544 -0.24660761159430497
823062500.0 -0.26315259965113286 -0.26589823057291134 -0.10987768656042143 0.12622684858535704 -0.11086835744411798 0.1247716036813205 -0.1829145965397107 -0.2476078864778774
823750000.0 -0.2620803876189094 -0.2632434840798978 -0.10613976955977561 0.12920171137483838 -0.10753498769306592 0.12809343162504494 -0.18203907112666584 -0.24859863903140975
824437500.0 -0.2607134383911456 -0.2609133430706105 -0.10255924601153048 0.13209486543124804 -0.10408352103744703 0.1312287987104254 -0.18104752019463763 -0.249608235841084
825125000.0 -0.25939536413731423 -0.25855512059436947 -0.09877752047796871 0.13478773808223327 -0.10042365009029679 0.13429768915183435 -0.17977896557854484 -0.2503467652351595
825812500.0 -0.25803160591682667 -0.25636601461421243 -0.09493942989178486 0.1374095598911234 -0.09669676133344567 0.13734095094762772 -0.17885675286978361 -0.25112782106988774
826500000.0 -0.25664268952273883 -0.2542067366640087 -0.09114890209286024 0.13998554416470543 -0.09268151303343056 0.1402191522754667 -0.17763375959058594 -0.25169046783743
827187500.0 -0.2551455911911047 -0.2523413827545241 -0.08737079677159258 0.14234213986455801 -0.08870929857474233 0.1429263793982528 -0.17639275247164235 -0.25234869983578456
827875000.0 -0.25374266485784974 -0.2502787640291826 -0.08338862892108866 0.14465010591372124 -0.08459240604528968 0.1453503121732293 -0.17493513785582265 -0.2523944523934771
828562500.0 -0.2522349884838471 -0.24847121485764503 -0.07935221991238509 0.14676310165476691 -0.08033509558579886 0.1477066317191449 -0.1737410445774005 -0.25233690348391724
829250000.0 -0.2506436222613187 -0.24667363932435507 -0.0753724520732962 0.14885582166058528 -0.07609723406980339 0.1498321068123717 -0.1724252981498628 -0.2523633582584345
829937500.0 -0.24903814515202088 -0.24468843222843262 -0.07125459875621419 0.1507301911647474 -0.07159577835311752 0.15171145768643712 -0.17109836751734825 -0.25182691573572996
830625000.0 -0.24740506543030072 -0.24307489402655694 -0.06719046444745698 0.15258266408198234 -0.06730692783297583 0.1535255613515742 -0.16987746526213263 -0.25112485003219465
831312500.0 -0.24572670660980883 -0.24129466709508093 -0.06309268481809649 0.15424754877496163 -0.06298513906876575 0.15522202156785997 -0.16874760674236972 -0.2504134964093339
832000000.0 -0.24406476700908966 -0.23951272991541378 -0.05882998028381543 0.15582269128915205 -0.05859137363196439 0.15673753105716648 -0.1678039234082762 -0.2495037431533721
832687500.0 -0.2422917004471691 -0.2376845561256762 -0.05466026293328004 0.15732124731206937 -0.054146250178425684 0.15806140756848772 -0.16699381952455464 -0.24841518186809866
833375000.0 -0.24062577847701141 -0.23599209168282295 -0.0503954539780595 0.15863837877039974 -0.04987685794587834 0.1593025592631698 -0.16625078846461216 -0.24731163258581
834062500.0 -0.23884913108891717 -0.23420335942572648 -0.046252956306282025 0.15983161579110722 -0.04558204796278701 0.1603805050504889 -0.16575130659783296 -0.24619550799817347
834750000.0 -0.23697240895825922 -0.2323465530481697 -0.0419365631795133 0.16091860905522887 -0.041235404619357104 0.16125380899501124 -0.16531115569178118 -0.2446254326434565
835437500.0 -0.23526953108635817 -0.23062173885326326 -0.03752961406985882 0.1618786318696706 -0.03699115999750002 0.1622052768099643 -0.16532339167026847 -0.2434781933212784
836125000.0 -0.23340387195175843 -0.22891321483717622 -0.03324824085693722 0.1626793891239162 -0.03264342370224871 0.1629590835686159 -0.1653376529038767 -0.24242431555249483
836812500.0 -0.23161945047045013 -0.22713078621462945 -0.028962664506430785 0.1634295666239457 -0.02837727653967282 0.16357613887154285 -0.16550868236432925 -0.24115081277424824
837500000.0 -0.22982560166843682 -0.2253885719203706 -0.02460408090290925 0.16408627769746478 -0.0240991274011063 0.16411611124549974 -0.16595200323997455 -0.24024053630124492
838187500.0 -0.22810035634195014 -0.22366296924782617 -0.02028450911227025 0.16463047728833752 -0.019893974473226182 0.16463641653885722 -0.16637414636184392 -0.23957706449289462
838875000.0 -0.2263624133279248 -0.2219730275010012 -0.015951302021612976 0.16514161027417187 -0.01560225663424865 0.16492364916262225 -0.1670373294548951 -0.23887664433262717
839562500.0 -0.2246025306240703 -0.22040008765427552 -0.01179738746310589 0.16534450991929867 -0.011371062833925824 0.16521999585179273 -0.16751721081451884 -0.23859145049151886
840250000.0 -0.2230294582545786 -0.21863211744515104 -0.007511283070019174 0.16555475763178626 -0.007112498469520091 0.16536419180911588 -0.16837474885021605 -0.23833519923973334
840937500.0 -0.22149444065948126 -0.21712416825269681 -0.0033282938588593512 0.16562405205126104 -0.0029601513682597645 0.16541292632345017 -0.1689392534814297 -0.23838817944899646
841625000.0 -0.21989912629469724 -0.2156046548924973 0.0009855250471974503 0.16562880753418857 0.0012746591607301452 0.16531596666000964 -0.16963399081371322 -0.2384618744669726
842312500.0 -0.21860551590120167 -0.2141022277014749 0.005342928129838701 0.1654875948949171 0.00559521543112274 0.16516527213289245 -0.17026068466515107 -0.23887125734591141
843000000.0 -0.2171532319119466 -0.21266053219232392 0.0094970609551585 0.16514371534836925 0.009747577428347972 0.16487704871759268 -0.17059658508942835 -0.2394634630882606
843687500.0 -0.216001657126882 -0.21120832538744225 0.013745031255912862 0.164920840129958 0.01404369971024231 0.16451978049573687 -0.17111183264427052 -0.24028898702043697
844375000.0 -0.21478325069950402 -0.2097990232539367 0.018047659189127808 0.1643845125814066 0.018164913571756865 0.16406161037841152 -0.17132592943768363 -0.2409351739054537
845062500.0 -0.21362814850633366 -0.20843408653854 0.022282285366462165 0.16379645609211377 0.02240475405191487 0.16347333887611395 -0.1715170001736611 -0.24185470789303332
845750000.0 -0.21262615899267354 -0.20714234662235947 0.026584585049870997 0.16320501137377472 0.02660301980428067 0.16289567917276174 -0.17156170409045454 -0.2430010943729407
846437500.0 -0.21160276579323392 -0.20580859923600756 0.03073658644078218 0.16236801003321116 0.03078504790004338 0.16214774537484164 -0.1713617792766058 -0.24385432187408168
847125000.0 -0.2106223746105657 -0.2045746332010469 0.03489761342292607 0.16152113591418638 0.03491079994294433 0.1612505135642876 -0.1709313959121421 -0.24497342159494126
847812500.0 -0.20985692770239292 -0.2034012959193783 0.03897192990783577 0.16056081221075869 0.03907230123940106 0.16038526745287385 -0.17038014130565066 -0.24577340246592855
848500000.0 -0.20887454049734772 -0.20213144521536186 0.04311153093643891 0.15930008728339906 0.04310967470859225 0.1591995216814886 -0.16956508835878265 -0.24662828443901025
849187500.0 -0.20804777779212041 -0.20094473395378037 0.04714491345016912 0.15817042050970861 0.04710552908160217 0.15804432464012552 -0.1686346050361083 -0.24740576796675434
849875000.0 -0.20721247991681593 -0.19968436397707884 0.0511952742331999 0.15685765207142818 0.05110864583235885 0.15674176637700973 -0.1674771182957414 -0.24789506562577027
850562500.0 -0.20636168363896573 -0.19842262824815715 0.055240456574695326 0.1554784265165405 0.05512653581797935 0.15530052331908392 -0.16621078219557023 -0.24830386907984334
851250000.0 -0.20548825529121725 -0.19724327148568796 0.05933916402202968 0.15391455057357697 0.05916692082259425 0.15366652942690986 -0.16496883260031933 -0.24834938597357015
851937500.0 -0.20447249547663274 -0.19613700004912327 0.06326688493733867 0.1523323749708838 0.06301876389688034 0.1519974823317089 -0.16365211166474394 -0.24823065619914433
852625000.0 -0.2032235003708643 -0.19493974116711224 0.06714746692329518 0.1504825653473927 0.06685172819744088 0.15018881776934484 -0.1621471798070432 -0.24793836012966086
853312500.0 -0.20211249594779707 -0.19388420757738783 0.07100452690768229 0.148583186974717 0.0707258479570528 0.14828498681233726 -0.16072610553766087 -0.2474622448599894
854000000.0 -0.2007979162899053 -0.19296820431818845 0.0747621065430933 0.14651207410502676 0.0744752613900717 0.1462869256807535 -0.15946822817088524 -0.24672455057882414
854687500.0 -0.1993366113653778 -0.19224792339311803 0.07844085492492554 0.1443580380468363 0.07815223510668919 0.14412699352881028 -0.15843372196245445 -0.24580385133829996
855375000.0 -0.19792219118322024 -0.19131299167588117 0.08201695133465421 0.1420193618620745 0.08167129328565857 0.14187943769445951 -0.15729741220585114 -0.24478439358459117
856062500.0 -0.19637288752945334 -0.1907331455429825 0.08561754269471444 0.13961816064882673 0.08509342597363073 0.13956510076027087 -0.1564125300307581 -0.2436081669564515
856750000.0 -0.19484777029626643 -0.19014438836148234 0.08898377423886714 0.1370941867231735 0.08849522590384354 0.13713521348921687 -0.15588591462013623 -0.24231045379507693
857437500.0 -0.19324778821763328 -0.18962847169357075 0.09223270172200013 0.13452916981640614 0.09173547781003752 0.13470643235517885 -0.155391344641119 -0.24111803032737747
858125000.0 -0.19152613503082724 -0.18955859830244168 0.09538204768232285 0.13198017252337926 0.09492452428641505 0.13221885684454715 -0.15519016475892455 -0.23980483692769503
858812500.0 -0.18990266426613905 -0.1891601119467798 0.09839266526622935 0.1294371568960431 0.09791668318435008 0.12983363231383624 -0.15515918723402197 -0.23863921771611202
859500000.0 -0.18837417202348072 -0.18903968130439974 0.10140604225794335 0.12672202172199043 0.10090988928044528 0.12729023170955764 -0.15520205015685798 -0.2373650491142341
860187500.0 -0.1870045257379236 -0.1889809125995055 0.10423911238564079 0.12412955012112344 0.10384825899853756 0.12478965160107121 -0.15543115220216347 -0.23635681860408872
860875000.0 -0.1854588857696426 -0.18869693715425082 0.106985460166978 0.12134146197637856 0.10678397887910267 0.12216156730143142 -0.1558568287647144 -0.23547774604816923
861562500.0 -0.18405647055011307 -0.18858596135207842 0.10968919850482907 0.11864507855294591 0.10959054571229715 0.11959468069225898 -0.15636468651553365 -0.23473115132715047
862250000.0 -0.1826387089969911 -0.18847776936799918 0.11220706683359101 0.11587286648686787 0.11227829627972048 0.11695981228289926 -0.15696418865155112 -0.23408734404944337
862937500.0 -0.18107567046977746 -0.18825980609061901 0.11471084137120596 0.11310158645329287 0.1150106724372497 0.11422235252352692 -0.1575902626187495 -0.23362197365084753
863625000.0 -0.1798322016850664 -0.18804428803009635 0.1172207999344168 0.11034911409170971 0.11777126113392807 0.11137242305486378 -0.15835689884576967 -0.23352904031718993
864312500.0 -0.17861572166984815 -0.1877212721367019 0.11964527494960117 0.10760282972718561 0.12050115486158278 0.10857278477729941 -0.15896119075807863 -0.2335301689705934
865000000.0 -0.177452807571054 -0.18736537796948724 0.12205656493900718 0.10476368411618242 0.12305068772533963 0.10561242967559763 -0.15976512961217731 -0.23349103935654641
865687500.0 -0.17623019090699016 -0.18687874991469208 0.12444708582196654 0.10187133960456084 0.12566640698320147 0.1025372268882284 -0.16058526430237205 -0.23391004042355462
866375000.0 -0.17503163350161208 -0.18624713532161744 0.12679233189537897 0.09891810298449347 0.12818961077748667 0.09931952644652013 -0.1610418249306983 -0.2340466870510989
867062500.0 -0.1741524497675361 -0.18559236986492747 0.129102521573558 0.09596692298720447 0.13065336412082323 0.0960754618024962 -0.16160192669227347 -0.2346188955412224
867750000.0 -0.17293546601543047 -0.18498963694982215 0.13141251718052824 0.09298474377263106 0.13296272949498705 0.09268868329655616 -0.16193067656167012 -0.2351200340418142
868437500.0 -0.17170188005786347 -0.1841759429789386 0.1335418893112737 0.08989204639098548 0.13518008017959243 0.08928102677306521 -0.16233064336716016 -0.23557965855738222
869125000.0 -0.17075108061820263 -0.18347398401804443 0.13573979439754158 0.08667187988293863 0.1372540590597643 0.08578072152101074 -0.16240088591381172 -0.23605981939043835
869812500.0 -0.16956964075166778 -0.182644873147736 0.13784663347798065 0.08347728163873108 0.13920694515491988 0.0821451162941764 -0.1623938352192969 -0.23627907335223836
870500000.0 -0.16834064148576766 -0.18186351017178906 0.13991120716020242 0.08022642839139936 0.1410073008901712 0.07849951564554654 -0.16222568507006188 -0.23653682370752582
871187500.0 -0.16723263767197863 -0.1810511795711659 0.14188630707123456 0.07688778180768129 0.1426560755569958 0.07494501178974089 -0.161799269238352 -0.23661677545769907
871875000.0 -0.1661451820472207 -0.1802910434098349 0.14367549626505377 0.0732755220989809 0.1440655295229812 0.07119823447677778 -0.16135473768001363 -0.23621445023137466
872562500.0 -0.1650326816014995 -0.17952071128828778 0.1455609244917697 0.06971567559761742 0.145388264670864 0.0675962300662339 -0.16075551076744715 -0.23603723055555684
873250000.0 -0.16393980920602472 -0.1789355018398057 0.14718822034140297 0.06621972025788297 0.14658676072450766 0.06404737261864576 -0.16007803403834858 -0.23540716181236146
873937500.0 -0.1628482177949854 -0.17844837932750868 0.14878841466116147 0.062414635586058885 0.14768224011844733 0.06054314559830458 -0.15952140774381773 -0.23466370813747986
874625000.0 -0.16186307444153908 -0.17796514735494132 0.15029369700226666 0.0587321807729452 0.14872448603782454 0.057100415230269576 -0.15862622067159796 -0.23348243108212263
875312500.0 -0.16098316930673282 -0.1775775221360376 0.1516513193814423 0.05479873395407632 0.1497351696297995 0.05362693651934131 -0.1579145557875532 -0.23215271001210644
876000000.0 -0.1601508130674097 -0.17724829727357302 0.15294073120337098 0.05090609433716405 0.15065447434935075 0.05018749782021406 -0.15720059746116608 -0.23062330802261205
876687500.0 -0.1594136509910917 -0.17685860515973284 0.15396208125959387 0.04699714188010482 0.15163420054104748 0.04685040242205221 -0.15661540606346538 -0.22892603572013082
877375000.0 -0.15866257781052015 -0.1766695140407008 0.15508714052991823 0.04323165675316167 0.15268041505039157 0.04352241207968129 -0.15608917241680031 -0.22729397521770905
878062500.0 -0.15808745904717614 -0.17632424446799644 0.15589735592951426 0.03922396593668189 0.1536280691960276 0.04015133427069799 -0.1556167562677235 -0.22539909889013615
878750000.0 -0.15746610833602512 -0.17614421120339366 0.1565970922283458 0.035198634781121445 0.15464427461872848 0.03665991512447222 -0.1554543406889308 -0.22342376218023274
879437500.0 -0.15683475859182378 -0.17587184624564478 0.1571582443670976 0.031282447159426865 0.15561423855545706 0.03318075492672734 -0.15543687611064397 -0.2213888555251102
880125000.0 -0.15624055767672174 -0.17568540380670247 0.1576608967355967 0.0274060225489517 0.15658242328332048 0.0296123400628165 -0.15553806006140528 -0.2193967405856503
880812500.0 -0.15569212405694352 -0.17547856832371536 0.15792355008499268 0.023652655267369333 0.15749836841605674 0.025986880584844406 -0.15569211138044142 -0.21771678249345178
881500000.0 -0.15500769061809597 -0.1751661444852856 0.15806822869952833 0.019858122820041547 0.15832134676364515 0.022232976473464283 -0.1561880601232819 -0.2157659762478258
882187500.0 -0.15424440655759628 -0.1749772305011249 0.15825346526409612 0.01598227801867844 0.1590362551696775 0.018306685870139245 -0.15695511772356532 -0.21423497192746255
882875000.0 -0.15342883648643374 -0.1747467030213475 0.15836038347381684 0.012361056837477825 0.15962632178829475 0.014373887739848844 -0.1576678156563252 -0.21265874246592126
883562500.0 -0.1525116942252265 -0.17459437917308213 0.15830114276986382 0.00871466878154948 0.16013035856507535 0.01038633119150676 -0.15857775930346255 -0.21134299839590473
884250000.0 -0.15152255431687972 -0.17451699171219887 0.15824308683345803 0.005049265643691 0.1603211791924722 0.006282049743262805 -0.15966951780678587 -0.21012374373414167
884937500.0 -0.15036564042517267 -0.17448000702608338 0.15798797568060555 0.0013950736018092488 0.16041724545014946 0.0021599575617875094 -0.1608351158141259 -0.20909265446681413
885625000.0 -0.14914355424017756 -0.17438222649788945 0.15774735821871694 -0.002063991941463357 0.16024834276468053 -0.001956576126338117 -0.16219197293219986 -0.20837920843218366
886312500.0 -0.14804448617212435 -0.17457490788243704 0.15753129909306315 -0.0056309044452614474 0.16002729240555041 -0.006038776764948244 -0.16355858597813727 -0.20776125616530727
887000000.0 -0.14671134527469407 -0.17475756308732635 0.15718035842016598 -0.00909141516255409 0.15954215416638776 -0.010039586109838936 -0.16490967029065978 -0.2072831641221016
887687500.0 -0.14527799735379585 -0.1749821207082902 0.15685903438242388 -0.012580340894577534 0.1588872200750504 -0.014071186123102097 -0.16625095842217663 -0.20686094652936918
888375000.0 -0.14390042263479538 -0.1753903092770968 0.15639710330339004 -0.016195067454300136 0.1580540790551858 -0.017925471663069195 -0.16746352686941973 -0.20669519051615656
889062500.0 -0.14257515234966753 -0.17574946126280114 0.15605362009417736 -0.019655956975521673 0.15718757384178209 -0.02169495964337595 -0.16881607891097197 -0.20655922377227784
889750000.0 -0.14123868736618309 -0.1761878544677221 0.1554878283225593 -0.023092003417272997 0.1561781345434909 -0.025338310125283037 -0.16984133913346006 -0.20646329953700432
890437500.0 -0.13996766313056094 -0.17666865242222507 0.15501815007495512 -0.026544118331333726 0.15509856091317895 -0.028795067604782152 -0.17070161845603984 -0.20642225545019482
891125000.0 -0.13868957367198392 -0.17703153463431698 0.154323017464636 -0.02995188483992285 0.15392611471880463 -0.032257496388367654 -0.17136810176062034 -0.20649100152184083
891812500.0 -0.1375258833031442 -0.177565364981168 0.15365698964289368 -0.03349594469213209 0.15276367782128547 -0.03552724221899716 -0.1718189559020554 -0.20636763359882357
892500000.0 -0.1364378742627945 -0.17794195820700343 0.15297839004564873 -0.036926287213959304 0.15164646395441336 -0.03870800414075538 -0.17200296573405813 -0.20635863110657143
893187500.0 -0.13599846464417292 -0.17843650251716336 0.15253792248981837 -0.04074457484296369 0.15077188401078626 -0.04213116895334189 -0.17257686854264304 -0.20648485844354428
893875000.0 -0.13497131780265606 -0.17876173784354107 0.1514005848416833 -0.04412410115028298 0.1496406407395036 -0.045261770712856135 -0.17230237148332928 -0.20612987040369884
894562500.0 -0.13397041660835704 -0.17891408529985967 0.15050812492109644 -0.04787829747789068 0.14858253384740153 -0.048258497694875856 -0.17216747105619354 -0.20590648662701078
895250000.0 -0.13290189081707762 -0.1790021592960474 0.14931037496676058 -0.05132155467890954 0.1475372231536233 -0.051304169878697556 -0.1716466520922326 -0.20546562775128718
895937500.0 -0.13190501624779696 -0.1791524944476847 0.1482036749137148 -0.05481050873461668 0.1464928846907047 -0.05450640058398054 -0.17116398679286737 -0.20516084873578944
896625000.0 -0.13103244379208973 -0.17897703218964234 0.14690470350999757 -0.05831978715357418 0.14528442355971236 -0.057634026235212 -0.17054611815240492 -0.20456239576053953
897312500.0 -0.1299621188446881 -0.17892556073973598 0.14544949324111112 -0.06193583030891964 0.14415582456855025 -0.060835668015979116 -0.16986198568304356 -0.20375722631817356
898000000.0 -0.12898870054785827 -0.1787469574480036 0.14400448377647407 -0.06532055112670179 0.14307912718434823 -0.06416568190862697 -0.1689036788039271 -0.20315633700967026
898687500.0 -0.12796765162074525 -0.17884002047637576 0.14240838465597988 -0.06881579518936677 0.14178918926529177 -0.06742908899705705 -0.16820938035184976 -0.20233435375001282
899375000.0 -0.12679927522885537 -0.1787012929038756 0.14065801002611406 -0.0721580358554267 0.14032352026239403 -0.07081396664150243 -0.16760767749200248 -0.2014296774353452
900062500.0 -0.1258348528329131 -0.1786710863055148 0.13869536862076068 -0.07542787475218851 0.13876749386739365 -0.07419992658732621 -0.1668273556394368 -0.2005603021280852
900750000.0 -0.12483544146974909 -0.17877555585884083 0.13670599055898655 -0.07860843749982825 0.13707138417116888 -0.07754909845544217 -0.16625036167411225 -0.1994362003905143
901437500.0 -0.12387576431173199 -0.17895685331910216 0.1345976201903782 -0.08167193999277979 0.13519486115297466 -0.08085932813767117 -0.16597170427951172 -0.19853588023988747
902125000.0 -0.12296773419140629 -0.17923328497167457 0.13243156792493005 -0.08464079442343266 0.1331236449179854 -0.0840968276209923 -0.16557977026622808 -0.19743730981947233
902812500.0 -0.12216673200048234 -0.17957121705285084 0.13008618556706908 -0.08750487843603322 0.13085069975738817 -0.08721123243997825 -0.1654244119850953 -0.1964748428382914
903500000.0 -0.1214350439749649 -0.18001666266438993 0.12783305667215591 -0.09022452405896857 0.12854153414272337 -0.09026138949438454 -0.16560242361028396 -0.19549361206444638
904187500.0 -0.12089590457559644 -0.18055027636363688 0.12544257154537722 -0.09296197185283585 0.12616533474367073 -0.09317623164771686 -0.1659492365473185 -0.19450218005775272
904875000.0 -0.12046611512057083 -0.18122373056893937 0.12301745037545052 -0.09558265259069076 0.12362392922308936 -0.0958762191644735 -0.1664184867138856 -0.19363153429723884
905562500.0 -0.1200376679992494 -0.1818268783615028 0.12054511992095623 -0.09806013620015418 0.12104080354437527 -0.09846396940380357 -0.1670389620183195 -0.1928260867691822
906250000.0 -0.11995940014892527 -0.1826204700841548 0.1181108328650194 -0.10057786488335486 0.11839959752356857 -0.10086354242017519 -0.16791363006870957 -0.19204040954711693
906937500.0 -0.1197496688464078 -0.18322320496213623 0.11565996030767714 -0.10284570931602181 0.1158363891819958 -0.10322154167768308 -0.16891836823745465 -0.19105980092300842
907625000.0 -0.11978816119034491 -0.18381647799467105 0.11313997264171238 -0.10512081687122718 0.11326808930555285 -0.1053673353764363 -0.16987099237396516 -0.19035093540339695
908312500.0 -0.11987638523496841 -0.18446305310491865 0.1107999486525973 -0.10721770909009297 0.11071905751379128 -0.10743136223263172 -0.17081128037420254 -0.18967485995426353
909000000.0 -0.1199533525337257 -0.18504361089221769 0.10824758580174786 -0.10931560593018307 0.10834274305536962 -0.10935490460079583 -0.1717976052881425 -0.18894480129898272
909687500.0 -0.120263910558678 -0.1856316831719673 0.10582352796070875 -0.1113467940681833 0.10597110821946046 -0.11136817500865172 -0.17248048355683965 -0.18853551421689735
910375000.0 -0.12037596750615281 -0.18612780148658642 0.1035268307529272 -0.11335707049578095 0.10362960732138803 -0.11329689452265243 -0.17331880324882365 -0.18802163149984036
911062500.0 -0.12037875684228302 -0.18674525174205303 0.10116191597714902 -0.11526966918824552 0.10142767815204809 -0.1152462823338194 -0.17383674900390148 -0.1878062580787511
911750000.0 -0.12040960531186569 -0.18724341952749998 0.09883406050812862 -0.11722391312189696 0.09914462508614386 -0.11721444300529898 -0.17419404221589307 -0.18736938616102183
912437500.0 -0.12053162535554027 -0.1877896612513644 0.09643493270198719 -0.11911441227859369 0.09690208157061822 -0.11926735206976001 -0.17436879532566305 -0.18736072104122362
913125000.0 -0.12049978030773559 -0.18834877942607856 0.09417758439119236 -0.12095510376717862 0.09457164395573033 -0.12121067088426031 -0.1744017970281096 -0.18724703449174424
913812500.0 -0.12039335358461625 -0.1888977038174167 0.0917846971598246 -0.12290749895913318 0.0922006501363406 -0.12336057380629976 -0.17431739470502952 -0.1872139995848653
914500000.0 -0.12018762858201709 -0.18955537920604806 0.08929234083858288 -0.1248080291004483 0.08971824166313576 -0.1254613456345856 -0.17398660449053027 -0.18706317157804503
915187500.0 -0.12002235678682041 -0.19024016556867326 0.08680550939703352 -0.1267637184265122 0.08718176488681639 -0.1275215323570338 -0.17355958414677622 -0.1871634038631228
915875000.0 -0.11966543601623447 -0.19103990377349314 0.08424817371315182 -0.128647240979163 0.08452506167650567 -0.12956065074743972 -0.17298055263058024 -0.18704651931366995
916562500.0 -0.11943235061743279 -0.19173013780165826 0.08168230352723675 -0.13061293220040976 0.08170326606923885 -0.1316119661871653 -0.1723438417398772 -0.18711753543639695
917250000.0 -0.11917668203154469 -0.19245514074597994 0.07909500879752658 -0.1325260925829636 0.0788795571142962 -0.13357072492657435 -0.1711826992878318 -0.1870355888277249
917937500.0 -0.11891355999735208 -0.1934038915693411 0.07626082076457816 -0.13444873210705666 0.07586971212806945 -0.13546754893809504 -0.1703587828337348 -0.18686780454025895
918625000.0 -0.11864745905769253 -0.19419738338945244 0.07347713594663953 -0.13624583861387515 0.07284829950108561 -0.13717165006612778 -0.1691892614011676 -0.18691438292823928
919312500.0 -0.11846804923035044 -0.19495772402708036 0.07056010484938678 -0.13794121441717141 0.06965277551206366 -0.138794086556593 -0.1679798106079918 -0.18670850139344033
920000000.0 -0.11838853364589551 -0.19580062823634461 0.06744081229362188 -0.13973876604350596 0.06659352704944471 -0.14026265265194132 -0.16683393979212352 -0.1863720863010071
920687500.0 -0.11833202587665356 -0.196665826718635 0.06454551102455325 -0.1412878732914261 0.06339477618285372 -0.1415620911791094 -0.16556127786954908 -0.18603479637178758
921375000.0 -0.1182580566772473 -0.19733695983461794 0.0614884107790372 -0.14278355232045317 0.06022271831095875 -0.14278990791672083 -0.16414534662196453 -0.18546619952739488
922062500.0 -0.11845661910194691 -0.19799128923112452 0.05825105734213276 -0.1441917402444105 0.05708783441066481 -0.14392538556913895 -0.16304946220770442 -0.18482569508250127
922750000.0 -0.118447215070644 -0.1985052219636642 0.05502801637876954 -0.14539899313464605 0.05392493509098526 -0.14493865413342688 -0.1619005389009568 -0.18385595951209313
923437500.0 -0.11861261179352457 -0.1988746455947452 0.051847644656829436 -0.14663182995762986 0.0507966119503194 -0.14590077593034598 -0.16089429181470452 -0.18291881794583972
924125000.0 -0.11872028001997993 -0.1991456541896888 0.04871411752730524 -0.14767422360711327 0.04784962521219258 -0.1468230233009051 -0.15979377649049115 -0.1819176360759728
924812500.0 -0.11892567885085116 -0.19954032564312513 0.04551985579257209 -0.1487052556603234 0.04477229838945244 -0.14768311252177654 -0.1589796152346232 -0.18055067000195238
925500000.0 -0.11904299689238614 -0.1996118627476261 0.042174550516957975 -0.14956985843905948 0.04170483989587695 -0.14855658880392936 -0.15840724331915404 -0.17912525714384847
926187500.0 -0.11915900030785169 -0.19978549940329302 0.038898718104357306 -0.1503950353344492 0.03870864922719756 -0.14932086274498824 -0.15791868197079184 -0.1778027573738353
926875000.0 -0.11928775433768503 -0.19980876771442516 0.03570162596370908 -0.15123343708758455 0.035746218164511095 -0.1501313435574383 -0.15748951585720292 -0.17643873345955677
927562500.0 -0.11951591659917879 -0.19973739549523678 0.03247200667324891 -0.1519240042449331 0.03278965319175954 -0.15095605175069174 -0.1572075141808912 -0.1748537304185376
928250000.0 -0.11958659124331768 -0.19978783401642608 0.029190163001196628 -0.15261414311825555 0.02983422858909148 -0.15179590917767485 -0.15716879939385753 -0.17343137587467322
928937500.0 -0.11966210226149875 -0.1996837988544079 0.025983268231067454 -0.1531721618380281 0.02675879215870942 -0.15259855668847458 -0.15718480172905538 -0.17196424508967822
929625000.0 -0.11988171798398838 -0.19977983579013617 0.02283425627829552 -0.1538236088648807 0.023833924868863685 -0.15335250896276154 -0.1570752683363045 -0.17045829163108894
930312500.0 -0.12005521999449403 -0.19992393341755904 0.01967210121001558 -0.15433718708837066 0.020643965053122253 -0.15423168224162762 -0.15741640392018053 -0.16921209187030156
931000000.0 -0.12019120876908013 -0.19981205093557203 0.016372623672271144 -0.15490412135824064 0.017478240408970107 -0.15488104181107928 -0.15745759998303524 -0.1679597118048534
931687500.0 -0.12055760741270378 -0.20008469547493707 0.013211855688443777 -0.1552851808184315 0.01422896730524538 -0.15568195727480466 -0.15780919730534207 -0.16691592470501038
932375000.0 -0.12082260942883458 -0.20018677746422375 0.009981842315422526 -0.15569589674335782 0.010931868843634882 -0.15619126385682688 -0.15806667420998907 -0.16589445718295054
933062500.0 -0.12125958321056413 -0.200351149373169 0.006634231123718607 -0.1561052368142987 0.007486445039802377 -0.15680619582347738 -0.15827415087908872 -0.16522526858424433
933750000.0 -0.12184124499289967 -0.20053792214924804 0.003456590862301899 -0.1563204105387697 0.004045540753121775 -0.15728403360579177 -0.15829329547611895 -0.1644238148732626
934437500.0 -0.12240336212386306 -0.20068325277007887 8.924492490813421e-05 -0.1566623694900151 0.0005648226184657814 -0.15758599323144437 -0.15852948794607796 -0.16384173523789852
935125000.0 -0.12310085616793677 -0.20095176854796062 -0.0030807421552332516 -0.15681829070350292 -0.0029359769217180225 -0.15776110203001523 -0.15828883313517525 -0.16366250651135497
935812500.0 -0.12370750360005854 -0.20126252766274322 -0.006269473644923137 -0.15701086622161226 -0.006514605929601439 -0.15798747890606724 -0.15829790644728253 -0.16331599085426826
936500000.0 -0.12462013177057998 -0.20166051156062914 -0.00962312298828798 -0.15719876939920682 -0.010057211513660234 -0.15807793450091046 -0.15810512140156446 -0.16314657757417306
937187500.0 -0.12540669711973154 -0.20196343493755406 -0.013013902372706847 -0.15723237505916124 -0.013609405124801544 -0.1580408336167103 -0.15790157962733267 -0.16302193635062498
937875000.0 -0.12639636392539202 -0.20217331092362573 -0.01627102878273564 -0.1572240238921371 -0.01719125642737311 -0.15790973516509907 -0.15743191918456728 -0.1632618778838837
938562500.0 -0.1271190604295954 -0.20230507693967326 -0.01967625707272008 -0.1571184789564942 -0.02062814266693264 -0.1576384456060168 -0.15681511324351782 -0.16346967245829216
939250000.0 -0.1279539747626989 -0.20262182244863564 -0.023009594640441774 -0.156968711022521 -0.02408542680377001 -0.15730749640885966 -0.15620186260237284 -0.16367486359293978
939937500.0 -0.1287952791664966 -0.20297387484602047 -0.026394708510410814 -0.1567043997831265 -0.02743425603908975 -0.1569418576482689 -0.15520119770726346 -0.16381413586251137
940625000.0 -0.12955584655303476 -0.20319317133938203 -0.029742191949051814 -0.15646532592598367 -0.030814748159223644 -0.15650102249068132 -0.15427680624362147 -0.1641666501861256
941312500.0 -0.130385370204022 -0.20344901958811137 -0.03326744325672005 -0.15609468181936043 -0.03416372749014879 -0.15598009282681793 -0.15321830818261573 -0.16426759611976663
942000000.0 -0.13095494080929243 -0.2037570271636592 -0.036646406937124676 -0.15572974002528842 -0.03738163876780747 -0.1553839584649885 -0.15204801196965453 -0.16458649080811705
942687500.0 -0.13163417261278365 -0.2040542352755232 -0.03995970475558618 -0.15522489844039492 -0.040656409701362924 -0.15487646610369307 -0.15073791464311714 -0.16476120715327403
943375000.0 -0.13231494119732695 -0.20430367832819646 -0.043442708695055385 -0.15471255080104995 -0.04397763155209123 -0.154177068026039 -0.1493868835506965 -0.16479070508553945
944062500.0 -0.1327217883867726 -0.20461200190377532 -0.04678488714491491 -0.1540329536946417 -0.04716312223598506 -0.15340246954682188 -0.14809534237323072 -0.1644966491406219
944750000.0 -0.13327987941048988 -0.20504670765193989 -0.050276853330814816 -0.15323884633379423 -0.050446357542640825 -0.1527219175092545 -0.14670170772012772 -0.16449328870207494
945437500.0 -0.13382856880463287 -0.20545323393482032 -0.05373787175150538 -0.1523944361793987 -0.053782830739907264 -0.15186073272529468 -0.14530468135675306 -0.1640956318498708
946125000.0 -0.13423322121296669 -0.20567564618786952 -0.05715358326095444 -0.1515102033375137 -0.05710221667674281 -0.1509663918127526 -0.1442107601593132 -0.16346549555291004
946812500.0 -0.13479019198693204 -0.2058937111710825 -0.06062921947916911 -0.15052690875227637 -0.06052695879620214 -0.15007787250076077 -0.14279121906986791 -0.1626432449705092
947500000.0 -0.13512615239821768 -0.20614549074628685 -0.06402530927455015 -0.149565139556845 -0.06386567489775082 -0.14906562598308692 -0.14157200347414622 -0.162058145409854
948187500.0 -0.13594909674745534 -0.20644229279341694 -0.06745214025773164 -0.14837030370088555 -0.06722629081382824 -0.14808503656122063 -0.14069936905325195 -0.16123940460426947
948875000.0 -0.13602646759246242 -0.20680265668373687 -0.07074283708155354 -0.14716214908155636 -0.07070559331629508 -0.14688540958316496 -0.13965615571089526 -0.16050176596076038
949562500.0 -0.13662959123088345 -0.20699352350267627 -0.07415847501016833 -0.14583612366400486 -0.07405658519607536 -0.1456818903114571 -0.1390629735348016 -0.15963585431444893
950250000.0 -0.13718615886591864 -0.20716762348456344 -0.07757255449034615 -0.1445034083164077 -0.0774367093046104 -0.1443387777574808 -0.13853073673015698 -0.15872372459460407
950937500.0 -0.1376275702876353 -0.20722240258500013 -0.08086939044876046 -0.142924152974412 -0.08087922107800384 -0.14293755020840504 -0.1381613502759592 -0.15787334934730848
951625000.0 -0.13814062798143917 -0.20716881901227044 -0.08420916029720994 -0.14142066621723717 -0.08423032252737851 -0.14140444090294824 -0.13795193844865247 -0.1571766271340071
952312500.0 -0.13841626365826004 -0.20734412642928857 -0.08747284364679547 -0.13978743787921577 -0.08754061418114172 -0.13978839557643727 -0.1378603889666193 -0.15665850612350746
953000000.0 -0.13898135785387097 -0.20730182706556305 -0.09079481814446068 -0.13799945269326439 -0.09088520614623082 -0.13810978974676044 -0.13795094583370915 -0.15622427996634722
953687500.0 -0.13937234924646696 -0.20722199673223532 -0.09401491996111196 -0.13628072999271887 -0.09413185532760944 -0.13626773129210484 -0.13816061304854435 -0.1558983930726589
954375000.0 -0.13970069772532154 -0.20728872366851034 -0.09726116373813873 -0.1345236587605583 -0.09736476236872578 -0.13442657957253099 -0.13855484962610076 -0.1557653751299262
955062500.0 -0.14015584309000445 -0.2071332078647196 -0.10039787842837462 -0.1325164534242932 -0.10053683464375557 -0.13247197871055708 -0.13875685143121838 -0.15564814736344407
955750000.0 -0.1406568942869872 -0.20673111140353198 -0.10356988392797012 -0.1303636187891712 -0.10370661395893423 -0.13034856524945695 -0.1395453722836742 -0.15584329261338814
956437500.0 -0.14103853789136916 -0.20684081709913799 -0.10681432518240472 -0.12835628922613246 -0.10679317027924448 -0.12829892368448875 -0.13991052738508108 -0.15626990307457067
957125000.0 -0.14159066380790428 -0.20669728144477154 -0.10988034292734512 -0.12622729967611704 -0.10986755385071091 -0.12607374079293837 -0.14041479331270737 -0.15683814833238052
957812500.0 -0.14208357434827285 -0.20653797064224705 -0.11285321480643319 -0.1239948422082789 -0.11286055091958383 -0.1239265043787457 -0.14077839907418122 -0.15753254967488434
958500000.0 -0.1424757008714156 -0.20630029665841257 -0.11596080817268394 -0.12164107214132414 -0.11589001903089886 -0.12149148178748008 -0.1411416373543145 -0.15839336960420813
959187500.0 -0.14300009303554312 -0.20632582293472973 -0.11880926471348181 -0.11932645183973423 -0.11889823389233203 -0.119193137171175 -0.14137382841910198 -0.15946470725605671
959875000.0 -0.14363495227227724 -0.20612615876674723 -0.1217786606723326 -0.11696545554835643 -0.1218457895237756 -0.11681114398897242 -0.14159143991424233 -0.16077558763929883
960562500.0 -0.1442972684410757 -0.20608141041638267 -0.12474924584496223 -0.11444793025819579 -0.124718942093775 -0.11429822514601899 -0.1414102004604211 -0.16197580656457017
961250000.0 -0.14498263077994564 -0.20589730945066748 -0.12756556519290554 -0.11183087664168599 -0.1275848921774839 -0.1117486178913707 -0.14117294672170774 -0.16348711618690973
961937500.0 -0.14552668468360896 -0.20587180057004284 -0.13027481293923415 -0.10919089903206011 -0.13031024569611493 -0.10909710031527005 -0.14096111595815308 -0.16490704630833772
962625000.0 -0.1461889108538215 -0.20574892282690627 -0.13310996358718727 -0.10649401116228399 -0.1330002456079888 -0.10637164219040475 -0.1404199817982709 -0.16636946679047454
963312500.0 -0.14700501036142816 -0.20572255528366043 -0.13580555015387902 -0.1037565606178455 -0.13575158088499764 -0.10363132839196172 -0.1398111368290289 -0.16781097053862826
964000000.0 -0.14774466535704198 -0.20571731784413677 -0.13840365299789878 -0.10085714716559945 -0.1384142301798319 -0.10075072868385174 -0.1390390172332464 -0.16914845797747324
964687500.0 -0.14845702206980113 -0.20577962284431325 -0.1409161969561211 -0.09781613211296325 -0.14097840654551344 -0.0977904733473739 -0.1380290199509067 -0.17051725953984906
965375000.0 -0.14923790679444687 -0.20592481971506488 -0.14337337620797827 -0.09476974106978231 -0.1433977860442811 -0.09487611610704344 -0.13672141534851895 -0.17149484139976892
966062500.0 -0.15005522792767012 -0.20604161037932744 -0.14585852589882373 -0.0915812420576925 -0.1458925009912887 -0.09174940070944532 -0.13559947639942455 -0.17276316776279885
966750000.0 -0.15076214522861303 -0.20622666626628247 -0.14808655436430623 -0.08850580960340856 -0.14823260970170263 -0.08861343168177951 -0.13443603030729653 -0.1737554226308777
967437500.0 -0.15172404652847257 -0.2064612598813007 -0.15042225842318188 -0.08517311027437617 -0.15051082199436278 -0.08537703649814392 -0.1332637995631449 -0.1743973848635109
968125000.0 -0.15251363826957104 -0.20675270245727 -0.1525048820496726 -0.08192915881566273 -0.15267395859396157 -0.08210701704530232 -0.13199685214287016 -0.1750289654802489
968812500.0 -0.15338148907538846 -0.20716441671204003 -0.15472629872942698 -0.07863354563151513 -0.15479453692628278 -0.07883659824719626 -0.13103290848498797 -0.17543942832042692
969500000.0 -0.1543542251302057 -0.20745999248009978 -0.1568094900899199 -0.07522977216133248 -0.15703709273191277 -0.07544080577813667 -0.1301391375273728 -0.17590672252501827
970187500.0 -0.15527993357090975 -0.20800888441996646 -0.15879614934207545 -0.071793391059193 -0.15898732703015675 -0.07211652307105781 -0.12920743718895966 -0.17584571751586006
970875000.0 -0.15632822978021932 -0.2086459063410627 -0.16080051423030017 -0.06836718853409374 -0.1610650380128931 -0.06871906415499919 -0.1287158930567735 -0.17598285839748973
971562500.0 -0.1574045460315398 -0.20909005490949836 -0.16267494497742863 -0.06502679910361114 -0.16303550823017476 -0.06521178614743567 -0.1281108679851739 -0.1759043707169292
972250000.0 -0.1584244986883977 -0.2097051585135576 -0.16448087709708292 -0.06152491231870461 -0.16492636079445053 -0.06171974919856728 -0.12796150769083467 -0.1756319341396968
972937500.0 -0.15950515456620315 -0.21025058075639652 -0.16619874596429107 -0.05799531892400625 -0.16676914142189203 -0.058157248211497106 -0.12791157027958264 -0.17559103889344543
973625000.0 -0.1607101458347477 -0.2107129563321642 -0.16791682988939516 -0.05442248625314702 -0.1685337978756641 -0.05444288359251264 -0.1282613788513203 -0.17526117290359836
974312500.0 -0.16187372150149915 -0.2112163223965638 -0.16963280021355565 -0.050798286863684435 -0.1702769478843845 -0.05072261521230788 -0.1287126231081134 -0.17497696882808814
975000000.0 -0.1629573035114512 -0.2116613558458304 -0.17131339807025556 -0.04698864836998516 -0.17196625014814743 -0.046848863359201756 -0.12956842689195863 -0.17473371339522914
975687500.0 -0.16423853940765037 -0.2117246333056709 -0.17295343529549909 -0.043248485154020556 -0.17367078669210925 -0.04288716849264149 -0.13044883046925151 -0.17459192888276764
976375000.0 -0.16534449895846792 -0.21193942108924319 -0.17444460685243615 -0.03946261215791325 -0.17523644287224188 -0.03876980112247694 -0.13134701662231807 -0.1742843473722102
977062500.0 -0.16647465439614542 -0.21216193340726047 -0.17587032033102204 -0.03540711953767748 -0.17661161190005464 -0.03462218906997856 -0.1325097133407199 -0.17419801662276796
977750000.0 -0.16777712383099058 -0.21232984958509044 -0.17723418494212156 -0.03139335529052291 -0.17804865229050496 -0.030448344149916543 -0.13382252081162754 -0.1742709343934848
978437500.0 -0.16879311179950351 -0.21223342333966677 -0.17865141798829512 -0.02712527638870048 -0.1791119124410073 -0.02603242318718336 -0.13507580946509606 -0.17441549908884782
979125000.0 -0.16994423650025586 -0.21235929362722958 -0.17969313742697332 -0.022936596889412925 -0.18012382095528415 -0.021660193663554046 -0.13621116661917562 -0.17460132929647415
979812500.0 -0.17086242233716417 -0.21208781263677032 -0.18082335653121245 -0.018508811224934238 -0.18099238633709852 -0.017139077261725495 -0.1374884668417632 -0.17519218539657158
980500000.0 -0.17190929396087073 -0.21209597519423243 -0.18181625826206846 -0.01399701705549172 -0.1816845994877479 -0.012553269873548399 -0.13855323113392404 -0.17561720432946853
981187500.0 -0.1729857418389918 -0.21191878171988374 -0.1827320354707062 -0.009475342271337289 -0.18217467928316838 -0.00807023864175523 -0.13939609604538195 -0.1763121565359999
981875000.0 -0.1739940364266071 -0.21168535928451007 -0.18347022312397981 -0.004832180415341624 -0.18248594703418006 -0.00345898450553038 -0.14017284105576797 -0.17715266900077722
982562500.0 -0.17540423353543344 -0.21135236132987006 -0.1839605613090649 -8.605656979773806e-05 -0.18276302049546514 0.0011135469106857273 -0.140842670362095 -0.17808524866814712
983250000.0 -0.1762575605288672 -0.21104389419203992 -0.18433703714115388 0.0047962434119759745 -0.18277775156953646 0.005531527802798245 -0.141148153062075 -0.17905313580401688
983937500.0 -0.17738412841000797 -0.21077707861699757 -0.18445279989292623 0.00958547663422306 -0.18271769145244826 0.0100133790898868 -0.14148526744196796 -0.1800822578158068
984625000.0 -0.17892338339441757 -0.2105528568422067 -0.18432606352144426 0.014443947453486464 -0.18238873363964725 0.014496398865434898 -0.14148180621672266 -0.18110592893043548
985312500.0 -0.18038158906290291 -0.20994140354649432 -0.18396696413848326 0.019289585781749555 -0.18204236324042325 0.018909125246892776 -0.1412992316770063 -0.1821975856820082
986000000.0 -0.18159471278709116 -0.20940494857940173 -0.1834567628601373 0.0241038000200492 -0.18159923476443438 0.023168977338712638 -0.14104501449054582 -0.18303756344022284
986687500.0 -0.18327756526045855 -0.20879241762304396 -0.18282485093419967 0.02895617491060722 -0.18111679990723348 0.02749891085132556 -0.1405948155685833 -0.18389381871160088
987375000.0 -0.18485110539042213 -0.20793315337894622 -0.18180445787563584 0.03346781619413359 -0.180495429318584 0.03170564998110018 -0.1399562669055491 -0.18459747923123607
988062500.0 -0.18643147413482405 -0.20714564824330728 -0.18085093629872845 0.03810390353187432 -0.17995674021898458 0.03596495189298133 -0.1395061246440222 -0.18540653074285512
988750000.0 -0.1881758791652876 -0.20617416802005747 -0.1796843090399448 0.042643286435018815 -0.17939186191333098 0.04030797494946046 -0.13902680698134998 -0.18561524987522873
989437500.0 -0.1898425147879224 -0.20499599710653132 -0.17832654998419167 0.04700628420187002 -0.17868539306727815 0.04453773572414002 -0.13859597038463334 -0.18587835379388704
990125000.0 -0.19166006159521679 -0.20360494263024564 -0.17691453586797826 0.051268031044518755 -0.17790274765505867 0.04892400111566443 -0.13822391216168875 -0.18590326736397522
990812500.0 -0.19303552503017987 -0.20236633093047032 -0.17554405121328343 0.05545118122174404 -0.17698293940563256 0.05333317976559106 -0.13804406915703107 -0.18567919365186306
991500000.0 -0.19464111342321086 -0.20102859715628857 -0.17393898805513155 0.05945983600918202 -0.17604504101063478 0.057827385266821754 -0.13785842308865986 -0.18526619193428595
992187500.0 -0.1960408459968616 -0.19951453084397233 -0.1723565453530044 0.06336499647986397 -0.1749579716563781 0.062301804004838424 -0.13796960419866852 -0.18471147335522736
992875000.0 -0.19734680466473842 -0.19792916747429712 -0.1708067977775746 0.06735555124659101 -0.17373103605682905 0.0669325120639596 -0.13839906062173107 -0.18399467912530484
993562500.0 -0.19847370547972007 -0.1964945852131894 -0.16916823590706315 0.07122633789042523 -0.172149384607437 0.07140135945686872 -0.13868453228536104 -0.18318322878768153
994250000.0 -0.19974144141999234 -0.19511689848834807 -0.16751089883229464 0.07502705563762399 -0.17056457949871945 0.07595470989481126 -0.13927177737787555 -0.18198830477894376
994937500.0 -0.20078206686275638 -0.19369392523106516 -0.16597903908753342 0.07896274667916135 -0.16864455125041342 0.08045837539299092 -0.14016267580768443 -0.18083815830541344
995625000.0 -0.2016686708830471 -0.19234218813770657 -0.16425417732034733 0.08280166463447376 -0.16662193126828517 0.08489505350939609 -0.14125066044086823 -0.17974985922059109
996312500.0 -0.20267150708120182 -0.19117160423710294 -0.16241874074818083 0.08665467222346854 -0.16423529384931074 0.089298435401352 -0.14245667525008743 -0.17839199691765414
997000000.0 -0.20359654146139358 -0.18994788728538842 -0.16058463397396014 0.09056271127406672 -0.161694014418756 0.09347860550922632 -0.1438225786207488 -0.17725935121598996
997687500.0 -0.20443782901782084 -0.18888444060101858 -0.15843020852577658 0.09435746199949921 -0.15898668893602258 0.09755715206015551 -0.14500363587564458 -0.17610164661320835
998375000.0 -0.20539228463673756 -0.18777827586375487 -0.1563507780294333 0.0982130783282338 -0.1561363479685669 0.1015048824247563 -0.14645044442971777 -0.175131130390395
999062500.0 -0.206396484201978 -0.18689601817188184 -0.15432750881898635 0.10209552204493534 -0.15312943367375392 0.1052674535840804 -0.1479486184305787 -0.17441199726552764
999750000.0 -0.20727292740048167 -0.1859218015697879 -0.15186856779577015 0.10592696226638164 -0.1500714255126929 0.10874665549146867 -0.14934519227715143 -0.17369090046987343
1000438000.0 -0.20831073046112195 -0.18508348307203043 -0.1494810477390447 0.10988593073421082 -0.14694081686004715 0.11215597484741949 -0.15075801048836632 -0.1731809133190812
1001125000.0 -0.2094317340096105 -0.18398615435693322 -0.1467821306874023 0.1137163609882845 -0.14394211343655317 0.11545065505723169 -0.15219886345586617 -0.17313214398024496
1001812000.0 -0.21041363784167555 -0.18279802044895918 -0.1440322132222038 0.11747940383868424 -0.14082711103116952 0.11854470121384639 -0.15340263313362326 -0.17314050673170342
1002500000.0 -0.21136603687621366 -0.18160187868319574 -0.14100507363824727 0.12113046599196312 -0.13768868085609348 0.12144909509383028 -0.15454411851469615 -0.17334764744148198
1003188000.0 -0.21232830351091223 -0.1803233962286137 -0.13789263905316088 0.12466438607720909 -0.1346022412255909 0.12431512300038602 -0.15546594922804696 -0.17390520000329612
1003875000.0 -0.2132691683113285 -0.17897967608910403 -0.13461431832493997 0.1281488292718093 -0.13158724790757448 0.12709899456696627 -0.15644864512361312 -0.17463403038416778
1004562000.0 -0.213780227355499 -0.17748537870632017 -0.13126360590672012 0.13163494427231548 -0.1286358817021016 0.12980675650752493 -0.15730065455650954 -0.17560945126173433
1005250000.0 -0.21448509548371658 -0.17600080606894564 -0.12774059424835602 0.13480663961923461 -0.1257231592913002 0.13250058084068964 -0.15783903861315352 -0.1765681843788921
1005938000.0 -0.21490011496750797 -0.174292623145906 -0.12400865892662985 0.13784671104689147 -0.1226895250141141 0.13516871427585478 -0.15841439946341596 -0.17762912494579458
1006625000.0 -0.21516375181768913 -0.17272126892527268 -0.1203506381214949 0.14073693629659048 -0.11964047911709062 0.13776408486111053 -0.15872832887756708 -0.17859670244239043
1007312000.0 -0.21542134324042167 -0.17105330011464395 -0.11648353780168898 0.14342597713300484 -0.11660004198199031 0.14046684010740404 -0.15894412993232535 -0.17966540200035938
1008000000.0 -0.21537992044924248 -0.1692878755149177 -0.11256867729324721 0.14613095568889115 -0.11341167195801251 0.1430925992720526 -0.15918509954516152 -0.18063728205225277
1008688000.0 -0.21526808625077654 -0.16767504274268033 -0.1087244147199356 0.14856674334124678 -0.11016180114891666 0.14576195131481906 -0.1594540842346856 -0.18162802504454073
1009375000.0 -0.21504541923729126 -0.16603930841430908 -0.10466746522963095 0.15075363246803639 -0.10672972946977954 0.14852276366844283 -0.15963183699307262 -0.1821568297175407
1010062000.0 -0.21478366196803367 -0.16449347035488895 -0.10075303628039496 0.15272797482634345 -0.10320628247088208 0.15116965398039395 -0.15956098672232724 -0.18290462970999935
1010750000.0 -0.21449782956484825 -0.16315911212296078 -0.09679396240679417 0.15464210588512617 -0.09955136289227524 0.1537818602267293 -0.15979322593404743 -0.18336668013395355
1011438000.0 -0.2142507637465415 -0.16169246211242103 -0.09286235254825918 0.156443250688179 -0.09560536017701722 0.15620576851064885 -0.15997174583907997 -0.18352364336798072
1012125000.0 -0.21383736031342182 -0.1602819191575691 -0.08887764496715787 0.15796673011397763 -0.09163042820101677 0.15848817883004465 -0.16021119407345544 -0.1835482271419775
1012812000.0 -0.21363583106923537 -0.15900725186542913 -0.08513679056095656 0.1594948560373584 -0.08752186609145043 0.16065834115069516 -0.16032383146574714 -0.18315174320518135
1013500000.0 -0.21346543439988583 -0.15763990654875362 -0.08134736357504624 0.16086295108022464 -0.08327309027881538 0.16256509432669805 -0.1605157159881003 -0.18274073638307192
1014188000.0 -0.2134685578602211 -0.15641166217879776 -0.07748696020397372 0.1622385111361578 -0.07901540165184046 0.1644405140703004 -0.16093623346529767 -0.1821257507398125
1014875000.0 -0.21340833081790028 -0.15498781068167647 -0.07369815187227131 0.16349596467931846 -0.07468119172043379 0.16593477593169242 -0.16154300943613958 -0.1812670025065718
1015562000.0 -0.21354087080750217 -0.15343582550949222 -0.06988276124013763 0.16471335092554895 -0.0703417170948675 0.16730171552516268 -0.16209569908444496 -0.18037830121899123
1016250000.0 -0.2137206933573728 -0.15209487940096783 -0.06612328976707563 0.16586327619813462 -0.06610063691259448 0.16844359136139642 -0.16283873477085262 -0.1792998146793541
1016938000.0 -0.2140385456457895 -0.15053111276478778 -0.062385438992008026 0.16701442526599425 -0.06182381587519799 0.1693457377388432 -0.1636441294878614 -0.1782606652559336
1017625000.0 -0.21413774470247524 -0.148861922338391 -0.0587098782208575 0.16807048550360795 -0.05771547501519583 0.17009045824663355 -0.16439415099650556 -0.17718436799384635
1018312000.0 -0.21440365170311287 -0.1471733250642346 -0.05492891377930092 0.16909247911006245 -0.05364518738811701 0.17070021346250486 -0.16528640975704162 -0.1760954170988642
1019000000.0 -0.21453380353923576 -0.1454379669885524 -0.05121542907918331 0.16996430447457894 -0.049624249211479884 0.1713364724149973 -0.16629763584147306 -0.1753289655083849
1019688000.0 -0.2147994317773178 -0.14377623245979684 -0.047523118069689986 0.17097419559953608 -0.04581617279495324 0.17181154731261158 -0.16726316633336477 -0.17446530652818418
1020375000.0 -0.21482348693657555 -0.14186948790365222 -0.0437364953621112 0.17170160418565492 -0.042041978487060316 0.17222126113246702 -0.16807400270557316 -0.1738719198133054
1021062000.0 -0.2148157506266708 -0.13999345690537193 -0.03984003096051386 0.17257890045467233 -0.03831962230017457 0.1725605982832185 -0.16928263530907783 -0.1732882427076214
1021750000.0 -0.21482026559342624 -0.13822466824056884 -0.036078893684736615 0.17335336694165945 -0.034586558761803 0.1731463133428054 -0.17032407620198842 -0.17321331470022155
1022438000.0 -0.21455805490698387 -0.1366247476257112 -0.03233600546447135 0.1740120406338237 -0.030974055555419468 0.17344011900408005 -0.1711943871371036 -0.17317697851676364
1023125000.0 -0.21427471925682046 -0.13507137699705707 -0.02851402165362206 0.17467592620725622 -0.02733854003120155 0.17386677369942122 -0.17223983072677299 -0.17318193755324446
1023812000.0 -0.21395944856049007 -0.13364422580490773 -0.024533054211249947 0.17507208480179734 -0.023558686660396275 0.17426513038615613 -0.1729645438377999 -0.17332051407181986
1024500000.0 -0.21364283368090065 -0.1322459095580829 -0.020621975241575587 0.17553375165156762 -0.01989729698340734 0.17464114961564778 -0.17378988181283392 -0.174006939547072
1025188000.0 -0.21316072176128809 -0.13107877319597322 -0.016673170589520753 0.17589421210658515 -0.016152951332891043 0.17504550778511688 -0.17463748331424975 -0.17452442092557993
1025875000.0 -0.21286520097371225 -0.12989705629018647 -0.01272893048617527 0.1761676720454099 -0.012358980563337868 0.17531121159824006 -0.175214342503926 -0.1750633268680954
1026562000.0 -0.2124273397306045 -0.1290374095252912 -0.008650414158231003 0.17627673766330573 -0.008476312471555506 0.17556675226325602 -0.17592230732975317 -0.1758560612051894
1027250000.0 -0.21217185862194038 -0.12809483158485852 -0.004556226607417215 0.17627229131342068 -0.004475551917380052 0.1757338206928697 -0.17644946724352573 -0.17641454314665816
1027938000.0 -0.2117563031758747 -0.12730065084754902 -0.0004676352556722903 0.17630735746699322 -0.00046089293933552274 0.1757136013882435 -0.17690506095459174 -0.1772296777347298
1028625000.0 -0.21157522599007306 -0.12654464141323182 0.003633968882828374 0.17602549083999167 0.0034980281909152153 0.1756635799595684 -0.1771492254525939 -0.17777820210429846
1029312000.0 -0.21136611581913373 -0.12582798917907156 0.0077987627739620115 0.17572245927185312 0.007559700917027018 0.1754694002655261 -0.17772639816641944 -0.1783302506038913
1030000000.0 -0.211089296784265 -0.12534084492744293 0.0118331341505399 0.1753314201623448 0.011549008278263037 0.17508624613990795 -0.17794021892750694 -0.1788148125910524
1030688000.0 -0.21085069673938173 -0.1245256441588434 0.015757481241581852 0.17466201616474625 0.015610211826603953 0.17450571380369054 -0.17805113937793812 -0.179272623773114
1031375000.0 -0.2106777578139997 -0.12373357448275954 0.019917396835770644 0.173974882792882 0.01962139632202046 0.17380007504527387 -0.17830382665679959 -0.17933306182872166
1032062000.0 -0.2105116502404411 -0.12305484660167255 0.02370999099517277 0.17309766810854463 0.02352975784956323 0.17294988070391817 -0.17830222679939953 -0.17933802249203754
1032750000.0 -0.2102430604349302 -0.12212425381450247 0.027588861889311714 0.1721041494434441 0.027332215479240238 0.1720913406657798 -0.17829738380474422 -0.17930043483719801
1033438000.0 -0.20994348999988716 -0.121255054182998 0.03129520058134179 0.17116529315502307 0.031090715541215327 0.17088237407469256 -0.1785550824738533 -0.17888221265314974
1034125000.0 -0.20944527290442935 -0.12025325675497407 0.03489312034245817 0.16982258620482993 0.034808903395617055 0.16972617327374126 -0.17851122118368215 -0.17838267476186026
1034812000.0 -0.2090213332113457 -0.11923972253412456 0.038644895466604885 0.16868734984121425 0.03826690357433592 0.16847219890644322 -0.17845302495351426 -0.1776989868409125
1035500000.0 -0.20836134076478632 -0.11840263346879647 0.04212488497121801 0.1673782845110262 0.04175807554326514 0.16717704284394788 -0.17881553909554118 -0.176972525253046
1036188000.0 -0.20776967545883665 -0.11735820495984553 0.04558953169800621 0.16598245625511868 0.04518796192356493 0.16581670445334148 -0.1789681295619889 -0.1759807965121556
1036875000.0 -0.20691813846391294 -0.11648607839651498 0.04892953595528469 0.16445413225589467 0.04849128066006243 0.16447086894716817 -0.1790457767808995 -0.1751200122208734
1037562000.0 -0.2060859594768662 -0.115534771408059 0.05219771254173322 0.1630105733257315 0.05173150873615099 0.16303293452888737 -0.1794251370562996 -0.17411530492521726
1038250000.0 -0.20525205352960849 -0.11482073549487672 0.055412732668354586 0.16143418197109355 0.05499280160310427 0.16178433026141806 -0.17984581209424302 -0.17273842439149992
1038938000.0 -0.20423708214824204 -0.11396889401675245 0.0585531848698233 0.1599141644716495 0.05809103673471997 0.1603440001329241 -0.18015294878874064 -0.17183674706404534
1039625000.0 -0.20338654400629724 -0.11322251548455892 0.061738666216606154 0.1584256496411127 0.061276883422940104 0.1589816527104546 -0.18086215378536213 -0.1707900491927165
1040312000.0 -0.20241286930184105 -0.1125313767701995 0.06480491907427358 0.15691706252297646 0.06443247113082881 0.15762988852830048 -0.1815202098195224 -0.16994177404313984
1041000000.0 -0.20152772356663198 -0.11193426407188527 0.06792461531864877 0.15541685504443747 0.0677005351751507 0.15629632640730534 -0.18232380470258705 -0.16922847986040124
1041688000.0 -0.20070972193273945 -0.11136135590731229 0.07092984850408543 0.15375824400562774 0.0708652575319342 0.15483719681420657 -0.1828224286251886 -0.168456950374307
1042375000.0 -0.19992527814277353 -0.11071794560574169 0.07404404202522921 0.1522718901394213 0.07407263909165678 0.15322859061223587 -0.1839197423374444 -0.16790915238526186
1043062000.0 -0.1992483874373811 -0.11023250523147142 0.0770679904033605 0.15056175506659844 0.07729937530459122 0.15165527855570068 -0.18469128635182497 -0.1673895112534466
1043750000.0 -0.19854566604965987 -0.10982867376059147 0.0800380946469841 0.1489250474413811 0.08058830094526871 0.15002741660410807 -0.18553913874893804 -0.1670357421610311
1044438000.0 -0.19798961596248585 -0.10924793319816628 0.08293797420243733 0.14720382188027037 0.08368456743132315 0.14811962329307285 -0.186628784632887 -0.1666592446887248
1045125000.0 -0.19753379847553507 -0.1088017868829643 0.0859463131197223 0.14548489532125758 0.08688117791650048 0.14625749117171072 -0.187515914333983 -0.1665553370741324
1045812000.0 -0.19713454754799192 -0.10806988251246215 0.08893459974072558 0.14348812196896477 0.09005677725872795 0.14414316753049797 -0.18857982426377923 -0.16643923360408752
1046500000.0 -0.19676514199369483 -0.10754978077389504 0.0919137258739863 0.14153499875862036 0.09310626872578807 0.14205247361180762 -0.1895679147323321 -0.16630277873616717
1047188000.0 -0.19639737424164014 -0.10684861231835255 0.09480939955952122 0.13955675425513403 0.09623428243948227 0.1397023164720731 -0.1905802705716645 -0.16629689702379707
1047875000.0 -0.1961035540389235 -0.10623535776706 0.09779349296734505 0.13749256997946618 0.09919963582601972 0.137429889341643 -0.19163941065861168 -0.16635771334933666
1048562000.0 -0.1960120900928859 -0.10553456128414657 0.10072288958783314 0.13539267825789927 0.10207437282282558 0.13502445059712118 -0.19254782848233531 -0.16634401201904714
1049250000.0 -0.19576990662774318 -0.10470828115725309 0.10362593832510958 0.1331719585513307 0.10495573137630979 0.1324552137759103 -0.19375484160303685 -0.1664170016056837
1049938000.0 -0.19548270523612252 -0.10399784752663052 0.10639122757539285 0.13083947988470063 0.1075844472011454 0.12977373958023325 -0.19460746182695027 -0.1665579981565395
1050625000.0 -0.19510838691625892 -0.10332799167965658 0.10918683413241187 0.12841981555166054 0.11018625730599324 0.12727646865096304 -0.19571066585090804 -0.1665273710776918
1051312000.0 -0.19481374041149577 -0.10254922977745407 0.11180305662624596 0.12590738027836137 0.11266390499106015 0.12465817574930489 -0.19660113838157928 -0.1665482837746142
1052000000.0 -0.1946081418816835 -0.10194090288235719 0.1145598400545703 0.12344385952735279 0.11502516095033283 0.12208100082601747 -0.19748440834194836 -0.16642040382922588
1052688000.0 -0.1943665453369521 -0.10141405390684365 0.11717330930759909 0.12085937358257703 0.11735744943391266 0.11946432822006292 -0.1984866206550286 -0.16635987166611582
1053375000.0 -0.1938365785102036 -0.10093426287041131 0.11962571120226027 0.11826371981334349 0.11954233286727109 0.11690426008252221 -0.19923169455046988 -0.16625213251167584
1054062000.0 -0.193496346870813 -0.10052450753204596 0.12209988738064831 0.1155490322816477 0.12182690320338573 0.11435164367902231 -0.20022312411835688 -0.16584970692559842
1054750000.0 -0.19338373509513548 -0.10015522377928306 0.12454321224853193 0.11277830567544697 0.12383853957415991 0.11173652828583658 -0.2010215324793546 -0.16577300113619572
1055438000.0 -0.19294225474453708 -0.0998345189719202 0.12665849597363568 0.11007717078254442 0.1258937590266094 0.10920845189288102 -0.20169920260618154 -0.1653159720700262
1056125000.0 -0.19279144208786944 -0.09979696659020051 0.1288739616587366 0.10715979878205349 0.12788327828862608 0.10648276281071474 -0.20246900009552166 -0.16488504380049346
1056812000.0 -0.19243110801650012 -0.09948331631953049 0.13101884064165026 0.10429139748890447 0.12997824848249873 0.10394814498961956 -0.20345020873699096 -0.16450882956067517
1057500000.0 -0.19217130694641682 -0.09919090357211864 0.1329361916160133 0.10137529696990645 0.13189283570811763 0.101209171222048 -0.20399964050041158 -0.16395011798910256
1058188000.0 -0.1917336124514906 -0.09917314080882 0.1349581020261067 0.09838775457097597 0.13385041791411847 0.09855490662682288 -0.20494963451589648 -0.16334754831885404
1058875000.0 -0.19160308676542015 -0.09907340014973878 0.13683818635294742 0.09541444238560973 0.1359190251880216 0.09570737550186764 -0.20586787833103118 -0.16271394135748546
1059562000.0 -0.19139708419609772 -0.09904818500975723 0.13876498817705238 0.0924669756958941 0.13783127084294167 0.0929568156749462 -0.20667797668586138 -0.16214983591308677
1060250000.0 -0.19111683911810942 -0.0990122646401642 0.14044911810612903 0.08936594615361836 0.1398444397588802 0.09007126061170807 -0.20769325487786874 -0.16134055939012137
1060938000.0 -0.19078563777029284 -0.09894744706033468 0.14228448117426082 0.08634064172241845 0.14164911037668895 0.08714799919430646 -0.20859070631247878 -0.16077681316667308
1061625000.0 -0.19066878365607307 -0.09900984902327672 0.14373387356866635 0.08318256834340211 0.14355485118282 0.08421686017781276 -0.20952237155548856 -0.16009037408480847
1062312000.0 -0.1904363928491232 -0.09888151498794046 0.14535266314266632 0.08009563460882833 0.1453636018712301 0.08107377075784698 -0.2106204642170276 -0.15940322680776203
1063000000.0 -0.18994950671192207 -0.0989811840617387 0.14686264086816117 0.07695391085811856 0.14709713209937794 0.07794511239957834 -0.21172305081678955 -0.15882183240722786
1063688000.0 -0.1895353485727417 -0.09875991649908815 0.1482994342553478 0.07392427638806129 0.14873244341341926 0.07475249679136371 -0.2129203117419089 -0.15838349407232008
1064375000.0 -0.18890818225222858 -0.09879780455898281 0.14960685235454088 0.07073662794458517 0.15029036857910705 0.07152770763255963 -0.21405595883741294 -0.1577353450461422
1065062000.0 -0.18871374433893476 -0.09872946829461576 0.15088825884564575 0.06753000419537106 0.15177086988857047 0.06821371809949169 -0.21504594313660322 -0.15719885492993083
1065750000.0 -0.18818531010093112 -0.09851681299259621 0.15216432912934263 0.0643094194218398 0.15313778634156372 0.06485972802368048 -0.21637328414657936 -0.1567652643257151
1066438000.0 -0.18768203581461224 -0.09859381869184285 0.15333527572141303 0.06115090239786923 0.1545175357118801 0.06148063286480948 -0.2176267201309059 -0.15658278263274117
1067125000.0 -0.18720363382393224 -0.09833659290489642 0.15446473915388165 0.05788450407794294 0.15561105811041528 0.05811681923308698 -0.2189477234257374 -0.15621507907255597
1067812000.0 -0.18665855670599024 -0.098328416351837 0.15539982378417821 0.05461277789948608 0.15664198978320418 0.05459844533771602 -0.22002655054187265 -0.15577425737050205
1068500000.0 -0.18596908207494026 -0.09838407542795082 0.1563988849494735 0.05140342164931048 0.15760374990683826 0.05123102974362039 -0.22148906575402336 -0.15562628708971993
1069188000.0 -0.185438557192647 -0.09815573483613217 0.15736838702474193 0.048099740752404266 0.15847328813127107 0.04769856270410325 -0.2226925650287512 -0.1552085477598627
1069875000.0 -0.1847760745160279 -0.0981964368878767 0.1582491268210927 0.04486330326994662 0.15920945592771027 0.0442671262117565 -0.22393241884195486 -0.15498504735740404
1070562000.0 -0.18399371171771695 -0.09809427085662824 0.15909742957617817 0.04153121776230809 0.15990314070094844 0.04081422287388777 -0.22533244714954156 -0.1549082941070039
1071250000.0 -0.1834671565112232 -0.0981112495979719 0.1599325874145818 0.03833574894984391 0.1605653822946096 0.03735518689959995 -0.22646109030025177 -0.15485076575116846
1071938000.0 -0.18278382106225044 -0.09806441441683834 0.16058106504994446 0.034921982389931716 0.16097593894619533 0.03395004049833238 -0.22784267929946747 -0.15477243297751078
1072625000.0 -0.1822123871617209 -0.09814869065760343 0.1612461426098351 0.03161457640161327 0.1615158151683783 0.03060841392827211 -0.228852500508464 -0.15470994114242692
1073312000.0 -0.1816102324790919 -0.09818590575602411 0.16185535412417604 0.028291686431295055 0.16188488723274974 0.027220139885646633 -0.23022053504397536 -0.15462710720012882
1074000000.0 -0.18092097840154694 -0.098160382605374 0.16233829310441264 0.025028744945167932 0.16218077299081196 0.02390992496353035 -0.23117348377849628 -0.15438960763436882
1074688000.0 -0.18035878570620842 -0.0982241297452854 0.1628152371314853 0.021599306281209395 0.16247680985779767 0.020611854995473956 -0.23273271730352135 -0.15431893567233596
1075375000.0 -0.17993442532541187 -0.09849473474679228 0.1631473207117713 0.018266829955909496 0.16275313051289425 0.01733812948960568 -0.2336285103663316 -0.15413879748040404
1076062000.0 -0.1794834158012364 -0.09866931449794966 0.16333033480006512 0.014984182802385218 0.16288664450058443 0.014123256646525107 -0.23439502861591008 -0.1540686843980036
1076750000.0 -0.1790389425340663 -0.09891732124881071 0.16360166856236075 0.011604186360490255 0.16301527378174444 0.010980336744115785 -0.23531305822336746 -0.15393206273144416
1077438000.0 -0.17877304906024385 -0.09915285580554642 0.16378537156630607 0.008250824616228284 0.1631106253124219 0.0077722445347907475 -0.2362014697109842 -0.15363342220059717
1078125000.0 -0.17850561029959575 -0.09936607099781071 0.1639198773209873 0.004942047653369959 0.16323849750695255 0.004596763156528733 -0.2371536440666532 -0.15327675147209233
1078812000.0 -0.17821994189387602 -0.09981309485162401 0.1639378803283998 0.0015289098529567015 0.16326498334228495 0.001366693011845837 -0.23763493602411317 -0.15292043162919405
1079500000.0 -0.17806738997357136 -0.09996288864527658 0.16382931487211716 -0.0018304884677640709 0.16324833616790138 -0.0018777397736985948 -0.2382122122065381 -0.1523664411215402
1080188000.0 -0.1779223924288141 -0.10031799161692656 0.16372579932986944 -0.005135215872852915 0.1633504196113459 -0.005166976611900598 -0.23876104849351187 -0.15196258906208857
1080875000.0 -0.1778239127412304 -0.10059456474174679 0.1636448985104514 -0.008785867543559821 0.16321380156056492 -0.008451466143576395 -0.23920633311058526 -0.1512549718523073
1081562000.0 -0.1777246905296031 -0.10096052470299736 0.16352060478039898 -0.012135099555943966 0.16315797831807557 -0.011776168779387561 -0.23955407078269858 -0.1505420736108579
1082250000.0 -0.1777622006264681 -0.1012869846957005 0.1631502232008828 -0.015575895097433812 0.16301355067724 -0.015172542038255325 -0.23989033669353493 -0.14956310777390502
1082938000.0 -0.1776115004821993 -0.10172745344665872 0.16281379711651325 -0.01906688980967098 0.16280719811084812 -0.018573322437543692 -0.24026940057250507 -0.1488725266193605
1083625000.0 -0.17756084231692965 -0.10219068540312883 0.16246865489585832 -0.022367061198961247 0.16254273818541648 -0.021940294420023865 -0.2404393788899103 -0.14781465632120813
1084312000.0 -0.1774967438610812 -0.10263150976569241 0.16186700098982162 -0.025773534595257944 0.16220861760843422 -0.02535927018028549 -0.24055133946447685 -0.14679390975011422
1085000000.0 -0.17751777575679867 -0.1031236342024482 0.1613164693817485 -0.02916954804807103 0.16171775391716553 -0.028945331279984887 -0.24085663123944429 -0.1457064769916333
1085688000.0 -0.17750095642390035 -0.10368254101437847 0.160631754009851 -0.03254304239831707 0.16103758756580563 -0.0324838844036927 -0.24105979007088346 -0.1444455738506775
1086375000.0 -0.17743539957285398 -0.10420462563960754 0.15990490599248064 -0.03596638361205745 0.16034713591970337 -0.036030478871143995 -0.24117641109999124 -0.1431389867628324
1087062000.0 -0.17735812527824105 -0.10476350756838511 0.15907421535065863 -0.03931922809400195 0.15956486697899214 -0.03957205443347859 -0.24144677152361346 -0.14171826994523096
1087750000.0 -0.17735934004056655 -0.10546265236739455 0.1581576970792322 -0.04265718479233334 0.15862959187053244 -0.04310254908840548 -0.24161657180332596 -0.14035378458996078
1088438000.0 -0.1772512295981121 -0.1061409397867499 0.1571909542954498 -0.0459382821528127 0.157463829919079 -0.046484480986129166 -0.24183623665942725 -0.13905142591620298
1089125000.0 -0.1771391916530146 -0.10699243591599344 0.15604995876010458 -0.049313221584041146 0.15628352508918356 -0.04984062273300073 -0.2422868241383185 -0.13773892542672495
1089812000.0 -0.1771195454231791 -0.10782538892860863 0.1548571736302587 -0.05263849633980236 0.15499550613445867 -0.053272774546506224 -0.2425973560912489 -0.13627823611609993
1090500000.0 -0.17703706517121387 -0.10884318727415267 0.1535506421074809 -0.05585975655613844 0.15359569020785316 -0.05648216257454181 -0.2432394376026547 -0.1348584425773124
1091188000.0 -0.17698677738926372 -0.10988762646172928 0.15227194126990973 -0.05912300122508913 0.15203146557987796 -0.05962709095746832 -0.24382688999860053 -0.13368363788320975
1091875000.0 -0.17728702744748917 -0.11110296246149784 0.15083711038558215 -0.062359979616769035 0.150596280583362 -0.06267501547392809 -0.2444586034054413 -0.13202332710524084
1092562000.0 -0.17749597160513805 -0.11214645840730887 0.1493434083475715 -0.0652890413504452 0.14888470702967388 -0.06570335875616085 -0.24525145746445146 -0.13099669078469378
1093250000.0 -0.17795177478777444 -0.11336896117968678 0.14788884294442223 -0.06839212217286168 0.14740093814572985 -0.06850651735212805 -0.2459987703747807 -0.12972037162320638
1093938000.0 -0.178342643964235 -0.11425705745569281 0.1463063662630528 -0.07124862161674204 0.1457566337171168 -0.07121334054207681 -0.246769060187968 -0.12848718808325302
1094625000.0 -0.17897814267485174 -0.11519477420296861 0.14460699862268078 -0.07419298887634976 0.14426407417161374 -0.07401699657133468 -0.24775865937417615 -0.12724313227998885
1095312000.0 -0.17960161304974262 -0.11602380065009314 0.1430881811113212 -0.07700256250789102 0.1427145761243445 -0.07665427342132984 -0.24870773879477256 -0.1260604625002562
1096000000.0 -0.18031327452811194 -0.11672465765635473 0.1413978430111228 -0.07983359457674269 0.1411689194850793 -0.07926055251286371 -0.2496583899505281 -0.12494752319779868
1096688000.0 -0.1809874790595703 -0.11744601877510868 0.13967983210143145 -0.0825959980712326 0.13970299510566578 -0.08192980117902383 -0.2504904014918149 -0.12382537391406863
1097375000.0 -0.18168009743810404 -0.11798357174538265 0.13793471143560862 -0.08514710034799278 0.1381545797746306 -0.0845634361152445 -0.25140252842172023 -0.12278654447957899
1098062000.0 -0.18236919683196162 -0.11855017604694669 0.13620591529637388 -0.08787068655666348 0.13661498159685453 -0.08720971267416554 -0.2522426257992531 -0.12159501962259328
1098750000.0 -0.18310253065725388 -0.11898629928037228 0.13442551884395282 -0.09043458055400137 0.13506538095553267 -0.09002721024780791 -0.2529093485199552 -0.1204256620736943
1099438000.0 -0.1837636253562181 -0.1193000081008047 0.132609793041438 -0.09301029280061632 0.13351670930041878 -0.09284466007184462 -0.2534976856075204 -0.11921472564757586
1100125000.0 -0.18442693434451193 -0.11963233409229194 0.1307647974438838 -0.09554166881022122 0.13174400690106605 -0.09575845653002345 -0.2539483161979296 -0.11809969617651776
1100812000.0 -0.18507493310875786 -0.12003801819130024 0.12889558795117287 -0.09812222575414757 0.12992654417635274 -0.09859784205176995 -0.254274561121048 -0.1168098300645986
1101500000.0 -0.18567642601353354 -0.1203348340501782 0.12711189167299838 -0.10068158930689064 0.12803722380816804 -0.10151555233397071 -0.2545328087306722 -0.11561072685181414
1102188000.0 -0.18632365661382325 -0.12070171496114616 0.1250480983207357 -0.1033116020306405 0.12584955957980729 -0.10444187452742604 -0.2546646465960865 -0.11413915891623835
1102875000.0 -0.1869581620247925 -0.12090731885431234 0.12298951503705435 -0.10586376711221386 0.12369121047057195 -0.10726163491968475 -0.2546814584795448 -0.11274014250086241
1103562000.0 -0.18771066420120772 -0.12134163246149621 0.12094428882483549 -0.10853962270869319 0.12142321402409041 -0.11000783656649578 -0.25481886530780284 -0.11107929653203583
1104250000.0 -0.18853107634126043 -0.12165189000329749 0.11891005416949003 -0.11104201302641342 0.11895397854743371 -0.11279569091479462 -0.25469811547202054 -0.10968301822790529
1104938000.0 -0.1893046551256765 -0.12194548393873963 0.11665394441597896 -0.11362490533643244 0.11636814355532729 -0.11533276747953242 -0.2546336601257197 -0.10801877405304094
1105625000.0 -0.19013385957043985 -0.12243685136055363 0.11444298388863175 -0.11616038094562552 0.11373381564078668 -0.1177719503543731 -0.25432399036832554 -0.10624464612176884
1106312000.0 -0.19120680096020276 -0.12281616017662764 0.11208200301094985 -0.11870930788918238 0.11107667083327542 -0.12019893216835353 -0.25415667038223294 -0.10458604328933972
1107000000.0 -0.19229812323909934 -0.123268732649563 0.10958093603107892 -0.12127647858222221 0.10825877275907078 -0.12231348021498457 -0.25403766553494506 -0.10243568362330244
1107688000.0 -0.19348388714734974 -0.12355981832558048 0.10705707293950241 -0.12362320555938013 0.10537247870425114 -0.1244180053260978 -0.25391218672460586 -0.10063813310486383
1108375000.0 -0.19465497088080982 -0.12397832045548095 0.1044646934840654 -0.1260083910084645 0.10257986074839996 -0.1263112656596143 -0.25392788899887686 -0.09873182932905085
1109062000.0 -0.19607777387789185 -0.12413108079653641 0.10164976953759604 -0.12829356169376493 0.0997635614782907 -0.12816178014307944 -0.25403032940973425 -0.09665524301560885
1109750000.0 -0.19743393028945275 -0.1243698416501893 0.09880159275988297 -0.13048690918706302 0.09701827874472219 -0.12985609217138272 -0.25426587085204994 -0.09470995837260508
1110438000.0 -0.1988793853081784 -0.12472286568721715 0.09601276037381737 -0.13253585564030546 0.09433887018589054 -0.13160613738712376 -0.2546782815584589 -0.09269050706635583
1111125000.0 -0.20045579268958852 -0.12479471555302615 0.09302561352226806 -0.13448922107036435 0.09159303867091619 -0.13332410500999872 -0.2551607070832211 -0.09076607543363566
1111812000.0 -0.20204146035848378 -0.12479780709812524 0.09001554026691069 -0.13654672946447943 0.08894411913059845 -0.13491723658294277 -0.25597607467289246 -0.08887146656362496
1112500000.0 -0.20354394709130932 -0.12475309044542414 0.08700662753609989 -0.13836649345508012 0.08631381595226531 -0.13664128357650543 -0.256731460333822 -0.08694295288721247
1113188000.0 -0.2050616554014307 -0.12459619831317843 0.08384752398019948 -0.14004559171234493 0.08371455062443194 -0.1382545592903007 -0.2577067201326818 -0.08517610421974713
1113875000.0 -0.20671125084637978 -0.12441442357070936 0.08069108945891958 -0.1417706424081414 0.08121327082630207 -0.13994920328701133 -0.2589000995856869 -0.08350591216470582
1114562000.0 -0.20813874659162238 -0.12429036077699865 0.07766929306074305 -0.1431640304852502 0.07863115035011338 -0.14164412283581232 -0.2600835329193739 -0.08188401999897692
1115250000.0 -0.20948175913658904 -0.12397101980823831 0.07462804742540363 -0.14450926463546737 0.07591786606344292 -0.1433155083286291 -0.26139968305828737 -0.08055779420441755
1115938000.0 -0.2109178565647091 -0.12374322015575806 0.07154039316536812 -0.1458945129744065 0.07323788612301335 -0.1450787097043097 -0.2627662495573103 -0.07910602713759245
1116625000.0 -0.21226345489213766 -0.12343113294288394 0.06847837506213884 -0.14720320292413117 0.07037925013540404 -0.14669345880811174 -0.2641031149152832 -0.0777704922961596
1117312000.0 -0.21356172762711387 -0.12318831582760335 0.06549614983643 -0.14833943297725777 0.06759028213049122 -0.14844046246390005 -0.26531099445452544 -0.07689018382848532
1118000000.0 -0.21481947827995265 -0.12291142201679876 0.06245531528800782 -0.14953837485714117 0.06459197056925729 -0.15013181066049539 -0.26654123635646293 -0.07573559845867885
1118688000.0 -0.2161090890996102 -0.12263201769250848 0.05950812771051853 -0.15070361651063763 0.061496413852349864 -0.1516884331894384 -0.2676278029457908 -0.07497076071382727
1119375000.0 -0.21732478350621065 -0.12241824355639978 0.056504965623255535 -0.15177419817441834 0.058167254502915294 -0.15329397886346754 -0.2687835278945203 -0.07403612354152647
1120062000.0 -0.21864779027735737 -0.12212282417953231 0.05362329805744388 -0.15278949752718338 0.05482966883776255 -0.15467507203574352 -0.26956842267210873 -0.07318533945316691
1120750000.0 -0.21999150288443836 -0.12182683965691936 0.050605027584650394 -0.153766989444835 0.051315686343387346 -0.15592766617627513 -0.2701516058682822 -0.0723672942812641
1121438000.0 -0.22122200510811996 -0.12159404256259214 0.04765797607228608 -0.15482882365246273 0.04788147885585558 -0.15702797439258973 -0.2704646075178813 -0.07173312299922854
1122125000.0 -0.22262645530914782 -0.12111503866476374 0.04460743624254519 -0.1557483833936427 0.044281198460455265 -0.15807260464955614 -0.270829266062399 -0.07093674997455407
1122812000.0 -0.22393970568017005 -0.12088394873999972 0.041609251578700754 -0.15672386794220983 0.04069888003150417 -0.15882576934775924 -0.2708668996780708 -0.07005041202653228
1123500000.0 -0.22551121885808112 -0.12044756353995889 0.038475306347293466 -0.15768634367546414 0.0371275330065429 -0.1595081557841623 -0.27064848259209856 -0.06921863169171633
1124188000.0 -0.2269024717224778 -0.11992614160342417 0.03536311934962459 -0.15855121930056026 0.033640228748790635 -0.16010430817419752 -0.27031885565217706 -0.06849744776411472
1124875000.0 -0.2283059353289466 -0.11921553602699612 0.032194549307105386 -0.15936601472773265 0.030096578960389274 -0.16053770939393275 -0.2699668624964468 -0.06751673451465336
1125562000.0 -0.22987766960837813 -0.11849208350181582 0.028921250560904214 -0.16024129695963285 0.02672819692092983 -0.16090933371827126 -0.2691498328347501 -0.06634439626104266
1126250000.0 -0.2312452358450026 -0.1176447008141845 0.02560035598339124 -0.1608076376905252 0.0234184949544662 -0.16103626004001362 -0.2683216897570718 -0.06528975644110695
1126938000.0 -0.2329916761229651 -0.11659429962989597 0.022269810306288967 -0.16156469330719705 0.020124689003849408 -0.16126502606865223 -0.2676382382933065 -0.06398620209754119
1127625000.0 -0.23426228165735685 -0.11546773428701898 0.01884179630380261 -0.1620256609321775 0.016956554262491163 -0.16139456218062828 -0.2668024781763932 -0.0627116835395058
1128312000.0 -0.23577642891127712 -0.1142911478590505 0.01530918675631731 -0.1624755030246059 0.01377618197275543 -0.1616222867023104 -0.26590791746215875 -0.061237067172205284
1129000000.0 -0.23714263323863588 -0.11317507821068477 0.011878573145387877 -0.16289017761064967 0.010762348837582807 -0.16169025718839578 -0.264873155871225 -0.0599367320806245
1129688000.0 -0.23849859422378392 -0.11180362007752058 0.008411785311935033 -0.16323780743299257 0.007673958117627961 -0.16179120300545302 -0.2643254236432068 -0.05842911824848752
1130375000.0 -0.23972231655106432 -0.11036405830285662 0.004988125969611251 -0.16337870752695047 0.004480234419714206 -0.1619461104135593 -0.2634951813049925 -0.056759880217757054
1131062000.0 -0.2410139911083011 -0.10894570383311436 0.0013915677514246534 -0.16352660081300907 0.0013144964428213363 -0.16208703037837105 -0.262728665875106 -0.055089224150590414
1131750000.0 -0.2422071575544135 -0.1076447929270625 -0.002062968175937042 -0.1635699250461155 -0.001745416298816302 -0.16218067955201768 -0.2621565985611706 -0.053374834146468285
1132438000.0 -0.24348693257976853 -0.10615156492498785 -0.005604247044117369 -0.163511634713939 -0.00500320675474829 -0.16236884892103445 -0.26181367649054654 -0.051775782142988586
1133125000.0 -0.24459184555492305 -0.10465550157088552 -0.00909214757391838 -0.16333705205970672 -0.008275403210404483 -0.1624339949606105 -0.2614237684857508 -0.050215834252506114
1133812000.0 -0.24575089180357268 -0.10329821549233165 -0.012512788377393292 -0.16313168689350468 -0.011642492455540861 -0.16252650094954094 -0.2610281636053305 -0.04833811795404091
1134500000.0 -0.246920013337215 -0.10190079493857171 -0.015950568275227 -0.16286762138951974 -0.015055796412693969 -0.16249321305546063 -0.26109768647454196 -0.04687064520837424
1135188000.0 -0.24818690610277228 -0.10047902336515317 -0.019471368535502867 -0.162444043470643 -0.018571689221591775 -0.16238365936806817 -0.2610334202827922 -0.045324297904641084
1135875000.0 -0.24932891398018223 -0.09884131717986283 -0.02287967605999941 -0.16183990234335494 -0.022165590972877684 -0.16211091576356587 -0.26098855291472 -0.04376565783550325
1136562000.0 -0.25054767586417515 -0.09751546416460068 -0.02631641072396569 -0.16132464127983245 -0.025720610300431414 -0.1617620268484617 -0.2609497467676207 -0.04252828993647679
1137250000.0 -0.25176784281543096 -0.09593548950232152 -0.029713214152440704 -0.1606388986129865 -0.029345935011783165 -0.1613005001486483 -0.26086369539447185 -0.041185065646703066
1137938000.0 -0.2531442101983177 -0.094430217007535 -0.0331418067221628 -0.15991870104210484 -0.0328910582951102 -0.16067550155913154 -0.2609154370959016 -0.0401876761131342
1138625000.0 -0.2544302390244617 -0.09292145971185048 -0.03646391211113599 -0.1590354901452028 -0.036449800670970166 -0.1598675320482148 -0.26084297930253025 -0.03899065751991321
1139312000.0 -0.2556409446393194 -0.09133545179965812 -0.03964617124090679 -0.1582253433159509 -0.03989752805886328 -0.15905145778181642 -0.2608690570289559 -0.03829353350029479
1140000000.0 -0.25678881766402273 -0.08950795564626308 -0.04293197139027755 -0.15726647119471193 -0.04338738135594629 -0.15798886057590406 -0.26052999169396174 -0.03741565226087462
1140688000.0 -0.2581526642318293 -0.08787640201487855 -0.04624929375446938 -0.15630385822078263 -0.04672503162745116 -0.15694510361360614 -0.26020143166758725 -0.0368085386119972
1141375000.0 -0.25921033312069564 -0.08601060092406904 -0.04940981707951177 -0.15510443231140023 -0.049975665768980444 -0.15572312892068144 -0.2595994970528305 -0.03643751079131379
1142062000.0 -0.2603947027948564 -0.08421444230916673 -0.05261576338842782 -0.154129626263215 -0.053125097882785514 -0.15450834722782636 -0.25869036271700524 -0.035892153267414455
1142750000.0 -0.26116842531032974 -0.08234327820659096 -0.05562591717504031 -0.15288512799604312 -0.05619642941789471 -0.15316146686348628 -0.2579102308571779 -0.03523690295752279
1143438000.0 -0.2620823368835877 -0.08042434503852816 -0.05865516869041367 -0.15179013616265416 -0.05931227399902618 -0.15179767262650687 -0.256612465407213 -0.03498836387287443
1144125000.0 -0.26290943759959823 -0.07862182872770485 -0.06182260326343617 -0.1504630200510969 -0.062280812729458526 -0.15050140403963783 -0.2553866802297478 -0.03444538219710767
1144812000.0 -0.2634488086111812 -0.07680846721192461 -0.0647199278978149 -0.14938049535052894 -0.06521212926499338 -0.1491055642116361 -0.2538698561098831 -0.03423165774216783
1145500000.0 -0.26396982967678667 -0.07519070906771966 -0.06776372271864572 -0.1480748333352776 -0.06817023514893926 -0.1477324328528217 -0.25213275349434094 -0.03364019896314246
1146188000.0 -0.2644639816216353 -0.07351073003199267 -0.07082235748351765 -0.14666944215732594 -0.07101201363022931 -0.14635267976840904 -0.2504344500427663 -0.03302996374752567
1146875000.0 -0.26486309815313325 -0.07182006845353883 -0.0738014745664138 -0.14528520982793558 -0.07400613343607419 -0.144964115283755 -0.2486130988922998 -0.03243556776466791
1147562000.0 -0.26509123837007537 -0.07034646952517654 -0.07668715483871377 -0.14384881464190963 -0.07681430730859358 -0.14349693019232973 -0.24672314430759754 -0.03157097955966449
1148250000.0 -0.2652974450021522 -0.06890964234417249 -0.07961134991528905 -0.14231733725441195 -0.07967237168705806 -0.14200973205068898 -0.24478991449771034 -0.030902552570364967
1148938000.0 -0.2655557650833734 -0.06738232863459499 -0.0825275437033026 -0.14075851990823457 -0.0825106071555171 -0.14045678483502602 -0.24288706097797097 -0.02991269367451571
1149625000.0 -0.2656485987341892 -0.0660464827856147 -0.0853231946148162 -0.13906121770832253 -0.08539495414799368 -0.1390211742686426 -0.24120485765347274 -0.029086628176550174
1150312000.0 -0.26593256595180464 -0.06456313585273583 -0.08818120103779913 -0.13738126739646764 -0.08818441725696834 -0.13739479322082904 -0.23934240842994026 -0.02795195541215921
1151000000.0 -0.2660393738189681 -0.06344879428365977 -0.0909783163304696 -0.13566830060010138 -0.09103441339245923 -0.13575515799477775 -0.23772919195141856 -0.026692853528046002
1151688000.0 -0.2661767090749399 -0.06193563985944374 -0.09379566629233192 -0.1338562327203396 -0.09393703727148951 -0.13400427936856968 -0.23619472608008882 -0.025223247393283767
1152375000.0 -0.26630245456130286 -0.06067333058293882 -0.09662982373785176 -0.13189918348495636 -0.09681281244688718 -0.13223240403221798 -0.23494564639053647 -0.023777201573921644
1153062000.0 -0.26649526803796647 -0.059295344316247084 -0.09934811592964665 -0.13003892687676347 -0.09965070342749979 -0.13034108707307207 -0.23368942373701662 -0.02238009140150654
1153750000.0 -0.2664563563705101 -0.0580829403557599 -0.10194431562422075 -0.12805738319164559 -0.1023815543329804 -0.12833500985382407 -0.23258672639683473 -0.02102793006924059
1154438000.0 -0.2666716490353111 -0.05659751835060696 -0.10472502894221941 -0.12600924370956934 -0.1051791495372669 -0.1261989902461378 -0.23172905823833473 -0.019615337629676433
1155125000.0 -0.26683793525682703 -0.05512988286682027 -0.10732268462834998 -0.12379131405421002 -0.10795045089942316 -0.12394016028249175 -0.23099158122152075 -0.018189650893423295
1155812000.0 -0.26692074685261563 -0.05365403932983302 -0.1099588387225683 -0.12163175725274789 -0.11066595140752024 -0.12157450569219307 -0.23038978987722034 -0.016734428262722315
1156500000.0 -0.2671715543462166 -0.05223347825710174 -0.11264844744758636 -0.1193996358063639 -0.11328102851478922 -0.11929210936729372 -0.23003996790967982 -0.01530441411835339
1157188000.0 -0.26718441216818295 -0.05071963185137737 -0.11529155460950197 -0.11707573829513364 -0.11590314030007626 -0.11684550445602901 -0.22985155305264404 -0.014203291405417878
1157875000.0 -0.2671737260409048 -0.04908503940701436 -0.11775199066686999 -0.11460439454613536 -0.1183915231345731 -0.11423840862303553 -0.22944520151602585 -0.013050893795583376
1158562000.0 -0.26718409092551365 -0.047444225937573636 -0.12025970043867289 -0.11219602537931518 -0.12083201633228435 -0.1116171218256524 -0.2291940091584427 -0.012022248819681567
1159250000.0 -0.2672237671404357 -0.04597334310402005 -0.12282785843354407 -0.10960718552880135 -0.12330455367458554 -0.10900490551581411 -0.22924564793425806 -0.011113732391354993
1159938000.0 -0.2673276532090351 -0.04428613446305354 -0.12513956556405947 -0.10694772826806587 -0.1255656965211342 -0.10627675131673765 -0.2292113204797594 -0.01040077247899682
1160625000.0 -0.2672072002646846 -0.04271620153075439 -0.12740830178447932 -0.10424695164287373 -0.12777663218536642 -0.10351201707678333 -0.22896238035645675 -0.00986280226911193
1161312000.0 -0.26721214894286166 -0.04108449514599477 -0.12969343116919335 -0.10160769262864815 -0.12992146362204882 -0.10068649663581919 -0.22879296273601585 -0.00928911982229687
1162000000.0 -0.2669765070680795 -0.03936720356388733 -0.13183376706080527 -0.09866997723006796 -0.1319169340085142 -0.09775790016623324 -0.22869987721692772 -0.008778252456390233
1162688000.0 -0.26693875865182853 -0.037958951847239235 -0.133933271082831 -0.09569948570359212 -0.13385487389102566 -0.09494665324356834 -0.22836092897393404 -0.008509334148929954
1163375000.0 -0.26678793298979914 -0.03640882017386001 -0.1359006173378219 -0.09281215438974373 -0.13580678127045956 -0.0920472044618378 -0.2280742536274588 -0.008250146183924813
1164062000.0 -0.2666629759462416 -0.03492593481795581 -0.13792070697885744 -0.08981433642742156 -0.13753089151815023 -0.08907701121244709 -0.22775301822324276 -0.008020637743091091
1164750000.0 -0.26652975523696243 -0.03345553014755308 -0.1397644224140266 -0.08668798926827387 -0.1393845737531104 -0.08617687145547942 -0.22723701519383405 -0.007781197393790284
1165438000.0 -0.2665350408216941 -0.0319686110419698 -0.14164713763555115 -0.08365379261149068 -0.14110139856860146 -0.08323193577263618 -0.22675790717532657 -0.007615567571236657
1166125000.0 -0.2664269154564972 -0.030702064939251688 -0.14338746204869268 -0.08054645940289505 -0.14267441334474573 -0.08027097879661245 -0.22600409144530376 -0.007536447668743012
1166812000.0 -0.26634832329201485 -0.02937900565808082 -0.14491835605075337 -0.07749058404800938 -0.1443180509811594 -0.07719912924228224 -0.22542163553661013 -0.007270292664453368
1167500000.0 -0.2661511580644783 -0.02808130561964732 -0.1465218555532209 -0.07418147974032958 -0.14583499303822903 -0.07429900574997175 -0.2245737320771403 -0.006953945724624665
1168188000.0 -0.2661506860424536 -0.026826171595294282 -0.14795901782605156 -0.0710325507643156 -0.14731453607839828 -0.07124340911814032 -0.22370037278586544 -0.006902241330465811
1168875000.0 -0.2659692719630796 -0.025789058929162653 -0.14934243839690803 -0.06781305195498852 -0.1487774830112847 -0.06822176073860257 -0.22274622166795507 -0.006583920725983382
1169562000.0 -0.26608931308095585 -0.02459186869549389 -0.15079092840860953 -0.06456281793481487 -0.15013909427806 -0.06509685458164875 -0.2219997016980915 -0.006077757395693405
1170250000.0 -0.26592588915206683 -0.023568139069453986 -0.15191734997575232 -0.06129408767570829 -0.15146418487080873 -0.06201928039421081 -0.2210372334149386 -0.005725050489537565
1170938000.0 -0.26608825093827176 -0.02255529985247451 -0.15300503393792772 -0.057992998600004335 -0.15284535685452383 -0.05890335961939144 -0.2203191466988174 -0.005250093490834485
1171625000.0 -0.2659682483599172 -0.02155656924660482 -0.15411252096408606 -0.05477198772179731 -0.1540685858451384 -0.05569242122524026 -0.21949410061723207 -0.004635953800529334
1172312000.0 -0.2658280067248976 -0.020571009758775367 -0.154999443499508 -0.05160817449318464 -0.15529555612625792 -0.052474320255849714 -0.21884217015797203 -0.004091732864985796
1173000000.0 -0.2659394528276162 -0.01972531432502224 -0.15600000998481708 -0.048344262439768866 -0.15636943867051886 -0.04913267554791621 -0.21829879529504273 -0.003554437771940526
1173688000.0 -0.2660506043725574 -0.01868364331333319 -0.1566728046709615 -0.04503670447520256 -0.15744978008999527 -0.04583786866445612 -0.21778581032160854 -0.0031126085247583633
1174375000.0 -0.26593881584310625 -0.01788901654853001 -0.15742880238602916 -0.04179173719941913 -0.15844476313057887 -0.04246613109417102 -0.2174399937962794 -0.002534167809843376
1175062000.0 -0.26589167246798845 -0.016874862990515965 -0.15813648272084355 -0.03866235632872136 -0.15932381395224923 -0.03911111633281463 -0.21725681632080218 -0.002080119417484752
1175750000.0 -0.26606120304315667 -0.01602651267979873 -0.1588153501555539 -0.03543206364923779 -0.1602104225448291 -0.03565725394571604 -0.217135999492498 -0.0016324980623548177
1176438000.0 -0.26585597104520675 -0.015260321437470163 -0.15946861974763935 -0.0321884657593293 -0.16092928623446795 -0.03221340915892725 -0.217210969536495 -0.001172454134672143
1177125000.0 -0.26574436871719487 -0.014387936077147636 -0.16003427700924833 -0.02895117400589813 -0.16151355217129496 -0.028694167381675934 -0.2173770961111975 -0.0009110108247613021
1177812000.0 -0.26561541065011723 -0.013532042123132927 -0.16051783644099624 -0.02579445252179018 -0.1620488746021346 -0.025217719708306933 -0.21758255805292098 -0.0007636077717055774
1178500000.0 -0.2656345316004302 -0.01274011396401749 -0.16099353599858768 -0.02248141686503413 -0.16255489707205412 -0.021667762059755954 -0.21780479989107246 -0.0005388778374601712
1179188000.0 -0.26544200467335993 -0.011734827501347238 -0.1615435298710714 -0.01916355173950312 -0.1627501369326806 -0.018173999931369436 -0.21817126958676852 -0.0005729257861120173
1179875000.0 -0.26518932652863014 -0.011006604721916866 -0.16185474305291564 -0.015949094482986252 -0.1629872859184687 -0.01465196560893478 -0.21879651632039027 -0.0005625142440128968
1180562000.0 -0.2648733724535284 -0.01008077548204851 -0.16226306864245454 -0.012675243957660336 -0.1630420677930617 -0.011110799458539017 -0.2190034345429132 -0.0007610395154638292
1181250000.0 -0.26467155553083144 -0.009477235706896571 -0.16239712282380722 -0.00933344865454115 -0.1630474660646759 -0.007625705421477433 -0.2194427117105716 -0.001072604284587626
1181938000.0 -0.2642498610829691 -0.00850226656634765 -0.16275140609952723 -0.005908707551768989 -0.16277104326984113 -0.00417471474822233 -0.21981411167113443 -0.0013601727023852938
1182625000.0 -0.2639901454235293 -0.007951531234010163 -0.1629513887216036 -0.0024191536124768005 -0.16259131045251032 -0.0007666389291533479 -0.22038451793071445 -0.0017652978251459133
1183312000.0 -0.2636421611317551 -0.00703849092199007 -0.16300744502523726 0.0010327306206607714 -0.16229449837095775 0.0025614231944059286 -0.22058441570362308 -0.002190558598002451
1184000000.0 -0.26329646249498295 -0.006419684168532068 -0.16299746372937787 0.004446518716965546 -0.16200728630744327 0.005857125637000603 -0.22095917141302845 -0.002541083232441597
1184688000.0 -0.26303363995618284 -0.00567870931262474 -0.16287166751770232 0.007943733446484049 -0.16162410152368534 0.009223120077271444 -0.22111708783175765 -0.00315582196250293
1185375000.0 -0.2628240726971515 -0.004910322740827244 -0.16258828477006257 0.011498452311633938 -0.16122291927912574 0.01247995535365662 -0.22123893169281947 -0.0037731519553281657
1186062000.0 -0.26255090852729474 -0.00417304496572859 -0.16232541722143276 0.015088458136910015 -0.16080182731123505 0.01574853798261014 -0.22142033772028993 -0.004189354258743626
1186750000.0 -0.2624845494321784 -0.0035835068111466565 -0.16191530664130005 0.018553428001710424 -0.16027689445798504 0.018860128234425375 -0.22118076812074552 -0.004781837734258707
1187438000.0 -0.26228777610082715 -0.0028162471417150486 -0.161436337756637 0.022053720196291548 -0.1597993665033838 0.022019862093587143 -0.22105435785765934 -0.005445579333124219
1188125000.0 -0.26215895183946464 -0.0020043659541083545 -0.16078311649596333 0.025645624144079133 -0.15928454877203582 0.025243591872925082 -0.22072958354242053 -0.005898528312913249
1188812000.0 -0.2619794754853771 -0.0013058013358998978 -0.15992977415127863 0.02908258288744719 -0.158691026610009 0.028352160590101455 -0.22027856947207697 -0.006444286067241838
1189500000.0 -0.2620253006441935 -0.0004039384313695427 -0.15903899656908654 0.03259179575493685 -0.15815125917485862 0.03157191221411175 -0.21979684727428367 -0.0070028191665974585
1190188000.0 -0.26210760017385637 0.000485674429366859 -0.158124825622779 0.035992622386175684 -0.15745705044726507 0.03480281629229458 -0.21930821230831227 -0.007492470956672198
1190875000.0 -0.26211421278445446 0.0014469393025699048 -0.15709728004534393 0.039306845722080874 -0.1567765661780706 0.038005172627575884 -0.2186623332354009 -0.008003479462642587
1191562000.0 -0.2621819037087483 0.002374886348497554 -0.15582914535061435 0.042609729413492364 -0.15597941914134536 0.0411965426995762 -0.21800606125131924 -0.008353497137268353
1192250000.0 -0.2622801252493058 0.0034546793857151126 -0.15462409417411047 0.045905134965237564 -0.1550775797502245 0.04437398244935067 -0.21746842478065495 -0.008924285000807799
1192938000.0 -0.2622517306516654 0.00451132516516126 -0.15336060893298442 0.04894544558216957 -0.15408174416584441 0.0476891667123469 -0.21681917859676028 -0.00936878559457238
1193625000.0 -0.26227958468741325 0.0055960326460771535 -0.1519839464365511 0.051912675907768525 -0.15308627712711453 0.05096416182579038 -0.21632203705800368 -0.009711324477213646
1194312000.0 -0.2621563924301149 0.0066811019384745126 -0.15049833674644672 0.05497803353606497 -0.15185735972602524 0.054226410576005545 -0.21592977067482472 -0.009884340203291268
1195000000.0 -0.26211400056462003 0.007772041490069432 -0.14906925254563705 0.05788991668458649 -0.15058792498013857 0.057511301570604065 -0.2154169296861962 -0.010286546520613551
1195688000.0 -0.2620414706745701 0.008957916250479555 -0.1475249645326411 0.06078879244689066 -0.1491731554200194 0.06069126808510326 -0.21506111533972086 -0.010566843342752858
1196375000.0 -0.2619674616065468 0.009969664940043192 -0.1461629777672355 0.06349956859684151 -0.14764509458957994 0.06387057851376088 -0.21484922189144923 -0.010689421481460758
1197062000.0 -0.26196630553368305 0.01093675150811986 -0.1445497848443148 0.06623472074562095 -0.14602108194290317 0.06694106263058222 -0.21450357141344212 -0.010752346840828746
1197750000.0 -0.26178318995478894 0.011948502066253646 -0.14307361604063468 0.06889444846229223 -0.14429006806696587 0.06992424602199526 -0.2144359899023282 -0.010989178338633374
1198438000.0 -0.2616711207612214 0.012807803634550172 -0.14152510055895268 0.071506923720722 -0.14249646588315965 0.07293796038551645 -0.2144152064848323 -0.011148483057965031
1199125000.0 -0.261581706099899 0.013640935554987585 -0.1398926897460133 0.07409356849091682 -0.14052613077775736 0.07568378223034739 -0.21459750109900752 -0.011092953832612924
1199812000.0 -0.26158562868011465 0.014553084867671333 -0.13836389442273098 0.07676896642038156 -0.13866949636052087 0.07848050906180996 -0.21462634168591846 -0.011088818103689141
1200500000.0 -0.26168914608380167 0.015218564243131949 -0.136658028670609 0.07924378660026733 -0.13666383991834366 0.08102233091873341 -0.21475245067940849 -0.011110491365565394
1201188000.0 -0.2617776121714254 0.01611719276778889 -0.13500038489119928 0.08186481943066912 -0.1346834653816871 0.08352277808162933 -0.21513654131732662 -0.010867242359302249
1201875000.0 -0.26186015031351656 0.016944185173425174 -0.1332416662259155 0.08447515361313084 -0.13271297654218767 0.08587698113436236 -0.2152752118573391 -0.010938341583060219
1202562000.0 -0.26201103611233256 0.017737405158775768 -0.13149838803986058 0.08704944701062624 -0.1307580770324119 0.0882630722763827 -0.215820904702928 -0.010686638246122749
1203250000.0 -0.2622829572298237 0.018714564912775036 -0.1297420263441534 0.08953113968525772 -0.1287660618943214 0.0905145331518594 -0.21596014456316776 -0.010427993350642867
1203938000.0 -0.2624409349103009 0.019449035967669788 -0.1278254840908641 0.09211822248112567 -0.12686003320519573 0.09267699862471647 -0.21642157844956836 -0.010317817133946364
1204625000.0 -0.26268836571395293 0.020403223664893704 -0.12599220061643776 0.09452640946483724 -0.1250024820909446 0.09497746046393137 -0.21676041006682156 -0.010102571303762407
1205312000.0 -0.26296465466146746 0.021383943194185486 -0.12409901897396651 0.09696509674567994 -0.12309897745150022 0.09712567444463198 -0.21711869585694715 -0.009718393842908934
1206000000.0 -0.2632967498331723 0.02248312292155949 -0.12215020162701407 0.09939264035960384 -0.12121839785229602 0.09929972380804787 -0.2172725358605029 -0.00928735412298376
1206688000.0 -0.2635128319854441 0.023615600484435284 -0.1201511925959032 0.10185612884933123 -0.11938869082688766 0.10145338949475172 -0.21751495512400312 -0.00902932875561844
1207375000.0 -0.26372867566473795 0.024640928320969493 -0.11806460275108609 0.10415396773836544 -0.11749484017714468 0.1037418127570672 -0.21776954052761432 -0.008693622811612234
1208062000.0 -0.2639003559035909 0.026004898231070005 -0.1160562716174964 0.10653760839634936 -0.11560997097066116 0.10608632231415588 -0.21795617647556992 -0.008289648497872091
1208750000.0 -0.26386600498022317 0.027367859176787173 -0.11376539154274368 0.10872044652716335 -0.11355607253128307 0.1082692645800972 -0.21810293934765457 -0.007604950093053422
1209438000.0 -0.26380325661367726 0.028614533394572633 -0.11168550880281337 0.11090997882822053 -0.11155762153999772 0.11055674634706895 -0.21826139824759425 -0.007426977375340432
1210125000.0 -0.26366504186648965 0.029921737458856172 -0.10943371018978894 0.11315485778478611 -0.10939033823236262 0.11281942557936186 -0.21843075575423204 -0.0067737422911846
1210812000.0 -0.26350129148798435 0.031194110540359248 -0.10714402846875344 0.11523070004637254 -0.10716372991940605 0.11519750912825566 -0.21855737698308544 -0.00643060216740273
1211500000.0 -0.26318912839747327 0.032599026718021756 -0.10477386647887746 0.11726746772702665 -0.10482363074144513 0.11744100738435011 -0.2186238438219043 -0.006029066071479624
1212188000.0 -0.26300954546674077 0.033887444739434405 -0.10241543516783594 0.11931911074432847 -0.10238596598865553 0.11964536421525215 -0.21870194212357616 -0.005548191310045672
1212875000.0 -0.2626217101786078 0.03512316592295459 -0.09993653524162818 0.12124798882265979 -0.09984977666539668 0.12175670296381166 -0.2187934592302916 -0.005351500100481826
1213562000.0 -0.2622679418450789 0.036280291934738196 -0.09741482542867398 0.12325746505477655 -0.09720636998872913 0.12372270904778777 -0.21895510444396385 -0.005016058990755521
1214250000.0 -0.2618903218444746 0.03746783669722906 -0.09484572529841784 0.12516243125918788 -0.09464339563047075 0.12566749263251775 -0.21899835920771382 -0.004762717325210922
1214938000.0 -0.26170701006286595 0.03851991271627859 -0.09225585498852983 0.12690610663397656 -0.09193558518907871 0.12737906855984793 -0.21901229479209922 -0.004297747906735119
1215625000.0 -0.26130893663094473 0.039787983221416204 -0.0896260591368718 0.12870468329056303 -0.08913659990319374 0.12914864328893538 -0.21930898433943552 -0.003966433884597212
1216312000.0 -0.26109898430989814 0.040951051600200336 -0.0868436975277239 0.13032722060165977 -0.08635733725563355 0.13060570011226744 -0.21929813334957415 -0.0036173914082583587
1217000000.0 -0.2607347534016534 0.042106563747742444 -0.08414033715683088 0.13186580260311437 -0.08358577967969194 0.13210786144365735 -0.21974705243495013 -0.0034583680160998114
1217688000.0 -0.2605696395650131 0.043496195298316706 -0.08131966389898276 0.1335288521823318 -0.08083358253651751 0.13344115729660389 -0.21998279371172633 -0.0029416202473025294
1218375000.0 -0.260444164524255 0.044622920531012814 -0.07865454112068382 0.13495815742151154 -0.07813086683487645 0.13462384462642815 -0.2201952103024442 -0.0024741390190091716
1219062000.0 -0.2602784125104752 0.04594318714548598 -0.07587466335060285 0.1362536863934302 -0.0753733097749082 0.1357955047254084 -0.22062936703761177 -0.0020117085175310368
1219750000.0 -0.26017653532853596 0.04740142116133943 -0.07308899772605883 0.13747756677302772 -0.07279318573451293 0.13677037346013413 -0.2210144943991468 -0.0012661269298653824
1220438000.0 -0.2601254897423723 0.04890062753450268 -0.0702957533468404 0.13868275089860957 -0.07027135997333644 0.13791555285676355 -0.22147296734057664 -0.0009173152060068167
1221125000.0 -0.25998173579993195 0.05031510586207189 -0.06756291242294506 0.1396546987246975 -0.06776159208523416 0.1388667017936452 -0.22188131555637314 5.270600906179038e-05
1221812000.0 -0.25974409566752177 0.05199023674826827 -0.06477225821499191 0.14067315140179565 -0.06521006548983993 0.13994301547620874 -0.22240590305305252 0.0007695312398956753
1222500000.0 -0.2594400406734729 0.05356667907252897 -0.06211790237228485 0.1416179239520426 -0.06270692885099394 0.14093678989135755 -0.2229536834646989 0.0018256525383602805
1223188000.0 -0.2590602941927621 0.05525708237421245 -0.05945123686823976 0.1425741261997161 -0.060269671894285316 0.14211770105918928 -0.22356477243745906 0.0027803845297541033
1223875000.0 -0.2586533381001152 0.05696758211975905 -0.05684975940851403 0.14336710805080283 -0.057719154712783764 0.14326206341180647 -0.2242608828133323 0.003816472598714103
1224562000.0 -0.2581631033113719 0.05875223869914545 -0.05417938301213437 0.14433711836578822 -0.055242512358077756 0.14437161860910197 -0.22505729760268128 0.00486817210087667
1225250000.0 -0.2576664289796057 0.060389181879556865 -0.051606369025267024 0.1451333592766028 -0.052663162647479576 0.14567088447142862 -0.2256590481838866 0.00613256468907763
1225938000.0 -0.2571885069851135 0.06194806313817087 -0.04906778812411946 0.14602946809102155 -0.05006576003796712 0.14690681211222006 -0.22656227537947154 0.007449188472232341
1226625000.0 -0.2563525541225524 0.06362389506987214 -0.04645542329120386 0.14690035454720157 -0.04740027623851987 0.1481436664268037 -0.2272664310472307 0.008367675861151785
1227312000.0 -0.255786221740525 0.06504021363081901 -0.04388964852073904 0.14776250809553856 -0.04452449915941663 0.14931580708881695 -0.22823185757521192 0.00982164372516773
1228000000.0 -0.25504621526574034 0.06653841646243269 -0.04118573504014138 0.14869454502111704 -0.04165627493610823 0.15037417603068276 -0.22900801943848806 0.010852901205332513
1228688000.0 -0.25422796002012593 0.06791012777271187 -0.038667449120320704 0.14956844504095887 -0.038759597831690085 0.151465482357815 -0.23000653993851913 0.011951827435467842
1229375000.0 -0.2534673748027929 0.06924587879568941 -0.03602681377998375 0.1504547741105867 -0.03568410359337738 0.15247064713214728 -0.23073921704596678 0.012963501840076637
1230062000.0 -0.25295661416789533 0.07056721290322973 -0.03330121208588442 0.1514032494520486 -0.03248766508204379 0.15327821266072694 -0.2319368374116035 0.013702965991074708
1230750000.0 -0.25218395792255965 0.07168257719288763 -0.03064595599616037 0.15226954392979825 -0.029384377105546814 0.15396399234399524 -0.2328949492980289 0.014543004716210837
1231438000.0 -0.2515623077101571 0.07288193352808921 -0.027808466681990492 0.15320339131630373 -0.026168851734499503 0.15451411822425648 -0.23366031939783094 0.015412437457219349
1232125000.0 -0.2509457170010401 0.07415804551854359 -0.024992144268466576 0.15400890300129616 -0.022871440186178937 0.1549742053953624 -0.23471976943763107 0.015951649730161176
1232812000.0 -0.2503793490125471 0.07515875627057267 -0.022010716716199433 0.15475772093449344 -0.019730265514687286 0.15528352269734455 -0.23561060461986566 0.016540834359694903
1233500000.0 -0.24976984636176291 0.0763545635817057 -0.018894756256030338 0.15545641287995876 -0.016560366623473287 0.15549584206834344 -0.236668029399024 0.016984758866842555
1234188000.0 -0.24922990118106605 0.07765688593191811 -0.015888418365513378 0.15617499950198124 -0.013456259523382814 0.1556289792204339 -0.23761043585429253 0.017130554445466593
1234875000.0 -0.24885941366382497 0.0789676871997372 -0.012695117091472665 0.1567984836735971 -0.01044151192562478 0.15573431439157592 -0.2384868664523168 0.017292832541379404
1235562000.0 -0.24829275026643066 0.080175415117905 -0.009418421757712495 0.15726614552143872 -0.007428452887119752 0.15576949987868524 -0.23940858880596774 0.017482161196171297
1236250000.0 -0.24786462947650723 0.08159651607700585 -0.006065444662525629 0.15768511168492658 -0.0046076075942051336 0.1559194683356038 -0.24022374550157535 0.01742930251193508
1236938000.0 -0.24717127433738956 0.08277458639064754 -0.0027993340456140938 0.15796771921817965 -0.0016293363550686619 0.15587654610709525 -0.24096820946363703 0.017379023653729314
1237625000.0 -0.24643636018859047 0.08419284915932716 0.0005043703834815397 0.1580860939031624 0.0010945547930941754 0.15595658255755082 -0.24168369578758547 0.017455407143160875
1238312000.0 -0.24569288524809754 0.08556681574864733 0.003809498017917595 0.15807476755425992 0.0038292324966522607 0.15595264835291783 -0.2423029712282704 0.017445639355365077
1239000000.0 -0.24495018662722276 0.08694021139826509 0.0071743624532653845 0.15796614887858176 0.0065952492993852285 0.15603913035662428 -0.24289187273234503 0.01742185891382176
1239688000.0 -0.2441164528398716 0.08835668813985197 0.010510448353309672 0.15775468633198958 0.009379725519023318 0.1561187936836515 -0.24325777294121526 0.017589935136806005
1240375000.0 -0.24307408000545735 0.08978801420708071 0.013710330845545349 0.15757129204286008 0.01221001125868512 0.15617690636963902 -0.24372994144444232 0.017848273566257893
1241062000.0 -0.24216024626613028 0.09108825784541498 0.016805489701841304 0.15707746427929797 0.01518378156737048 0.15625962828880652 -0.24410339674066941 0.017992271944926145
1241750000.0 -0.24121516589771022 0.09236661251419831 0.02000158083445932 0.15681972098454544 0.018052192172992428 0.15635196467921575 -0.2442416306023498 0.018398849398135325
1242438000.0 -0.240227378552033 0.09345899573360372 0.023154283621432948 0.1561366729954909 0.021125788981692126 0.1563818288845236 -0.24440498810025824 0.01894870851426908
1243125000.0 -0.23909941621861855 0.09464851213351663 0.0261432719927505 0.15570300022275382 0.024268104543675197 0.1562957549318489 -0.24471709176982054 0.019529184301941154
1243812000.0 -0.23820317104995622 0.09562825464379623 0.029158458697942216 0.15514941649673544 0.027498968055979407 0.15616295671722966 -0.24498626020327724 0.020547177084008536
1244500000.0 -0.23720569813359083 0.0967447126958936 0.032151589186448615 0.15461066331043374 0.03085457210020858 0.15585616857633725 -0.24516133171503743 0.021412731242750827
1245188000.0 -0.23616612294169897 0.0978038041318189 0.03508411575231271 0.15394380397308696 0.03425563501000898 0.15561308325074297 -0.24525635212796662 0.022562645445336007
1245875000.0 -0.23546480261012873 0.09867734128982367 0.03806190070010281 0.1533530653061123 0.03764802108412831 0.1551771858995803 -0.24560603209380882 0.023733146517523517
1246562000.0 -0.2345373125858779 0.09970446474082684 0.04102092350199381 0.15267398823229558 0.041119813449259156 0.15456457928326361 -0.24587281739940162 0.025118930277204736
1247250000.0 -0.23379054741278688 0.10058231510205036 0.04396930616793028 0.15205065292801712 0.044542794480724054 0.15377030604886346 -0.2462196179110234 0.02644761337503218
1247938000.0 -0.23296880593935684 0.10157222408546421 0.0468811457553115 0.1512768504167791 0.04790645715290857 0.1530037500835068 -0.24652985623390702 0.02785751395159315
1248625000.0 -0.23234286821320257 0.10247963059994394 0.04985909974905764 0.1505644249388902 0.05129722511877977 0.15210035937747815 -0.24688993891638653 0.02912128721065289
1249312000.0 -0.2317090626861689 0.10352014855986383 0.05280247847498167 0.14989341330939704 0.05448599215841689 0.15110477751420018 -0.24726249462153196 0.03043641423994314
1250000000.0 -0.2310634269041721 0.10451616220553897 0.05580386378799812 0.14905947432044508 0.057716097362491274 0.14987638930717875 -0.24777495291788587 0.031794233336334195
1250688000.0 -0.2304513351236646 0.10552933425083598 0.05881582085128576 0.148243563982526 0.060828096775765554 0.14863613548247503 -0.24834197409142383 0.03297664867780035
1251375000.0 -0.22985285373181505 0.10659304786428067 0.06189828951136342 0.14734377635505008 0.06388571417490851 0.14723314433946658 -0.24883304369265227 0.03423707520895999
1252062000.0 -0.22929168150004248 0.10777652895643143 0.06483035100478238 0.14626384235536213 0.06684871620798231 0.1458814304467242 -0.24940448061899928 0.03499786420004503
1252750000.0 -0.2285508346495698 0.10882886647824667 0.06807283251091822 0.14521578874575475 0.06972662511412368 0.1444356191694822 -0.25025138527388585 0.03610294955162428
1253438000.0 -0.22788413485379203 0.10996017140171914 0.07109893209236667 0.14405966737144477 0.07256347350543467 0.14298465585804124 -0.25055991020780627 0.03681808438400076
1254125000.0 -0.2272092605453004 0.11106910531830841 0.07429093849000754 0.1428642452581007 0.0753262298038306 0.1414865798003265 -0.2512745896007534 0.03760381334693254
1254812000.0 -0.22659577531700467 0.11217995219736818 0.07742887476826277 0.14149171921190867 0.07808987130131737 0.14009927591837698 -0.25181398103121305 0.03825876031522747
1255500000.0 -0.22578384912009394 0.11320000158400534 0.08045601664125186 0.14007862776443902 0.08098580786892118 0.13861358889218783 -0.25236630803641985 0.03881498326931338
1256188000.0 -0.22491497107738379 0.11422118700919208 0.08355958243371596 0.13850599192662955 0.08359115875381794 0.13699936584246822 -0.25274472491402233 0.039272330045817885
1256875000.0 -0.22405796544904635 0.11515536296579967 0.0866130248861208 0.13684442326540308 0.08639280732593342 0.13546556048277522 -0.2530345969420395 0.039758548940671413
1257562000.0 -0.2233336361791065 0.11597969242214289 0.0895580829743732 0.1351721217038102 0.08913590922612226 0.13400020209669747 -0.25319733542171236 0.040023445273327976
1258250000.0 -0.22240123072989648 0.11694780514856837 0.09254249568853712 0.13331949455046394 0.09195793530911309 0.13238907225776275 -0.2532807566246291 0.040513540420858786
1258938000.0 -0.2215725825768866 0.1178559293181103 0.09553508445909988 0.13148674454341627 0.09478106281686963 0.13074408045574 -0.2533149391429201 0.04092138903453279
1259625000.0 -0.22086588542767216 0.11842681679908987 0.09845350969163831 0.1293994093698005 0.09761408464363606 0.12894824235890454 -0.2531817747868486 0.041502546268826504
1260312000.0 -0.22000658538347814 0.11923848980596266 0.10125244439504022 0.12730735187187775 0.10038791883680964 0.12714624195905222 -0.2528651774557082 0.041899631981415136
1261000000.0 -0.2193427260643678 0.1199869667439924 0.10387878586859868 0.12524715468818035 0.10319640862975839 0.12537255318462795 -0.2524165263550071 0.04270601747006062
1261688000.0 -0.2186170679269802 0.12056725687745294 0.10652176634836359 0.12313648221140829 0.10600056020379794 0.12338637180681403 -0.25184722797527526 0.0433895061790323
1262375000.0 -0.21776751625169033 0.12135207211248228 0.10911931244546418 0.12084552852789114 0.10886048657376488 0.12129126868611727 -0.25104481954969315 0.04421175420614622
1263062000.0 -0.2171906741336366 0.12190176210961494 0.11159832644700793 0.11854393791334628 0.11149765628000918 0.119046024769439 -0.25031319034096583 0.04529897586409256
1263750000.0 -0.21652520470511413 0.12275764696963505 0.1141648779608562 0.11624233843555296 0.11418413133689706 0.11678069073832185 -0.2494843794935614 0.046482760857305655
1264438000.0 -0.21572463451508453 0.12343750176907414 0.11657924370643329 0.1138507927940534 0.11680700462992478 0.1143810868780903 -0.24881161500634552 0.04784925909768908
1265125000.0 -0.21500437485873822 0.12435024867918155 0.1190163229509971 0.1113638979325878 0.11940770636753002 0.11189467166855153 -0.24793882947982307 0.04943458920089767
1265812000.0 -0.21422695953898888 0.12496650522723735 0.12138699674714686 0.10885012017956366 0.1218226335599004 0.10934270715233603 -0.2471035867042786 0.051196532993290356
1266500000.0 -0.21362870573054385 0.12588875301522456 0.12361572776695508 0.10634756158070614 0.12422393861469253 0.10672043193919359 -0.2463182425890923 0.05306981142912458
1267188000.0 -0.212669578910095 0.1268072872774942 0.12591008667815748 0.10386318002923454 0.12637446032491229 0.1040328846851748 -0.24536024635646994 0.05501899174847068
1267875000.0 -0.211901435213639 0.12765829782743326 0.12808840353147194 0.10119044536493671 0.12866402425036888 0.10124398335553653 -0.24499932701007504 0.0572717760981754
1268562000.0 -0.2111716465135017 0.12848936093046628 0.13021087686650615 0.09854537336225663 0.13070178835423688 0.09850599499772546 -0.24436430148418514 0.059156797706589395
1269250000.0 -0.2101775422043499 0.12949046072104428 0.13218699687092644 0.095911564289571 0.1327009136916917 0.09557542905776774 -0.2438856193525698 0.06156663145873971
1269938000.0 -0.20929177297783583 0.13017262634067303 0.13421656974243001 0.09309335530566391 0.13470762467601338 0.09277058418377492 -0.2436325127697205 0.06379857487959534
1270625000.0 -0.20840749338421233 0.13126823501572202 0.13621420928928107 0.09033139012224065 0.13664806137666305 0.08996960635348825 -0.2435788929891677 0.0658316122176283
1271312000.0 -0.2072880695064296 0.13207527171610658 0.13806831138898673 0.0874449787545061 0.1383715822933785 0.08698302412252004 -0.24362401756112775 0.0681543140855192
1272000000.0 -0.2064253168631738 0.13288533732661992 0.1398251471026703 0.08465860020222629 0.14019078170028584 0.08411761025743376 -0.2435754146559255 0.07033631032435952
1272688000.0 -0.20550270125916245 0.13379141201709563 0.14163107119545185 0.08169339007216256 0.14187591000949518 0.08124566992776999 -0.24389454617802797 0.07238128840188034
1273375000.0 -0.20448516041628526 0.1346906740530112 0.14328107474712337 0.07865606769914514 0.1434715957908095 0.07831051757983318 -0.2442396956621784 0.0743816435287174
1274062000.0 -0.20357858874526252 0.13557991780587125 0.1448585835170687 0.07572145763974573 0.14497442461263296 0.07529864909494327 -0.24465209308957436 0.07611334029833097
1274750000.0 -0.20260086605833083 0.1365436321750818 0.14646751536742794 0.07261397977163898 0.14653381870373225 0.07222247918090868 -0.2451238266019478 0.0779240718545029
1275438000.0 -0.20150800890787343 0.13733244334357736 0.14794967355545663 0.06940678113547338 0.14802112823313812 0.06917561296403892 -0.2455122570464818 0.0795549209391742
1276125000.0 -0.20063614073264452 0.13818043812570896 0.14942128775606703 0.0663719954902484 0.1494666140337555 0.06607659729431622 -0.2459043698240278 0.08106148624399616
1276812000.0 -0.19970415066613878 0.1390715586559469 0.15080721744048117 0.06315255701312752 0.15078074747216025 0.06297824028747367 -0.24617687825231022 0.08245668158360397
1277500000.0 -0.1987797400900758 0.14001114408096865 0.15207634222621422 0.059924209270736085 0.15205380379730882 0.05984380698463289 -0.2464933476640283 0.08372221482079265
1278188000.0 -0.19777255459597715 0.1409538157734855 0.15327811921583895 0.05668711874830273 0.15327858616103515 0.05661773122090849 -0.24658927365154878 0.08506760803116062
1278875000.0 -0.19682455870091764 0.14178972352376037 0.15447619855051692 0.053425959756416806 0.15442067021378125 0.053486493941427585 -0.24689200937371264 0.08621798977321556
1279562000.0 -0.19591509579210922 0.1425963642012812 0.15551826516156575 0.05025792613604214 0.15545214187619957 0.05010856665975611 -0.2469225988678588 0.08724046601619186
1280250000.0 -0.19491476288360085 0.14364900083654 0.15647103048691077 0.04687308209888121 0.1565311230483213 0.04693963883800032 -0.24688062780647227 0.08838098839809419
1280938000.0 -0.1939807379924718 0.14436223680300023 0.15746916682687784 0.04348294136336978 0.15747454581059714 0.04362735572126264 -0.24653181387325146 0.08951638854723669
1281625000.0 -0.19303212432776007 0.1453715518440667 0.15832599487505175 0.04025377895406461 0.15859215578121377 0.040350066813547567 -0.24643669080085107 0.09069892839265496
1282312000.0 -0.19203451531284418 0.14610348669761866 0.15908013643375182 0.037002702367374296 0.15928783097723775 0.03703040245998127 -0.24588572565014813 0.09178853969808944
1283000000.0 -0.1910255755275182 0.1469653008770077 0.15977045979781015 0.033553031144144464 0.16005154595519872 0.033703344334907785 -0.24538463663643115 0.09307774207384037
1283688000.0 -0.19006710813591865 0.1478655092166811 0.1604825486859368 0.03031524295559227 0.16082282672032422 0.030211100900972888 -0.24467748202708958 0.09442107028124477
1284375000.0 -0.18916223811022284 0.14853991668218255 0.16101650235935938 0.027071372073914447 0.1614153966563051 0.026822988840141275 -0.24406636423752537 0.09587693459971845
1285062000.0 -0.18806328107072812 0.14942490757818808 0.16152220136443662 0.0235860799631691 0.16204847220608554 0.023386507579767887 -0.243489896856592 0.09761505695481229
1285750000.0 -0.18710587922028213 0.15018523480898302 0.16190437182193662 0.020129294751416855 0.16248215436459718 0.019946090797411956 -0.2429065627658537 0.09901290127490256
1286438000.0 -0.1859715437345547 0.15094496134719504 0.16231722957575098 0.016893963751479585 0.16284093268273542 0.016458326108279513 -0.2422674821495945 0.10117330888055208
1287125000.0 -0.18481231984872476 0.15169776467938478 0.16246396011695957 0.013487836066664784 0.16317184250614744 0.01288872321277008 -0.24166267372296465 0.10319759120831908
1287812000.0 -0.18377451895591937 0.15248875985660396 0.16284215957742929 0.01012179923516718 0.16341054385428166 0.00938986505577079 -0.2412613386627964 0.10519391012967197
1288500000.0 -0.18251501697884034 0.1532725626689564 0.16305199361520795 0.006726649091486531 0.16355216571955447 0.005871569477358958 -0.24102934122499634 0.10730082717044885
1289188000.0 -0.18142442320696675 0.15401214841845753 0.16320755716578528 0.0033265039679729767 0.1634446674674811 0.0023934400140703327 -0.24065836463222504 0.10958099278899996
1289875000.0 -0.18017200055943022 0.1545835428628546 0.1633470305371795 -0.00018735113086073115 0.16340565305197183 -0.0010773887721076609 -0.24039149981661218 0.11197211420631314
1290562000.0 -0.17881474303828251 0.1553673938065331 0.16324982290854018 -0.0035650805213407466 0.1631836311850082 -0.004621513031533532 -0.24055536551475207 0.11424237578974447
1291250000.0 -0.17731936119946284 0.15592921561543382 0.16313553126661773 -0.007021644885376029 0.16287306552592867 -0.008062783203710048 -0.24049494092862206 0.11648180278036445
1291938000.0 -0.17588496744591411 0.15649077893819413 0.16291029360830647 -0.010383279539457934 0.16244680583178114 -0.011391976092054109 -0.240792237847624 0.11864801254639422
1292625000.0 -0.17434506133597397 0.1571319053421352 0.16262617273343513 -0.01390362547781236 0.16200643314884 -0.014746263331967494 -0.24107573979522104 0.12096376657746671
1293312000.0 -0.17289014227772143 0.1575281358184718 0.1623232474288447 -0.017332288505740926 0.16130480466629693 -0.017895860463951637 -0.24139686643876368 0.12305288764481141
1294000000.0 -0.17141702564902309 0.1580038956494126 0.16177952408670768 -0.020684626858373533 0.16075259743377127 -0.02115500581755932 -0.24182349487634117 0.12498480388098063
1294688000.0 -0.16981695470596847 0.15866903054737627 0.16138359299455085 -0.024139025148287918 0.16014404986559963 -0.024364950852777026 -0.24217022823356812 0.1268902759684103
1295375000.0 -0.16833421057239986 0.15872129303004015 0.16069044023380447 -0.02752456280599871 0.15943205700881813 -0.027497964426055177 -0.24248870031189074 0.1286685945901233
1296062000.0 -0.1665923146457133 0.15920320920202857 0.1598890029670846 -0.030919447768341237 0.15872950357014254 -0.030504838596662417 -0.2427596901522657 0.13038114712963073
1296750000.0 -0.1652366505405709 0.15935713258678344 0.15899081265834117 -0.03419600943463186 0.15799730189826502 -0.03364140199280869 -0.24304000244946808 0.1316648664098467
1297438000.0 -0.16356755514079926 0.15958295714577952 0.15802564135718344 -0.03758724449149167 0.15715039005571643 -0.0366585349580137 -0.2431985223994683 0.13299878732089337
1298125000.0 -0.16198323229510586 0.15992364778136547 0.15697325331599948 -0.04083889041253964 0.15642865633903963 -0.03976820515792398 -0.24338725909267378 0.13412652843864484
1298812000.0 -0.16035405423135876 0.16029112623277553 0.1558210739157395 -0.0441253267216302 0.15558169613504413 -0.04288288502222235 -0.2431442879073669 0.13511130078025993
1299500000.0 -0.15887758833458726 0.16036630352735295 0.15459327885269916 -0.04733877065425884 0.15485995068893707 -0.045918296729176314 -0.24303432538827732 0.1359146618178807
1300188000.0 -0.15735638370362018 0.1607952669856793 0.15324571026992617 -0.050351843672215096 0.15392713904376903 -0.04916857457909646 -0.24260314253042806 0.1367855921726101
1300875000.0 -0.155646400306379 0.16113753672808748 0.15203190693060187 -0.05342255666569975 0.1531119229478908 -0.0523625119367854 -0.24222561743079693 0.13730446567853594
1301562000.0 -0.15436826307482732 0.16139419556238838 0.15069110047894002 -0.05643822060396838 0.1521172916601543 -0.055566906906592016 -0.24141439313370858 0.1380863168711805
1302250000.0 -0.15270469877534662 0.1616882791560503 0.1492342436555852 -0.059387952063670625 0.15099203306784612 -0.058794210816862605 -0.24065514916895708 0.13844035341653543
1302938000.0 -0.1509720038177535 0.1620911397240728 0.1479011397670684 -0.062178919149399055 0.14965805042418787 -0.06205933639720655 -0.23970694808306353 0.13904752984219265
1303625000.0 -0.1493874312483623 0.16249364242938788 0.14638125450260087 -0.06498226098469599 0.14829854493278616 -0.06535075534401458 -0.23853918834622895 0.13948092841970555
1304312000.0 -0.1478040086007275 0.1626800043441171 0.14489665658416145 -0.06774663554274815 0.1467690234206694 -0.06853387423823455 -0.23734845429961 0.14029386376322553
1305000000.0 -0.14618834199253622 0.16286759669345569 0.14336014570777572 -0.07046202945812427 0.14518430721489545 -0.07167343084678059 -0.23592028067646265 0.14099967743161343
1305688000.0 -0.14437045457076073 0.16325263025335135 0.14209542785738163 -0.07314814071368399 0.14339955373216273 -0.07484961387017154 -0.23452928750611202 0.14184306483770825
1306375000.0 -0.1426591626107351 0.16331527354939632 0.14038705133148954 -0.07592118312165007 0.14144424764883745 -0.07790130780533212 -0.23306350466011339 0.1428100136624335
1307062000.0 -0.14075648144593145 0.16346178777717946 0.13889311172919064 -0.07855327726181847 0.1394238288413062 -0.08081186233022691 -0.23151220709331674 0.14386803486656788
1307750000.0 -0.13912642739356573 0.16339478772021196 0.13732743219369262 -0.08128516608994993 0.1373777320538177 -0.08366243221762765 -0.23003367237345784 0.1451107972987935
1308438000.0 -0.13720602197548723 0.16358673230760254 0.1357067298971853 -0.0840388227968699 0.13523029010492232 -0.0864139486900341 -0.2287209301286608 0.1465758500880703
1309125000.0 -0.13570505786807094 0.16342245664090588 0.13407467596495146 -0.0866102492585702 0.1329589947313308 -0.08894657183533217 -0.22707678710293455 0.14791050379946552
1309812000.0 -0.13394586131567773 0.1632714618438313 0.13229821114744778 -0.0894037553296565 0.13079578943654965 -0.0914094067262607 -0.22578578476871305 0.1494981481374742
1310500000.0 -0.13238036166093523 0.16296898989971623 0.1304376480427731 -0.09216615442332877 0.12865069975453947 -0.09371798992214105 -0.22429490708763627 0.15136275154827583
1311188000.0 -0.1308291079787806 0.16271333742077654 0.12866848569474065 -0.09492117498667431 0.12649357965979097 -0.09600173083535811 -0.22301360017243135 0.15304356877282688
1311875000.0 -0.12950791789900157 0.16225584894762504 0.1266904503899093 -0.09750980815436963 0.12430615791421133 -0.09812175859471871 -0.221769441854094 0.1549087252969127
1312562000.0 -0.12797232755304966 0.16203528898912817 0.12455905123572591 -0.10017340644054853 0.12221777535841483 -0.10019925874221987 -0.22041810040653181 0.15654061012228104
1313250000.0 -0.12689453043546176 0.1617100668938677 0.12248912541039085 -0.10278776846853582 0.12023482873545126 -0.10228454555043827 -0.21909818223251046 0.15825961212377776
1313938000.0 -0.12560061219367588 0.16126880761854628 0.12011862141020428 -0.10529965533949154 0.11828138767953916 -0.10434811951344176 -0.21778870307211975 0.16004482383463206
1314625000.0 -0.12454996230614125 0.1610189056884783 0.11782001871366862 -0.10783721310080058 0.11633993846327115 -0.10643023037421442 -0.21639283581528024 0.161656947821143
1315312000.0 -0.12339272116863263 0.16059409789155343 0.11529844719021716 -0.11023010375534172 0.11441386609808252 -0.10849903098046516 -0.21516045413467907 0.1634319061513285
1316000000.0 -0.12236465454913215 0.16031226679583008 0.11290232037029692 -0.11242922482338782 0.11235553600147431 -0.11065372501230762 -0.21379151114918346 0.16484436807567607
1316688000.0 -0.12119549551531326 0.16007896676973635 0.11027566927131281 -0.11472672596465479 0.11027562249207333 -0.11279558388898708 -0.21239478974419196 0.166290011382736
1317375000.0 -0.12020151586687937 0.15972200423977426 0.10759784577929243 -0.11687551562581297 0.10821806411032589 -0.11498307886275842 -0.21113296958647823 0.1676308766456334
1318062000.0 -0.11909876765139256 0.15951429248028187 0.10493823279151178 -0.11881486722830949 0.1059497255814006 -0.11723639490388467 -0.20957263309917942 0.1687805290525248
1318750000.0 -0.11803747499856124 0.15938559720289294 0.10227353259300326 -0.12072604063617529 0.1037164553914238 -0.11956495014163843 -0.20813217200354361 0.17000810862046467
1319438000.0 -0.11695277345639654 0.15908222211181955 0.09952995600064299 -0.12250342779085922 0.10124574345120015 -0.12177318779024013 -0.2065808458353405 0.17092975874791827
1320125000.0 -0.11568443086777214 0.1588304368113543 0.09683544222282933 -0.12434882213683479 0.09868601308492937 -0.12406708401739187 -0.20492135652786583 0.17184619073693355
1320812000.0 -0.1144423051383841 0.15857146175127745 0.09422939166344606 -0.12612404932923205 0.09583854028641434 -0.12626078606232993 -0.20293235211584013 0.1727377828009441
1321500000.0 -0.11329004960310184 0.1582881294915842 0.09145518880233547 -0.12749187837756706 0.09313019519247585 -0.12832299816377996 -0.20108648192704917 0.17337745968529694
1322188000.0 -0.11197998997861554 0.15791023196043857 0.08884209271766852 -0.12911357673918977 0.09017324860679819 -0.13029246974783265 -0.199292704555337 0.174188283420777
1322875000.0 -0.11073462661391767 0.15751778489893076 0.08615244492535154 -0.1305484231197746 0.08713747670452561 -0.13212770440734323 -0.19720157399247543 0.17487753395592306
1323562000.0 -0.10949545128084517 0.15711273535188075 0.08349458717480189 -0.132046909499155 0.08405310802523992 -0.13383579611920035 -0.19524281999770807 0.1753414662972139
1324250000.0 -0.10833980818230825 0.15655832592962185 0.08077326939542855 -0.1334573558582514 0.08098427639776709 -0.13542283496457944 -0.19296529606150986 0.17608033323436656
1324938000.0 -0.10725465649765414 0.15594791722076692 0.0781495335222804 -0.13478345695874513 0.07780585220254792 -0.13675766478173051 -0.19086830442903618 0.17688964878809468
1325625000.0 -0.10622004471578098 0.15531554212739399 0.07540448600772413 -0.13609974621020549 0.07476412595162128 -0.1379340597113709 -0.18866854838004277 0.17775857396363906
1326312000.0 -0.10517003740929402 0.15468400315937036 0.07273396026481298 -0.13741957238588087 0.0717449443554195 -0.13899427740771264 -0.18634683832703586 0.17867396771498745
1327000000.0 -0.10432805969885293 0.15419809107724575 0.07002274444146976 -0.13867707535728988 0.06873269415603077 -0.13994285295332576 -0.1841018902760683 0.17979857713505037
1327688000.0 -0.10341228318036438 0.15343792294107073 0.06730434686008198 -0.13996365323572402 0.06587879468040872 -0.14078785306911876 -0.18193239782448442 0.18090231680842575
1328375000.0 -0.10274335110548724 0.15292458623075755 0.06450446088115393 -0.1410470938461579 0.06304474154874531 -0.14161675046419023 -0.17949903634350445 0.18227865757795508
1329062000.0 -0.10209144554510043 0.1524552418170964 0.06179816289982995 -0.14232222638225603 0.06029924250626367 -0.14229879467237538 -0.17717779494566727 0.1837137647598676
1329750000.0 -0.10130148141587682 0.15193883313389203 0.05893928134989421 -0.14340662452060962 0.05760314927235056 -0.14300555160882972 -0.17498589064267414 0.18508757463596834
1330438000.0 -0.10074436537540443 0.15160363077223013 0.05605601650352076 -0.14451305148753912 0.05496772712987466 -0.14380850601140338 -0.17274499640725255 0.18670769227655307
1331125000.0 -0.10008901887927844 0.1512851755896667 0.05314163537671973 -0.14546620010181407 0.05238948874965291 -0.14458760889067238 -0.17046012989928103 0.18821184231416133
1331812000.0 -0.09948352589735437 0.1510319128632422 0.05019177521023001 -0.1463566272673424 0.049693871136533965 -0.14536293561640679 -0.16828936219391002 0.18980127650179207
1332500000.0 -0.0988357533842467 0.15086517118348466 0.047221752680026575 -0.14712848376851131 0.04718155466581423 -0.14612010445753432 -0.16612647942762931 0.19141169005694042
1333188000.0 -0.09830692385403234 0.15077853363170252 0.044374226199956915 -0.14801232297317304 0.044409851367489435 -0.14705395924888928 -0.1640514668478763 0.1931177107098572
1333875000.0 -0.09756883729994206 0.15070369930540617 0.041408072085863834 -0.14870343279260384 0.04164494090067701 -0.14799275514688293 -0.16195131250790315 0.1947470145386672
1334562000.0 -0.0969417571255039 0.1506344492249565 0.03840687467843816 -0.14930687682395818 0.038909755689886014 -0.1488407230503431 -0.15991935077264502 0.19621269158026908
1335250000.0 -0.09613550411886976 0.1506002402444601 0.03546264332857624 -0.14984921497327602 0.03598610554366374 -0.149667253961343 -0.15782810974410555 0.19767777096900577
1335938000.0 -0.09531166468595344 0.1505125464889369 0.03240005757748597 -0.15024531586110862 0.03303442854581729 -0.1504399747195574 -0.1558297919411039 0.19904930050462166
1336625000.0 -0.09451334373586455 0.150335435164806 0.029493505070223455 -0.15073885053153557 0.029929135379900638 -0.15113109046683484 -0.15384422954303884 0.20026288551085605
1337312000.0 -0.09375506569805744 0.15020601071239115 0.026484534285023394 -0.15105302917747693 0.02685895841052842 -0.15171638415167285 -0.15193696750520674 0.20128521431251048
1338000000.0 -0.09287650333620004 0.15013549250684843 0.0235269279775571 -0.15134745693577234 0.023638100667753032 -0.1522094509266993 -0.14986360771485435 0.20233069372708343
1338688000.0 -0.09198518953833122 0.1497375427143136 0.020498383941586245 -0.1514757172249575 0.0204628041611905 -0.1524655689390803 -0.1479633060314294 0.2032781080932139
1339375000.0 -0.09139272379462343 0.14951924544377834 0.017436861556992683 -0.1517451851958545 0.01730671932946598 -0.15275535938397947 -0.14597352229602298 0.20412603737241966
1340062000.0 -0.09059136279735433 0.14912019879735902 0.01463455003892106 -0.1517520027504793 0.01407720204164646 -0.15280278847499829 -0.14403884092611224 0.20480413506919293
1340750000.0 -0.09009380329665469 0.1487132560621184 0.01171689933490544 -0.15187547899769188 0.010926550369190187 -0.15274093865586408 -0.14232173630520875 0.20540270126616306
1341438000.0 -0.08949405236512573 0.14832382850191894 0.008685083248912182 -0.1519758057153184 0.007843960418612766 -0.15254605596357218 -0.14037187176771931 0.2058548272314939
1342125000.0 -0.08891093992928312 0.1479268224831656 0.005796552912247467 -0.1519597785911926 0.0048333925709520085 -0.15235122290515893 -0.13869624652652868 0.20628195250443873
1342812000.0 -0.08842194685274038 0.14761219783752938 0.002888727743342988 -0.1519034782521663 0.0018053187727128787 -0.15196521324266815 -0.13661803027757286 0.2066380529535852
1343500000.0 -0.08812222122553079 0.1472850244679731 -3.693824944147077e-05 -0.15182563578726652 -0.0011082404335481532 -0.15159823354042695 -0.13492429995111288 0.20686363523622675
1344188000.0 -0.08765659693564375 0.14702763110390213 -0.0029592143401126836 -0.15170551544092956 -0.003881953676619717 -0.15112508978490194 -0.1332489534415054 0.2071204608090485
1344875000.0 -0.08729152925427427 0.14684069671377048 -0.005839123149397114 -0.151386535197074 -0.006614698445921023 -0.15075338704730412 -0.13141371753380138 0.20749346457391543
1345562000.0 -0.08695911747493876 0.14663589182391 -0.00873520808182323 -0.15117468891468375 -0.009327708496609334 -0.1502522918310166 -0.12976800203467764 0.2078162479743929
1346250000.0 -0.08657193440578906 0.1466244159045289 -0.01173292179647164 -0.15083600123062824 -0.01195950181030265 -0.14988180284669606 -0.1280358779355073 0.20794579740399777
1346938000.0 -0.0862376237763638 0.14647158807308383 -0.014483225379871463 -0.1505619359647147 -0.01459251613796529 -0.1495352734289118 -0.12664995804992102 0.20834170373758976
1347625000.0 -0.08573695728620431 0.14645109648059532 -0.017403954148462325 -0.15002101416620417 -0.017151124929593472 -0.14916514312434173 -0.12495282019646299 0.20849890056468304
1348312000.0 -0.08518313984957138 0.14644684873204472 -0.020259146131816938 -0.14941229307001555 -0.019862252395834563 -0.1488532524276304 -0.12320302479708706 0.20883386565484433
1349000000.0 -0.08470112956065322 0.14638685629985834 -0.023175889621031134 -0.14875175634912607 -0.022453634102661546 -0.1484661210889276 -0.12163822404946102 0.20888152542688745
1349688000.0 -0.08406577536652117 0.14633905279666481 -0.025918085300334917 -0.1482347602923593 -0.025144946735544692 -0.14814274152255003 -0.12045094374441592 0.20908141936400154
1350375000.0 -0.08335136619450854 0.14639463929339985 -0.028712901799035677 -0.14743454046977542 -0.027922792347461912 -0.1477289218607351 -0.11860909421295361 0.20933690308631053
1351062000.0 -0.0826615558386608 0.14621041989048553 -0.031501481627971145 -0.14673701543377574 -0.030656620938417388 -0.14722407578006633 -0.1169520031549279 0.20948745978718672
1351750000.0 -0.08186245078445548 0.14610493520091822 -0.03425473527652137 -0.14595705083681054 -0.03350443743309948 -0.14675088906662428 -0.11555718694637641 0.20967390645159653
1352438000.0 -0.08107497043088399 0.14601776834500016 -0.03687246174526591 -0.1452574004903676 -0.03640520114195236 -0.1461421408169607 -0.11387475338422964 0.20955912728081386
1353125000.0 -0.08036654991465277 0.14572537605375405 -0.039523570603348546 -0.14438583875845887 -0.03922682716968444 -0.145556923855857 -0.11225708950615448 0.20959198861026426
1353812000.0 -0.07954907297190097 0.14549231833958023 -0.042096034502420804 -0.1435378353524243 -0.04222175415096742 -0.14476466122868303 -0.1105206375074158 0.20951040027211998
1354500000.0 -0.07877831519739366 0.14518969411193658 -0.04469186015917193 -0.1427232196994346 -0.04497887262767978 -0.14390917902796696 -0.1089582218893828 0.20948634119698437
1355188000.0 -0.07805869640448226 0.14487289798750252 -0.04734154953949982 -0.14181261006252446 -0.04791371741299285 -0.1428693099846838 -0.10724006750354138 0.20938519094523939
1355875000.0 -0.07739341413594113 0.14445744351740886 -0.049856781013949365 -0.14088063486773997 -0.05065452031556108 -0.14178640527882805 -0.10544639450990788 0.20897348327109547
1356562000.0 -0.07677841033362408 0.14398838899852953 -0.052365468846934334 -0.13983979799150525 -0.05348315267960974 -0.14055930621313517 -0.10367468425789969 0.20876984401674034
1357250000.0 -0.0760909297738941 0.14354601354880103 -0.05483176216104492 -0.138827706934206 -0.05617478239752022 -0.13930318335342834 -0.10197714556616418 0.20847026693364398
1357938000.0 -0.07551944584600649 0.14320905072848295 -0.0573711700343859 -0.1377861918277985 -0.058902391603428375 -0.13800781775248508 -0.10005709819690704 0.20801144610321862
1358625000.0 -0.0750314356890183 0.14276116936539432 -0.05999901305912047 -0.1366926373526728 -0.06145904822636997 -0.13662626335939873 -0.098046691416166 0.20753060952512872
1359312000.0 -0.07456169517668594 0.14237793242961763 -0.062469060791798606 -0.1356403202055336 -0.06392066435504866 -0.13521286534655455 -0.09608223949554504 0.206986753874233
1360000000.0 -0.07410275236481181 0.14204126793396074 -0.06495083569332313 -0.13446604636514786 -0.06632087424100856 -0.13388719307943703 -0.09410186869186109 0.2063622595571746
1360688000.0 -0.07358777887915151 0.1416606510582709 -0.06759464878024588 -0.13330985865202455 -0.06876615475192532 -0.13241861300725602 -0.09221453335628989 0.20580821830178594
1361375000.0 -0.07312382722398415 0.1414023566113778 -0.0699601731201149 -0.13202132999771668 -0.0710028768743922 -0.13102249034692293 -0.09041845678010091 0.2050572440592716
1362062000.0 -0.0726151949299525 0.14104194625781874 -0.07257987578469692 -0.1307007721157372 -0.07322413191975767 -0.12958327825415175 -0.088474384638658 0.2043219930101585
1362750000.0 -0.07218489615091464 0.140821077041307 -0.07497116899485953 -0.12933567898188333 -0.07549482381245529 -0.12821292232232814 -0.086568480707591 0.20357311352774377
1363438000.0 -0.07157498264876334 0.14044878229365232 -0.07758695840295696 -0.12783309564663026 -0.07764563769704005 -0.12680419800067858 -0.08458816062900702 0.20285425541676552
1364125000.0 -0.07106410440231345 0.14021673473006638 -0.08005957894053865 -0.12637017984696045 -0.07991807249357699 -0.12531511980561524 -0.08275358764859861 0.20218386316854006
1364812000.0 -0.07049954011434101 0.13983990736349 -0.08245446383573611 -0.12483899169676738 -0.08213383359215076 -0.12399705852043469 -0.08098948618296402 0.20123405306842274
1365500000.0 -0.06989765329220902 0.13949698059756932 -0.08473395872882114 -0.12317584692602647 -0.0843256006769852 -0.12259173586339395 -0.0790643930158325 0.2005294359626749
1366188000.0 -0.0693891582407995 0.13909311688356568 -0.08723395200457956 -0.1215777810200741 -0.08650501031181453 -0.12111021038088102 -0.07724631481103453 0.19982619572215313
1366875000.0 -0.06875892227734019 0.13865205883698015 -0.08956995637713448 -0.11992995368780043 -0.08872200378008344 -0.11959885120077732 -0.07539579239758319 0.1991104935968911
1367562000.0 -0.06816315284696173 0.13816482048077358 -0.09174069271907685 -0.11813072604912982 -0.09110163324576988 -0.11806221061688171 -0.07364556833447268 0.19823444999180878
1368250000.0 -0.06760100157105518 0.13761343090511868 -0.09393824572423651 -0.11625092381429998 -0.09338493730093246 -0.11644832011754008 -0.0718803410593237 0.1975187250157279
1368938000.0 -0.06707179342484121 0.13707373251633007 -0.09617536861012078 -0.11447135358431453 -0.09565021472257486 -0.1147104486850725 -0.07009713672691008 0.1967224367176688
1369625000.0 -0.06663428650327297 0.13639775995697742 -0.09820751730986342 -0.11259140082632921 -0.09789851673327658 -0.1130072149928775 -0.06853681508275272 0.19588935637425736
1370312000.0 -0.0661703606512714 0.13579698742849067 -0.10028136441566146 -0.11064064111658166 -0.10017629995231256 -0.11112809621483294 -0.06666136961359193 0.1949657318772763
1371000000.0 -0.06576134472519968 0.13503300681700614 -0.10226159350825058 -0.10861777697699969 -0.10234104197849832 -0.10929373863698479 -0.06495593684510921 0.19405123382006276
1371688000.0 -0.0653963241196308 0.13428700865971632 -0.10435735191119523 -0.10677207842950502 -0.10454230963892809 -0.10727814493932078 -0.06320805534315888 0.1931410753326387
1372375000.0 -0.06510344420803947 0.1335674475941569 -0.10619228286845607 -0.10481211022134229 -0.1066656770532933 -0.10529509303708558 -0.06166735466704315 0.19211393924346085
1373062000.0 -0.064829700238135 0.13279200576234465 -0.10806832022474355 -0.10286259346459861 -0.10872005810493322 -0.10327780173772019 -0.05959367198019794 0.19112106539824888
1373750000.0 -0.06456443044194213 0.13213079044135626 -0.11001115316850808 -0.10068376781669726 -0.11056277555870049 -0.10112828617791612 -0.05784758149411913 0.1897991531955029
1374438000.0 -0.06436455348225682 0.13135484910666004 -0.11177794547622959 -0.09872013709885266 -0.11257073949088939 -0.09899500319549534 -0.05601456237063761 0.18866741780534385
1375125000.0 -0.06415639957239545 0.1307170207294166 -0.11357190061511821 -0.09666348749582067 -0.11439811143382293 -0.09679428030415825 -0.05416556746260456 0.18739861988969503
1375812000.0 -0.06392585623515823 0.13006549485381727 -0.1153686567863024 -0.09457287954176637 -0.11623280727814722 -0.09453692226422855 -0.05210443417083575 0.18598831517078426
1376500000.0 -0.06371112413691235 0.12938592032680643 -0.11705667018249585 -0.09239977088707113 -0.11790647750726699 -0.09225768713849149 -0.050169428554104285 0.18457304564607924
1377188000.0 -0.06359063498069861 0.12879755804736345 -0.11880173697224962 -0.09036876723592925 -0.11954545187286061 -0.09002167746563552 -0.0479380450066656 0.18321990162616342
1377875000.0 -0.06332636222640373 0.12829878960566518 -0.12054101411487446 -0.08808145696763689 -0.12113156484173422 -0.08779985063685579 -0.045820885515198154 0.18188195429766787
1378562000.0 -0.0632524661915002 0.12754545017135754 -0.12225505981405951 -0.08594476585541133 -0.12267193400489904 -0.08550366860356404 -0.04372731505871159 0.18036914393359496
1379250000.0 -0.06300299438818759 0.12694742295057337 -0.12389555265829351 -0.08370935868164849 -0.1243381792772174 -0.08318157453670148 -0.04142750502847623 0.17906053833880056
1379938000.0 -0.06275680752657667 0.12650133653518206 -0.12547948943399043 -0.08147779806999848 -0.1258165725548958 -0.08090421102477337 -0.039177782695824406 0.17778818109195402
1380625000.0 -0.06251826294785613 0.12591587543327268 -0.12710145736352968 -0.07917919697872688 -0.1273607679467755 -0.07858550203803967 -0.03698014398326071 0.17649672979827274
1381312000.0 -0.0622267725392538 0.1253216239255607 -0.1286503356889895 -0.07694267920336598 -0.12879360801590248 -0.07632069001789715 -0.034769919645265414 0.17514848182941709
1382000000.0 -0.061991503071850106 0.12472717267563305 -0.1301794966551424 -0.0745364050254819 -0.13028783822337617 -0.07401489762727931 -0.032773741359179584 0.17395584044327045
1382688000.0 -0.06168845258898388 0.12426199374153027 -0.13180224872491902 -0.07209791704501355 -0.13175821982441122 -0.07162289173750135 -0.030586612285579406 0.17293256880600402
1383375000.0 -0.06149284644046753 0.12364296099526842 -0.13314573619354392 -0.06967495986661716 -0.1331369820557036 -0.0692468846490685 -0.02849629588996734 0.17195423416151434
1384062000.0 -0.061097511420193595 0.12312453697697304 -0.13454968753552712 -0.06726091072477179 -0.13447126720724425 -0.06679264052445293 -0.026568578463600483 0.17079126930583996
1384750000.0 -0.06099772475812933 0.1225101273243525 -0.13593608403026683 -0.06470227061067613 -0.13587765472553956 -0.06440798337107209 -0.024669032541496935 0.16981623604528048
1385438000.0 -0.06074961796177418 0.12194791478663651 -0.1371985366888868 -0.06216385257804614 -0.13709252364828287 -0.06193219441551859 -0.02291608746503807 0.1687913262591462
1386125000.0 -0.06047287277270611 0.12133325722394869 -0.13845346004453274 -0.05957791731036679 -0.1384302274619289 -0.059372622762033284 -0.021265026651539027 0.16779107041813413
1386812000.0 -0.060298682371016314 0.12081450710689615 -0.1397474307838677 -0.0569783524008746 -0.13973395069086472 -0.05682907032160613 -0.0196760514140742 0.16701526794767163
1387500000.0 -0.06016132637310434 0.12033358240505963 -0.14086844209455576 -0.05428585958198314 -0.14097956763402658 -0.05429980390172937 -0.018301747126003125 0.16596663276090415
1388188000.0 -0.0601125043067287 0.11983345234988288 -0.1420221789444138 -0.05175790782449936 -0.14209188372936069 -0.05165604241317535 -0.01696301514154707 0.16505316521073876
1388875000.0 -0.05995278102334888 0.11926433275566017 -0.14306269438521357 -0.04903654523065283 -0.14318364717417828 -0.049033978302746424 -0.015825818260602646 0.16405761229706187
1389562000.0 -0.05985619440981123 0.11878797044546661 -0.1440352215902764 -0.04635963440749202 -0.14424768997356122 -0.04629272230925487 -0.014751790942694572 0.16285272769208603
1390250000.0 -0.05980463346423271 0.11829241364536171 -0.14508217643079513 -0.043562984055967716 -0.1452245177416709 -0.04346246977199764 -0.013829852831949364 0.1618915496997433
1390938000.0 -0.05973977660747832 0.1178034033908108 -0.14601300184956661 -0.04075628998686097 -0.14624545554678245 -0.04068466004209391 -0.01299003934489086 0.1608493421597779
1391625000.0 -0.05973518783678592 0.11748435977226208 -0.1468162357492545 -0.03803268758805101 -0.14709433556474005 -0.03785980046962808 -0.012129821883449654 0.15955886412508544
1392312000.0 -0.05971022678590689 0.11698116425704669 -0.14764857107596188 -0.035128395627882156 -0.147927901966684 -0.03500052623164321 -0.011536871606518707 0.1581744266317163
1393000000.0 -0.05972871353450499 0.11659698404973615 -0.14841590021210735 -0.03233566049671165 -0.1486948238258902 -0.03215803291516664 -0.01074576569058239 0.1567872902616871
1393688000.0 -0.05972211885228111 0.11628845907880778 -0.14911934986038622 -0.02951643773074986 -0.14947127456892145 -0.029352592883329413 -0.010149426848476308 0.1553417107714037
1394375000.0 -0.059728998338224835 0.11592502652755322 -0.14983118605800153 -0.026708771400350845 -0.15006302769254737 -0.0263963704580494 -0.009536964057421835 0.15368961462741695
1395062000.0 -0.0597173424351948 0.11559557898606289 -0.1504688748011748 -0.0238556925126509 -0.15065039794953977 -0.0235147721917334 -0.008901155342755106 0.1521460312585173
1395750000.0 -0.059824961306890106 0.11526009075653892 -0.15096334106035056 -0.02096105917686803 -0.1511733670450267 -0.020562531222959472 -0.008303609683177495 0.1505537657370414
1396438000.0 -0.05982920945217853 0.11501659058292213 -0.15150849858191984 -0.018038430146362947 -0.1517090318712737 -0.017572296742075316 -0.007551214568248325 0.14873510422493302
1397125000.0 -0.059832909385654866 0.1145979550275594 -0.15200508970608012 -0.015154485850047637 -0.1520647919282801 -0.014672427621050428 -0.007007503341808902 0.14691923209500338
1397812000.0 -0.05989041089514688 0.1144185243944542 -0.15241164298220428 -0.012191065424597037 -0.15238757491624 -0.011689210867892546 -0.006213075207822 0.1451586037927762
1398500000.0 -0.0599331713266996 0.11422388201965246 -0.15268214162313815 -0.009226543367153285 -0.15277815027820688 -0.00881717211481978 -0.005395901795675419 0.14332118905849464
1399188000.0 -0.0598168343509614 0.11390379842466232 -0.1529778686683538 -0.006267630162690078 -0.15309611556790945 -0.005775434830648866 -0.004616874582833422 0.1416208670325409
1399875000.0 -0.05978958826167441 0.11372544185452496 -0.15328323411180625 -0.0033409669095696244 -0.15328681283484774 -0.0029087681554090007 -0.004057611887099141 0.13978794032684486
1400562000.0 -0.05981022584506409 0.1134901428537201 -0.15340140799809776 -0.0003746846008598904 -0.15344020912254097 9.031002793695645e-05 -0.0030616486138594547 0.13807783348285432
1401250000.0 -0.05986613086645347 0.1131838641821291 -0.15355526531004132 0.0026659171295750576 -0.1535799230633245 0.0030797685394871356 -0.002151627109052257 0.1365015680872573
1401938000.0 -0.05970611635999511 0.11298032943556427 -0.15374324197240796 0.005800952533336045 -0.15360699194396527 0.006044591367064393 -0.0015436818585000877 0.13499257452436897
1402625000.0 -0.059673876748916256 0.11274266497721273 -0.15372046839363976 0.00878840719156099 -0.15354247341305846 0.009013425184901256 -0.0007666813914942218 0.13343619688640349
1403312000.0 -0.05967966227562889 0.11240011634798897 -0.1535957861662591 0.011822831873163278 -0.15349930024743477 0.012041264006187435 3.877194636942305e-05 0.13177273981599064
1404000000.0 -0.059583167209349044 0.11205673015743602 -0.15347728824049994 0.014943567306022273 -0.15335373695852 0.014936082247678693 0.0007563463557249352 0.13056983474756528
1404688000.0 -0.05953273344999144 0.11189462998665571 -0.15331505272295823 0.01791858606685385 -0.153257465606433 0.017996537662076414 0.0011641685042613628 0.1290611134814011
1405375000.0 -0.0595995637225616 0.11149158107836657 -0.1531386723032022 0.02101981664571871 -0.1529672892826459 0.020888736292715284 0.0018246348318733962 0.12765704255192503
1406062000.0 -0.059450369875536146 0.11124750079713185 -0.15270248154857688 0.024030334100411794 -0.1527073080817312 0.02403913903925199 0.0021975922318459894 0.126266672475833
1406750000.0 -0.05953573431729499 0.11106639878888953 -0.15243217191222988 0.02697045885592947 -0.15238017788349184 0.027053178382062417 0.0023417421683785064 0.12502864633701602
1407438000.0 -0.05947092694054233 0.11079119070361607 -0.15196171981087345 0.0301248475975577 -0.1519685618756152 0.03002339381198022 0.0025485552163123054 0.12381201855118805
1408125000.0 -0.05952425808968349 0.11062747771594658 -0.15142877957758208 0.033122624865863474 -0.1515243072843344 0.033028584972183014 0.0025664837934269657 0.12216511837827224
1408812000.0 -0.059523127561523975 0.11040835492446917 -0.1509192566022923 0.036211842604526714 -0.15092806110144172 0.0361372776282824 0.0024984747145372532 0.12096751373835211
1409500000.0 -0.05951640455908352 0.11027493698750376 -0.15008976449875175 0.039134687853731594 -0.15033386443729604 0.03912637247567757 0.0021743003858769334 0.11949215463357811
1410188000.0 -0.059484731592569035 0.11012607043056427 -0.149416157843335 0.042186615754198034 -0.14975462178745538 0.0422856720696521 0.0019322151091693892 0.1180974704094458
1410875000.0 -0.05953562570810228 0.11011812864421236 -0.14848828623060534 0.04509116312296533 -0.14896003447414438 0.04535539762592732 0.0013583047220828987 0.11652110711198825
1411562000.0 -0.05957481581951425 0.11018359939293274 -0.1478117031783372 0.04809696131667405 -0.1481168668482928 0.04833723027938353 0.0008747022804417343 0.11488198537382839
1412250000.0 -0.059489357465034885 0.11018070291789543 -0.14686503363449363 0.05100017031889149 -0.14721311958910607 0.0513617016332534 0.00027041992734270874 0.11303912580009397
1412938000.0 -0.05945626186307348 0.11028585507927001 -0.1458734743802312 0.05389993461488589 -0.14634605699034003 0.05435021995117654 -0.0002965113717399679 0.1113435392128554
1413625000.0 -0.05934090912541442 0.11043038698126972 -0.14488370238357043 0.05666768185754234 -0.1452431511868185 0.057361547636107804 -0.0013582141518213916 0.10948441077904862
1414312000.0 -0.05919385786221805 0.11065886002217816 -0.14377748641359384 0.05955520445664082 -0.14413633811504534 0.060256797217312516 -0.0019006797513877974 0.10759483362695568
1415000000.0 -0.05902049878520481 0.1108610708893069 -0.14263871573442508 0.062317115540760075 -0.14288625902568122 0.06314522414240645 -0.0024807995381743954 0.10558375615221065
1415688000.0 -0.058872858382717615 0.1110423334517374 -0.1415480741972257 0.06520715855070437 -0.14158176715525622 0.06599743242164527 -0.0033132495246929483 0.10370392076507126
1416375000.0 -0.058728544112741636 0.1112834679678743 -0.14015106716458195 0.06811990248823264 -0.14032119908273716 0.06872661985762037 -0.004036230456901266 0.10185242419413518
1417062000.0 -0.05844665458685614 0.11138544456665785 -0.138978957589832 0.07079825874676679 -0.1389078010582939 0.07155866730800353 -0.004458729322091916 0.0998372418231217
1417750000.0 -0.05817614365039811 0.11169101810512314 -0.13777886151261176 0.07357195149308995 -0.13745170708801457 0.07430575340231241 -0.004875314927423046 0.09804042620214597
1418438000.0 -0.05787980108029875 0.11192226879267801 -0.1364464528185958 0.07635512396616967 -0.13601960151643475 0.07709086419557412 -0.005433452483022067 0.09621024909737137
1419125000.0 -0.057560013674714354 0.11208245213538222 -0.13499078424615157 0.0792125304388876 -0.13449881931083618 0.07980219949625932 -0.005801351890142783 0.09437104317145287
1419812000.0 -0.057343830102153284 0.11217701729237188 -0.13350240299519261 0.08200103165479945 -0.13296423193269669 0.08246602441113643 -0.006046061265825168 0.0925835994642519
1420500000.0 -0.05704475895387701 0.11230303853451384 -0.1320656127623587 0.08476326411326633 -0.13135019552776867 0.08517141958512427 -0.006233581635777902 0.09105742445581101
1421188000.0 -0.05680984480785578 0.11249195295563809 -0.13044584521047983 0.08744921139988596 -0.12972070737351207 0.08783185848818073 -0.00641759800979426 0.08950011927605608
1421875000.0 -0.05669087930778919 0.11266511343030942 -0.12872463302484385 0.09016123658471144 -0.1280674382747985 0.0903239496683825 -0.006533363736832258 0.0880125913079102
1422562000.0 -0.05648255971188867 0.11273562873329601 -0.12695314635395732 0.09295165351604283 -0.12634597244393106 0.09293275397315989 -0.006707261016568693 0.08666866268098546
1423250000.0 -0.056507408595895516 0.11291000777041502 -0.12517606136188802 0.09554600303043637 -0.12468029466244931 0.09547887429546109 -0.006659229097336499 0.08540091744001077
1423938000.0 -0.05624870092555344 0.1130674409957022 -0.12328564167177346 0.09816797264132733 -0.1228608492582981 0.09805322235140389 -0.006655188842245748 0.08408698082862508
1424625000.0 -0.056218060039702436 0.11335563194609946 -0.12136862391105557 0.1008084434713576 -0.12091612116326257 0.1005434681261265 -0.0070443788892987965 0.0830980591057231
1425312000.0 -0.05604906208496869 0.11356284833726196 -0.11925395055204427 0.10321370505528796 -0.11894729402376687 0.10303901136598506 -0.007053645435776217 0.08213783125947974
1426000000.0 -0.056054264824689067 0.11392070333256057 -0.11705052534392632 0.10572487470159479 -0.11703379862979339 0.10551851816736137 -0.0071163796590842255 0.08119205642043863
1426688000.0 -0.05589607399980949 0.1142104536179268 -0.1147901175040678 0.10807297920986374 -0.11492737348139859 0.1078034869745744 -0.007532595379632685 0.08026943740290948
1427375000.0 -0.05581528861793711 0.11470175002956548 -0.11253724227746514 0.11049582105389097 -0.11282910189648539 0.11013129374895464 -0.007936439298134805 0.07954749869488521
1428062000.0 -0.05558316301474837 0.11504598530673572 -0.11025204146535024 0.11262953835422795 -0.11056400956476066 0.11244987407046855 -0.00831317681831809 0.07856946813413787
1428750000.0 -0.055459843096169 0.11552169770250435 -0.10789331996715719 0.11490018911163288 -0.1083240673135534 0.11466906482445426 -0.008997770169356134 0.07791076315597038
1429438000.0 -0.05515313436324552 0.1159043153070389 -0.10545986813684755 0.11697194477275492 -0.10592991653646398 0.1169200823851357 -0.009572913596940017 0.07733589294438874
1430125000.0 -0.05477457061054387 0.11639419035541361 -0.10304535331710273 0.11899504962736651 -0.10357498672125452 0.11908429434987448 -0.010228888379964393 0.0764650339322525
1430812000.0 -0.054346656248606705 0.11667311257240187 -0.10063148854696387 0.12095898016427019 -0.10108528365246036 0.12113211246788716 -0.011130231840079505 0.07576136778177413
1431500000.0 -0.05400424228916547 0.11711625314165068 -0.0982626272248404 0.1228491376401397 -0.09862940248180342 0.12321753579203762 -0.01203818535993423 0.07501864012870328
1432188000.0 -0.05346710897429266 0.11751538730062458 -0.09584607911913996 0.12474002327104175 -0.0960917191764582 0.1252017019395227 -0.012930809850756167 0.07439658930678995
1432875000.0 -0.053008658260985365 0.11777250306002465 -0.09346345904878127 0.1264870582263992 -0.09358923316653432 0.12710045080197546 -0.013935552046774623 0.07368255925475495
1433562000.0 -0.05250138521329587 0.118062799059371 -0.09101126862921825 0.12822005614263657 -0.0910211724016232 0.12886184783171087 -0.015013356123454294 0.07286779837749785
1434250000.0 -0.05200204303743643 0.1182590812293363 -0.08847712781673885 0.12985676110399544 -0.08843513829222185 0.13065196370695725 -0.01607158618272612 0.07227934238962241
1434938000.0 -0.05153860235927965 0.11847558323337211 -0.08609101870652956 0.1315744730400773 -0.08590524260943108 0.13236529996974503 -0.017189044769722484 0.07168140080028954
1435625000.0 -0.05104477485612633 0.11857465121968892 -0.08359837553842336 0.13320708512074553 -0.0832413522242827 0.13396680051484813 -0.01803328897794541 0.07094166329863849
1436312000.0 -0.050565866808744794 0.1187179065015307 -0.0810789635475989 0.13475752430835258 -0.0806319505857805 0.13562692563892795 -0.019182963465045482 0.07029590736316284
1437000000.0 -0.05010056131169499 0.11882470812981955 -0.07851465885234295 0.1363706289474351 -0.07792576026141301 0.1371619552447938 -0.019737088978677004 0.06990577968092156
1437688000.0 -0.049742617987197424 0.1189353747723943 -0.07590339965716143 0.1381013298280345 -0.07532519438132049 0.13869566723956195 -0.020577934874253787 0.06930438867200084
1438375000.0 -0.04941473178654192 0.11902401212340431 -0.07320950667260975 0.13954323254031753 -0.07262130857511613 0.14007267307421895 -0.021247719002800074 0.06897419264911209
1439062000.0 -0.04894873731312983 0.11914069448816703 -0.07049602639394524 0.14107859787151 -0.06986136506117843 0.14145047081016776 -0.02191962101944248 0.06866972865209646
1439750000.0 -0.0486434484041666 0.11934699654202655 -0.0677198334284954 0.1425850548856708 -0.06712009386812894 0.1427921882569538 -0.022477524345250455 0.06833454893553918
1440438000.0 -0.04828471858552707 0.11949480885084225 -0.06502979306334372 0.14408847564622496 -0.06427233541474373 0.14414447732562585 -0.022979877380004465 0.06814116234500012
1441125000.0 -0.04793387145432961 0.1197772562881035 -0.06205552042625859 0.14545426028698402 -0.061540464258253456 0.14541427657840608 -0.023243277762776928 0.06802903795840912
1441812000.0 -0.047573716782863824 0.1200038214678456 -0.059300300438937706 0.14683120781803288 -0.05861774703935876 0.14658138976959537 -0.02365850580028014 0.06796737803971431
1442500000.0 -0.047172190222517486 0.12038459004875128 -0.0562532774461268 0.1479415760651849 -0.0557754875756227 0.14785939259908426 -0.024018379668121433 0.06806654563759289
1443188000.0 -0.04672985519464712 0.12071667545153045 -0.0531452494400364 0.14924141246584388 -0.05283617487571859 0.14901397240672234 -0.02430628183677413 0.06814848801927477
1443875000.0 -0.04629220533549203 0.12100901558193022 -0.050225581738133504 0.1503053842625188 -0.04997443815283231 0.15012142950879623 -0.02471402174812834 0.06819970423635682
1444562000.0 -0.04571064769194751 0.12132077230338603 -0.04716444341934993 0.15136174903831123 -0.046972568648914415 0.15102592537774362 -0.025048254168976148 0.06842953416802179
1445250000.0 -0.045166337673166385 0.12172265214890172 -0.044094466875948715 0.15231984329400203 -0.04396689228637295 0.15199868726064136 -0.0255315278601864 0.06871192280793141
1445938000.0 -0.04470256328939655 0.12195518130092445 -0.04105765318232419 0.1529982880624181 -0.041000707916788726 0.15296298105634576 -0.025987146244240353 0.06882358091928195
1446625000.0 -0.04389754539043013 0.12227091366469324 -0.038040434281141976 0.15383666027083406 -0.03790737213054156 0.1537359253981378 -0.02643750900401937 0.0690514077210455
1447312000.0 -0.04333645752349677 0.12242042708485042 -0.03495099100417934 0.15453895595224565 -0.03493242155814508 0.15455760078152475 -0.027064967016409012 0.06931001451286868
1448000000.0 -0.04264230018878114 0.12259840360809333 -0.03187421011205054 0.15512951971287242 -0.03182731380859536 0.1552851341114402 -0.027628580018916823 0.06944429926218962
1448688000.0 -0.042084446265638134 0.12264126680797682 -0.028804088669712995 0.15566251585102092 -0.028826439763824305 0.15583043486002085 -0.028497306905963644 0.06969341375495075
1449375000.0 -0.04142159257395248 0.1226985159928528 -0.025782777685479447 0.15619364427106647 -0.025655840946522023 0.15646664874143562 -0.029212682341903662 0.06981568685773047
1450062000.0 -0.040834581275441054 0.12269753496450383 -0.022653201915936408 0.1564915489863644 -0.022646659274387904 0.1569798792545975 -0.03010855634601653 0.06989595471495727
1450750000.0 -0.04019964120819813 0.12254247106988417 -0.01960676394248832 0.15686179079513146 -0.019607290234258695 0.15724094013627715 -0.031030094600506583 0.06998296722576514
1451438000.0 -0.03967697722543369 0.12240340264373423 -0.016573627817929898 0.15721179781005412 -0.016478341375546813 0.1576523614591887 -0.031967628067331666 0.06995309038662571
1452125000.0 -0.039203762847521154 0.12235206285304734 -0.013593168199529947 0.15748876355129796 -0.013405782103429506 0.15795418417934043 -0.03290614670608024 0.07002687805325808
1452812000.0 -0.03867021887820776 0.12220031742051533 -0.010582390085303735 0.15782849635229126 -0.01031993379570625 0.15811852157432466 -0.03388746322899894 0.07000883372906626
1453500000.0 -0.03825106717778013 0.12205859037647218 -0.007693030023561318 0.1580148587424566 -0.007177968823350245 0.15827422304904662 -0.034861066018126566 0.06996092764294837
1454188000.0 -0.03776324285199471 0.1219017053093546 -0.004608134012283076 0.1582374589528585 -0.0041068712839107515 0.15842254772127146 -0.03578045726409526 0.06993304573971117
1454875000.0 -0.03746686271054472 0.12169891621255528 -0.0015388025245794564 0.15836000850079757 -0.0010034632495840672 0.15847837027255254 -0.03666611455134715 0.06988787452729846
1455562000.0 -0.0370802130522245 0.12152879280504689 0.0015015597279803873 0.15841954842399072 0.0019527773864965892 0.15841199206534412 -0.03729420331816996 0.06989059610923981
1456250000.0 -0.03656676720237495 0.12143919654653008 0.004674012373801213 0.15850879476724808 0.005074857545412502 0.15841437773927933 -0.03799453345913154 0.0698317622634211
1456938000.0 -0.036204177275136896 0.12134195541082932 0.007698520316684163 0.1584243853197852 0.008104123628297362 0.1583159567900997 -0.03858481105749486 0.06974583690928775
1457625000.0 -0.035694667164174264 0.12127317666239647 0.010759100700928219 0.158334267381835 0.011245401533717008 0.15821218501770354 -0.03901508050115889 0.06993901871537787
1458312000.0 -0.03517233392725049 0.12118773320487795 0.013960461617698016 0.158319836573548 0.014215457499030727 0.1581212797196513 -0.03953864981750218 0.07011343030518266
1459000000.0 -0.034649123249489544 0.12111149665719277 0.017062657006403473 0.15806090184312102 0.017373372847323865 0.15786142511487564 -0.04003560573570354 0.07025404920366335
1459688000.0 -0.03407900251247475 0.12089244596325946 0.020196521838398717 0.15779435504788183 0.0204325475038896 0.15761160790493445 -0.040007511019398256 0.07041324204820533
1460375000.0 -0.03347886084445853 0.12068881611337942 0.023420940317271266 0.15735096033697124 0.02350528916920677 0.15728602792040278 -0.0403428330749412 0.07061416611675064
1461062000.0 -0.032738263443826 0.12051918149167778 0.026545279237789352 0.15696826046458148 0.02656913629443376 0.15695474821697525 -0.040584667548184246 0.0709977218222327
1461750000.0 -0.03204772567857972 0.12017823157529123 0.029633513320497306 0.15630317151181083 0.029722273532480446 0.15645569267973433 -0.04060214283156585 0.07150448524290817
1462438000.0 -0.03127501561904569 0.11990181818187007 0.032801536757329296 0.15582035534576189 0.032757639940197814 0.15588603797270653 -0.04075698107630515 0.07193268022452476
1463125000.0 -0.030615954780628223 0.11946347762044227 0.035853584437431286 0.15505604297665732 0.035843548527746155 0.15527888290168154 -0.04095431409137264 0.07229702014356139
1463812000.0 -0.029878785490543135 0.11911053716726658 0.03893003512271509 0.15440557621587966 0.03897284557137385 0.15469588506346496 -0.04120212791890018 0.07265726434577988
1464500000.0 -0.029226927163141164 0.11857572845706889 0.04195269175242919 0.15354159961858616 0.04202502238718606 0.1540175680653375 -0.04141150100940699 0.07336583418602041
1465188000.0 -0.02861081548442063 0.11799416236053789 0.04494322031154847 0.1527430667116059 0.045051642167774214 0.15315950333360834 -0.04169130383052005 0.07358040291219019
1465875000.0 -0.028059978303792938 0.11748152750706062 0.04780964421475331 0.1519070917877596 0.048074673565102685 0.15225537179321452 -0.041942563931111565 0.07397441218773826
1466562000.0 -0.027466814398782062 0.1168413969408615 0.050778531935672215 0.15111232898311713 0.051099988936679705 0.15130983610626414 -0.04227497183196117 0.07447829193849312
1467250000.0 -0.02680686943334571 0.11616762640492417 0.05359400179361971 0.15008470604177532 0.05406342382833988 0.15042651120645356 -0.04269600102244876 0.07483513100834434
1467938000.0 -0.0263167082633561 0.11556959251791012 0.056494969305795395 0.1490476570594413 0.05707178322147522 0.149276555512927 -0.04326136285299391 0.0751056720331737
1468625000.0 -0.02590436556457767 0.11488147120957097 0.05935700374391893 0.14806629908353403 0.06008609635337999 0.14814974554927154 -0.043566659473382965 0.07519303015830238
1469312000.0 -0.02561278820922619 0.11421184330943453 0.062286507082113994 0.14694018447296323 0.06303321410247442 0.14692569386894028 -0.04411049450562104 0.07528399114484159
1470000000.0 -0.025249351589700448 0.1135297845526166 0.06517114463294238 0.14573544698274143 0.06591165524174158 0.14567316115843645 -0.04475502736919691 0.07533739594629016
1470688000.0 -0.02497361126733913 0.11294473850495625 0.06806732444441785 0.14461453735932828 0.0687936230947538 0.1443721878556479 -0.04540559696578868 0.07537985377306594
1471375000.0 -0.024737107383300243 0.11240620667741656 0.07096472775475626 0.143282157580572 0.07166427800230864 0.14289893748816473 -0.04576018931428067 0.07503787622563426
1472062000.0 -0.024418084307757177 0.11186842748083417 0.07380246426777994 0.14196351489466236 0.07448176915303019 0.1415920712810278 -0.04617852898067292 0.07485505115078879
1472750000.0 -0.024153266057207495 0.11127665422893845 0.0766727106603162 0.1405479561290664 0.07725323404599316 0.14006263080876186 -0.04679170680803726 0.07467543317910094
1473438000.0 -0.023954089248025334 0.11090887030691644 0.07959166323526122 0.13916526386451214 0.08006156885150684 0.1386812388963182 -0.04694836241535892 0.07432161167400288
1474125000.0 -0.02361285985928189 0.11034054313849984 0.08235318335752675 0.13753219976210856 0.08275408451297604 0.1371158210709316 -0.04712373755633252 0.07385001448543559
1474812000.0 -0.023252743444433427 0.10980992421488531 0.08526192636561926 0.1359989365718721 0.08547972964180335 0.1355712590058687 -0.046929596808615255 0.07326650390450987
1475500000.0 -0.022937667833032475 0.10928141658884404 0.08804482184260196 0.13426683405777184 0.08810484045080659 0.13391917260111194 -0.04705356426193824 0.07287673139780054
1476188000.0 -0.02261781351477756 0.10882894736303636 0.0908518141192341 0.13271959879856318 0.09072744919528784 0.13229735919546537 -0.046864516854665375 0.07233283964641887
1476875000.0 -0.022326918766735676 0.10816512274940232 0.09357270011144365 0.13098462205274328 0.09345448708168219 0.13057378888417684 -0.046256363307518505 0.0716863192548704
1477562000.0 -0.02206606865797129 0.10744289028689905 0.09632960067111485 0.129088936310247 0.09603731346033319 0.12879048992961406 -0.045845079364613496 0.07129845209960622
1478250000.0 -0.02168221327309924 0.10670479904020462 0.09887168019008706 0.12709564251635977 0.09870917527340715 0.1269413960282453 -0.04537250654448211 0.07078866629942755
1478938000.0 -0.021485910114464192 0.10607567938884388 0.10157540571238025 0.12517700688426478 0.10124906247795545 0.12502196711114583 -0.04463707016451553 0.07057729286136062
1479625000.0 -0.02120901346445203 0.10539061137686215 0.10404004974892214 0.12307985752254397 0.1037819006090281 0.12303018019723805 -0.043785349856700476 0.07024701275691977
1480312000.0 -0.020989197074039196 0.10454015106943182 0.10645424434941665 0.12094991057212269 0.10632697639032986 0.12102093359857671 -0.04307667825936149 0.07010450454999889
1481000000.0 -0.020861267514839812 0.10378462078812561 0.1089603084061671 0.11889439914233674 0.1087256726436682 0.11888863366732329 -0.04218359518780593 0.06999284506785713
1481688000.0 -0.020710441381031418 0.10293552213062472 0.11118310925440865 0.11668018480215453 0.11119096130716627 0.11674263725155518 -0.04144365442024064 0.07013432540733738
1482375000.0 -0.02056609092462986 0.1020190661357108 0.11366027015268396 0.11441547084758646 0.1136116604157781 0.11464852086899478 -0.040610907960731066 0.07027139192856702
1483062000.0 -0.020382749856887067 0.10126122086835489 0.11593239877673164 0.11221326896022649 0.11596484730251404 0.11236374758303935 -0.039783660931691736 0.07035342356461462
1483750000.0 -0.02024125483860179 0.10034262800030191 0.11819767164961437 0.10990557947533679 0.11834346207258661 0.11016864790695476 -0.039207478464273436 0.07103509142798053
1484438000.0 -0.020224969185970908 0.09953960808948244 0.12035864614933713 0.10753107935405765 0.12059584529154446 0.10782259230057659 -0.03859149060324508 0.07089161402836941
1485125000.0 -0.020202089910906103 0.09860671351718633 0.12241732069739641 0.10516808556472898 0.12281210323227848 0.10547542775753956 -0.03791800562906219 0.07132192956674512
1485812000.0 -0.020042013894819986 0.0977680237355916 0.12441542197755168 0.10278204013099797 0.12494484116455837 0.10304035003801791 -0.03748519138313788 0.07153355283378343
1486500000.0 -0.020085806606805107 0.09682586397792317 0.12642999790198525 0.10035047934557038 0.12688631982552911 0.10065902814884521 -0.03721413033663451 0.07187867415268379
1487188000.0 -0.020021562041536885 0.09608055312072963 0.12851629867190423 0.09804381422897344 0.1289618506660186 0.09814473392229801 -0.036932749521881254 0.07226336048184318
1487875000.0 -0.019833901286145466 0.09537692063561462 0.1304278187872277 0.09557010925116373 0.13093830086238814 0.09564788658749354 -0.0369184300271442 0.07228098293244684
1488562000.0 -0.019803772220505528 0.09446647811994761 0.1322426978465151 0.093105662230252 0.13281522489649558 0.09308564761921619 -0.03686918722978636 0.07259445794700553
1489250000.0 -0.019695024625327337 0.09364703841974815 0.1340220550719034 0.09046184238560562 0.13465721829205188 0.09048504870676356 -0.0367884275188336 0.07255974084767146
1489938000.0 -0.0196270541276083 0.09291538390875458 0.1358969809608006 0.08793808097946453 0.13652747079589814 0.08785857047049168 -0.037057927659660345 0.07252068844794714
1490625000.0 -0.019496308422731735 0.09209934005526527 0.13768331877162204 0.08524196878354987 0.13825785348786485 0.08509495337889529 -0.03713268852580838 0.07207192567210345
1491312000.0 -0.019399948190933405 0.09132436213063287 0.1393710045825214 0.08266106740179806 0.139984957496822 0.08246349233472175 -0.03734773619707765 0.07168876274788552
1492000000.0 -0.01926700607787686 0.09055792754434862 0.14105442812480948 0.07993241891342036 0.1415724192155648 0.07960818711493992 -0.0373453427499928 0.07132267810745148
1492688000.0 -0.019030785194083504 0.08978313453023815 0.14263504464424914 0.07719947281473513 0.1431699890073065 0.07682970519211363 -0.03759228285957406 0.07072193454698908
1493375000.0 -0.018852612675546544 0.08902975286677624 0.1441733304968406 0.07453400753328376 0.14474903991582286 0.0740092411102044 -0.037684913255098595 0.06991682955722471
1494062000.0 -0.018734899973568482 0.08824098492343896 0.14565446987001474 0.07176499707769544 0.14620225678765741 0.07113146615157183 -0.03779968944553866 0.0693131257147448
1494750000.0 -0.018568982137108746 0.08752506726720292 0.14729828761315403 0.0688352078573645 0.147771549687429 0.06824079458071561 -0.03776605783213536 0.06844950258571987
1495438000.0 -0.01843998127233526 0.08672569433126902 0.14876720622288758 0.0660415307439772 0.14902521695967408 0.0652756038626053 -0.03801528474874045 0.067427927603411
1496125000.0 -0.01827432848465791 0.08603964585310786 0.15011264941690888 0.06302924752998838 0.15047700038549278 0.06233851323096386 -0.03779464808815991 0.06647470576949356
1496812000.0 -0.018144961968906966 0.0852519785695218 0.15168837946120606 0.06005828018695701 0.15172902423929774 0.05935867950752944 -0.037309860071495 0.0654863810178031
1497500000.0 -0.017975194511969057 0.08452470167972446 0.15288735862064853 0.057124712255276204 0.15295319343441724 0.05633143976476164 -0.0369707640700695 0.06437387557314964
1498188000.0 -0.0179657590827055 0.08378587179602735 0.15416988723993458 0.05402627533288944 0.1541493622155209 0.05330514992971109 -0.0365926563263509 0.06341947788680115
1498875000.0 -0.01781327424304056 0.08305146259903007 0.1552507531608208 0.050940386901412255 0.1552111703173633 0.0502890915705107 -0.03614435728277189 0.06265297702677494
1499562000.0 -0.01780850419541755 0.08241841408559712 0.1565327556769857 0.04775002666153283 0.15623020796106948 0.04718399351912721 -0.035708098492396805 0.06182102860202127
1500250000.0 -0.017765497127154823 0.08166038569918237 0.15754313125735267 0.04465162561052589 0.15721967460139635 0.044044100242259535 -0.035022172242786816 0.06117108779600689
1500938000.0 -0.017857251446413983 0.08099818616300952 0.15852559174285655 0.0413460082802283 0.15813089243767056 0.041033565417903234 -0.034275978610293134 0.06056005626912107
1501625000.0 -0.017886886273446156 0.08025023927666701 0.15949609778399731 0.03806740048260737 0.15907160776619925 0.03781459660685999 -0.033732720493194854 0.060209402362311364
1502312000.0 -0.017962369130034014 0.07966822805965525 0.16025667965814647 0.03470766080952297 0.15991695681445436 0.03465514840037805 -0.033296558963685205 0.05984223604476188
1503000000.0 -0.01810640978288849 0.07894051462543508 0.1611802786898509 0.03145413816389162 0.16075912178112342 0.03151440940265692 -0.03271342559568621 0.05962419265223237
1503688000.0 -0.018284881230587326 0.07839318862064926 0.16170894982957656 0.02811194971879079 0.16142548161842699 0.028266790384285503 -0.03228079056053014 0.059529589062086295
1504375000.0 -0.01840770338154522 0.07781695231647716 0.1622758392804818 0.024891068487776006 0.16217890934348747 0.02502436065428583 -0.03222114581905716 0.0594758717123108
1505062000.0 -0.01862580733502851 0.07726417860883006 0.16293392602664264 0.021441313750557068 0.16265449723891665 0.021779223348827162 -0.03205730432659019 0.05956905623935161
1505750000.0 -0.018810045700011775 0.0766600862333823 0.16342852527129498 0.01801078644238669 0.16330050412276276 0.01845223152976413 -0.0322011559860963 0.05950424629452749
1506438000.0 -0.018918691255734903 0.07622235342270081 0.16368933889712076 0.014770507559935931 0.1638110039129375 0.015015195075051077 -0.03226660536139994 0.05944539618777072
1507125000.0 -0.019114893935066955 0.0758135556899073 0.16406455956470167 0.011394404118945904 0.16416404219628333 0.011610758487726356 -0.032594455801543035 0.059447502860852694
1507812000.0 -0.01933401793536985 0.07531549506262908 0.1642612450219846 0.00810767203167429 0.16457605123263952 0.008257134498516831 -0.03311518284426564 0.059604097900723976
1508500000.0 -0.019442381023090878 0.07486095751928248 0.16435131486370166 0.004686251765201958 0.16473684510777598 0.0048513463910219105 -0.03356609892518205 0.059276655805964404
1509188000.0 -0.019552793631619207 0.07436989663685592 0.1642968243625063 0.0014294379792601697 0.1648331008460759 0.0014253584728740082 -0.0344210182861804 0.05890631840094906
1509875000.0 -0.019722031899116397 0.07390291234968809 0.1642671523743226 -0.001859752057106533 0.16489840172093012 -0.0019233453190330803 -0.035349954817481155 0.058648473938579235
1510562000.0 -0.019872544221566365 0.0734230773473436 0.16428847614995332 -0.005254081999728805 0.16481969199812435 -0.00535737703524284 -0.036136731930222356 0.05824318550346266
1511250000.0 -0.019966086062300426 0.07289966095651182 0.16400513232088326 -0.008425078977039303 0.16472319813682293 -0.008747381858579885 -0.037071238281268654 0.057608893221803625
1511938000.0 -0.019987817682585236 0.07241664556255953 0.16377321805396214 -0.01176000550916737 0.16452456496485443 -0.012085946373665342 -0.03798799480359608 0.056704078741158646
1512625000.0 -0.020126045903679134 0.07193973686906247 0.16349929369752883 -0.014922704308077442 0.1641515516534176 -0.015495050331281615 -0.03900517289316452 0.05566871463819502
1513312000.0 -0.020246344521288918 0.07124721425191555 0.16319724277792974 -0.01815126010452897 0.1637773679267518 -0.018858019679504682 -0.04013394726071763 0.05462771426043897
1514000000.0 -0.0202485920844001 0.0706216336555744 0.1629110582970732 -0.021343253262316134 0.16329291700578455 -0.022039144445580097 -0.0411511887923976 0.053461951107234014
1514688000.0 -0.02039645755119972 0.06991995570154816 0.16248350686723984 -0.024573469982567774 0.1626522368867938 -0.025338454383942808 -0.042030296517450036 0.052144286858239804
1515375000.0 -0.02054315004090395 0.06912826614220845 0.16192998646809947 -0.027770051525641656 0.16212960337684748 -0.028564135039069374 -0.04304022272837886 0.05071742193901771
1516062000.0 -0.020755546343390056 0.0685049848730525 0.16150533170107223 -0.031034983222235732 0.1615454056415717 -0.03180888163895204 -0.043961069933800785 0.04931992066071249
1516750000.0 -0.02094317257240957 0.06780686990392779 0.16088115442032938 -0.0342744952873294 0.1608287985982527 -0.03505763308480849 -0.044662016679746494 0.048025432191681414
1517438000.0 -0.02122017123876884 0.06708811754056182 0.16033657105174592 -0.03750638363827294 0.16004705148633358 -0.03825382767540813 -0.04558760395196286 0.04651139203685344
1518125000.0 -0.021476329225938298 0.06642496296177738 0.15954840204230206 -0.04068193095938772 0.15927849345821768 -0.041401767395371165 -0.04622275489311905 0.04499641735412762
1518812000.0 -0.02176698091897282 0.06578897334005215 0.1588386367723418 -0.044090884352335 0.15839500890769506 -0.04447801729904372 -0.04695058021813053 0.04347167563139587
1519500000.0 -0.022128681405841476 0.06521597900614284 0.1579800783380436 -0.047249280916171685 0.15757095995539044 -0.04767119530349806 -0.04745022667729567 0.0421769922253048
1520188000.0 -0.0225081105711138 0.06457097705201635 0.15697788488271883 -0.05037298918796763 0.15652699015112437 -0.05080689893697569 -0.04793005562756467 0.04092364345639442
1520875000.0 -0.022914544627714247 0.06409005638149004 0.15599454210762656 -0.0535349542463479 0.15549881383578243 -0.053926102270001226 -0.048510134112824066 0.03987133473361617
1521562000.0 -0.023244848121131013 0.06356301948010518 0.1548233373483485 -0.05690661054177733 0.15442412193306007 -0.05704183143000706 -0.048926473464102456 0.039056363172320654
1522250000.0 -0.023483551418718832 0.06325736308522796 0.15353992680742307 -0.06013515751466245 0.15333176898217654 -0.060148302090701725 -0.04949353550302139 0.038228145571919205
1522938000.0 -0.023831004078420006 0.06287525510792571 0.15238446224350988 -0.06327326281623628 0.15209788797074295 -0.06340265791357456 -0.05002303033395275 0.03739744062112526
1523625000.0 -0.02410305390617149 0.06264589203049109 0.1510128164364101 -0.066347527457055 0.15089633546849002 -0.06643711721171107 -0.05051276048801367 0.03695138168247809
1524312000.0 -0.024424408511691892 0.062300285097609764 0.1495639351448114 -0.06944572623907821 0.14950638005132252 -0.06953657202985317 -0.05101768185504516 0.036541626260937446
1525000000.0 -0.024616143973505176 0.062078953524313314 0.14797036989174725 -0.07247493677097709 0.14809585861451952 -0.07266899517496485 -0.05170117925172041 0.03630799265623555
1525688000.0 -0.024746902594908506 0.06185948183901064 0.1464385624706538 -0.07545113979811403 0.1466422773405748 -0.07564583668750513 -0.052483721362999 0.03601037313605215
1526375000.0 -0.024994240907077542 0.06173524928445638 0.14482324368658578 -0.07841680903123184 0.1450901261543477 -0.07862262179081039 -0.05306643188369418 0.0357262134190111
1527062000.0 -0.02512510706571114 0.061407695912797496 0.14311473859614374 -0.08128193478266696 0.14326848754669105 -0.08150639721553868 -0.0538068850216526 0.0357418306382565
1527750000.0 -0.025302274164008112 0.061143082751046955 0.14138928925381472 -0.08419015797073148 0.1416037875961999 -0.08442342666985617 -0.054710570533359176 0.035571687139309256
1528438000.0 -0.025349811895001028 0.06090075644513565 0.13966657324320608 -0.08700707267534205 0.13974698202146107 -0.08724245020051588 -0.055750832330420046 0.03546989122465263
1529125000.0 -0.02552937926261771 0.06056780361459927 0.13794900270722651 -0.08959763426210852 0.1379516415083765 -0.09007606593420116 -0.05681689020653163 0.03527933428244842
1529812000.0 -0.025777164129733576 0.06034818930150225 0.13603270281083094 -0.09235781972360277 0.13599761165459462 -0.09270813219048829 -0.05786181518183736 0.03493459971360256
1530500000.0 -0.025874229136863425 0.05994940245774561 0.13418792208039443 -0.09497364649297439 0.13394714553635864 -0.09546563702239434 -0.0588225982212698 0.03448358486486498
1531188000.0 -0.026275337989806462 0.05959619311619454 0.13226354963732673 -0.09753770551950566 0.1319350645180143 -0.09795988610544938 -0.060112690239637216 0.03420677313274898
1531875000.0 -0.0265276791017061 0.05926641313313687 0.13022929862181368 -0.10015861734028066 0.12993796888546197 -0.10056604650821178 -0.061441784080594156 0.033668351352910006
1532562000.0 -0.026845642556863458 0.058805830489674187 0.12828700675471294 -0.10269665993176669 0.12786134519785064 -0.10298214337562742 -0.06237890183606417 0.0329910389368188
1533250000.0 -0.027292506366480132 0.05847225952430979 0.1261122078581888 -0.10516901173533243 0.12571542810695835 -0.10538230974753653 -0.06365807132618753 0.0323157769486996
1533938000.0 -0.027736110046173122 0.05806411112818492 0.12405404090098403 -0.10772330505913025 0.12359776244101553 -0.10777355827099028 -0.06479695816480657 0.03161166091931507
1534625000.0 -0.02828508637733238 0.05773333279307662 0.12180393876581626 -0.11020780824329908 0.12135708973357197 -0.11029934379766856 -0.06615239281729965 0.03073066006187613
1535312000.0 -0.028878913979896427 0.057453294301820515 0.11945085714957271 -0.11264698087876625 0.11925939001661641 -0.11261872069405875 -0.0672306418398871 0.029647341607735044
1536000000.0 -0.02938629712384222 0.05709812619301544 0.11735570606433143 -0.1150983935782603 0.11708907253671047 -0.11495478033682593 -0.06841022835091456 0.028869256090521923
1536688000.0 -0.030054828257610335 0.056837992809393945 0.11494562617825017 -0.11739743399064896 0.1148916397901653 -0.11725435284774631 -0.06971942322902945 0.02788837870916879
1537375000.0 -0.030668428347985246 0.05662861599751115 0.11253635764756971 -0.1196423494460016 0.11270196253553495 -0.11955998573213328 -0.07080564550747198 0.027018100084905232
1538062000.0 -0.031394215708256394 0.05638891725479735 0.11003811507358953 -0.12192910378051691 0.11034089196718781 -0.12171447769723646 -0.07177936726280898 0.026243370128524124
1538750000.0 -0.0319811807551713 0.056174555474452534 0.10762678131739536 -0.12400539502970852 0.10789915955589553 -0.12391890201144784 -0.07258108894391702 0.02538880808857484
1539438000.0 -0.032618410241061054 0.05593934972561128 0.1050511228591411 -0.12612271153488672 0.10550200114013847 -0.12608195206873987 -0.07371382248193822 0.024981603973950033
1540125000.0 -0.03318858545158017 0.05570310484482844 0.10252913513419074 -0.12808143096454347 0.10311792795306235 -0.12822345645970248 -0.074675584888107 0.024381019115238316
1540812000.0 -0.03383981888069751 0.05550259372092347 0.09998084258429045 -0.13011382035632835 0.10054804121586115 -0.1303075029934031 -0.0755014823065635 0.024163215126560333
1541500000.0 -0.034342034728913624 0.055084311433537404 0.09739221611096087 -0.13189854905450618 0.09789295974896621 -0.13233882527316854 -0.07634473691366633 0.023963665268021732
1542188000.0 -0.034984825522971524 0.05473165043672976 0.09481091984228603 -0.1338951720957285 0.09514925461808538 -0.13433010697457917 -0.07722802356611741 0.023962820526895252
1542875000.0 -0.03557283557687786 0.0543083883802747 0.09218779108209674 -0.13555264401319805 0.09242469740811124 -0.13632079360420976 -0.0780857813821735 0.023963700791270793
1543562000.0 -0.036170049230822086 0.0538343560709028 0.08950376496267394 -0.1373897135199517 0.08967663125544031 -0.13821497341685376 -0.07879481059755512 0.02408863259573924
1544250000.0 -0.036814680272663755 0.05334845431044185 0.0868731142008418 -0.13909629385768638 0.08683556284001773 -0.14005262883087843 -0.07978277766327736 0.024415088017953338
1544938000.0 -0.03749538329588129 0.052720766529972686 0.08416097394688317 -0.14082712312650644 0.08391081936852685 -0.14182609790001446 -0.08065220694424378 0.02476711972944756
1545625000.0 -0.03833297405916874 0.05224774550120965 0.08145013854055881 -0.14248269622006535 0.08098157563940662 -0.14360155816837067 -0.0813940784264781 0.025201524226556138
1546312000.0 -0.039052730917498904 0.0516456808602985 0.07877194255360294 -0.1441557693300881 0.07806219711917227 -0.14514970468302107 -0.08246632666054171 0.025697963249130384
1547000000.0 -0.03992765955306112 0.0510450420497235 0.0759913050065672 -0.14576618822829443 0.07510088005285377 -0.1466881540744515 -0.0833036375967098 0.026265438182600173
1547688000.0 -0.04098327786176492 0.05050743243182211 0.07309122024399121 -0.14740523116962295 0.0721262144449455 -0.1481568149033731 -0.08428115178904048 0.026797792442850965
1548375000.0 -0.04192475493688856 0.04996597540430955 0.07026761233721031 -0.14902552430803429 0.06913682550534739 -0.14948406283174465 -0.08502947486149416 0.0275192652932422
1549062000.0 -0.04302250957276628 0.049521031324221886 0.06725318902999973 -0.15042019278365593 0.06609703648552216 -0.15084475826892152 -0.08609722478994013 0.02800196592072528
1549750000.0 -0.04409339529559361 0.049195090637770056 0.0642165977590842 -0.15192840237473257 0.06308343930590564 -0.1520966933347819 -0.08718714301296995 0.02843398474750852
1550438000.0 -0.04518918944405943 0.04889606460369524 0.06104569937367079 -0.15326805925135586 0.06002191706822861 -0.15327412462935497 -0.08815705845112964 0.028915969057719617
1551125000.0 -0.04639707237329254 0.04867035629067938 0.05791548094454854 -0.15458642629702377 0.05703840460607253 -0.1543391903083648 -0.08914161948873872 0.029263249253786504
1551812000.0 -0.04749659045855301 0.04848528069270135 0.054695935716239985 -0.15587842862509008 0.05387956732010685 -0.1554307886496326 -0.09003636861228964 0.02983920500492592
1552500000.0 -0.048621929812455875 0.048415036314804476 0.051424077036270735 -0.15707048813859734 0.05082337799582265 -0.15643330576948045 -0.09109091123127903 0.030170617401495934
1553188000.0 -0.049628029799501 0.048457788504543305 0.048083946662358594 -0.1581467341500264 0.047706284881111595 -0.1574636102079299 -0.09208795010081397 0.03049428101767481
1553875000.0 -0.050659270289691874 0.04850372147339882 0.044796238856700005 -0.1591519660714164 0.04449787105525986 -0.15842306475582962 -0.0931475080902332 0.03076426334225135
1554562000.0 -0.051615651878608435 0.04853358822594403 0.041287190543132526 -0.16000690822428523 0.041313597291139904 -0.1592448237526237 -0.09423245898397145 0.031022978124683676
1555250000.0 -0.05257355198605568 0.04860644747184837 0.03778223324997102 -0.16095169063221806 0.03809118876601391 -0.16013875879956085 -0.09520742272919924 0.031430512934033
1555938000.0 -0.053573043307939425 0.04873618463331945 0.0344966729318942 -0.1615899914951404 0.03475888769245059 -0.16097081540255273 -0.09637505120837432 0.03181635161028521
1556625000.0 -0.05448590507617267 0.04870411322356271 0.03099259964121869 -0.16209726158973986 0.03144298124082403 -0.16169870852837648 -0.09738016441311621 0.03226524715905503
1557312000.0 -0.055409374774883675 0.04880134748156089 0.0275121084701597 -0.1625798723394159 0.02811370400750565 -0.1623302397198883 -0.0982420290182998 0.0328266279738987
1558000000.0 -0.0563802332075015 0.048714468466044845 0.024188431444104486 -0.16291800676920207 0.02475283291377494 -0.16297491702583808 -0.09933925374105504 0.03334916896107777
1558688000.0 -0.05728181949837723 0.04889906409718252 0.02088949773719407 -0.16319513861978194 0.021298453309596975 -0.16342362814198116 -0.10044315276055919 0.033950498056034895
1559375000.0 -0.05823278797351447 0.04874277163505077 0.017512425227510214 -0.16323986972580795 0.017961193455311334 -0.16381493068836772 -0.10135899270273462 0.03477819697901998
1560062000.0 -0.05931504054202062 0.04866703113927913 0.01415922475227349 -0.16349674989770158 0.014596758926328527 -0.16405838380511195 -0.10250480492669044 0.03576214912386094
1560750000.0 -0.06038231234064469 0.04866616510999695 0.010951579110195427 -0.16355895618579816 0.011159683489825515 -0.16427858215390068 -0.1035728508928963 0.03661410241590407
1561438000.0 -0.061621799744963346 0.048687879825244765 0.0075748133119198984 -0.163456390679494 0.007734939877212699 -0.1644945649919232 -0.10460369899021908 0.03751464763823362
1562125000.0 -0.06284412052603681 0.04869360779532134 0.004521302823414862 -0.16340329014027724 0.0043299251892933875 -0.16435883249629604 -0.10555314768742112 0.038652478037469004
1562812000.0 -0.06415671685273101 0.048752184421283484 0.001301524627860209 -0.16324484041556006 0.0009541016154893387 -0.16433681605473419 -0.10648458287962421 0.0400492172495314
1563500000.0 -0.0654759411059955 0.04887364489563639 -0.001865803670929823 -0.16319922959916236 -0.0023903563645476995 -0.1641324365585549 -0.10775642990306214 0.041307613789924674
1564188000.0 -0.06690564960026567 0.04903422971063035 -0.005077358344633115 -0.16297008212310984 -0.005686388655883311 -0.1638954694212569 -0.10887157611558224 0.04251025425318824
1564875000.0 -0.06828938773144042 0.049281938473633456 -0.00830447432532074 -0.16286588579636252 -0.008935290602719245 -0.16352232063384076 -0.11005046716321587 0.04365894177533198
1565562000.0 -0.0698030399315955 0.04956110543569617 -0.011485648338336882 -0.16261209256396314 -0.012217975303225563 -0.16306208414398785 -0.11099325463855492 0.04500569277981725
1566250000.0 -0.071124551861889 0.049889830755327144 -0.014636773206555298 -0.16237734125540093 -0.015421052463917695 -0.16264060766692012 -0.11235829722805306 0.04632140432826405
1566938000.0 -0.07254084414285099 0.050426236300967486 -0.017806000953521674 -0.16199291124133164 -0.018652986472008845 -0.1621078345402574 -0.11347141974370244 0.047347021870275494
1567625000.0 -0.07387825467439138 0.050669608706664114 -0.02092612555444391 -0.16170232113275607 -0.021814578063328975 -0.1615603352578864 -0.11468337539642356 0.04852489639495283
1568312000.0 -0.0751765214491192 0.05119302082611966 -0.023996291208814455 -0.16116567299372292 -0.024998346065821932 -0.16095070295803943 -0.11558979201975708 0.0493314907199689
1569000000.0 -0.07640771207102985 0.051645632319191614 -0.027269727705543013 -0.1607176504914082 -0.02811816931619794 -0.16031283373312633 -0.11687940805471053 0.05050330910221164
1569688000.0 -0.07757379000227864 0.05215907483516899 -0.030512257621203895 -0.16003873466439122 -0.031110628097370464 -0.1596018125287804 -0.11770443205844838 0.051319679048219526
1570375000.0 -0.07868210078085891 0.05264914350261849 -0.033658189912276974 -0.15934797449195026 -0.034329951514497026 -0.15892998347082954 -0.11887348616168744 0.05178600593987255
1571062000.0 -0.07978037879742995 0.05306160944913481 -0.03687387106465291 -0.15859827629732168 -0.037405637232397704 -0.1581711656804665 -0.11962577922405433 0.052582114641853285
1571750000.0 -0.08076025348341448 0.05351822991987863 -0.04021298420797609 -0.1576994011576966 -0.04049629121665152 -0.15736951476970223 -0.12046232680220462 0.05330593345959111
1572438000.0 -0.08179587385628329 0.0539737047520496 -0.043322277456802026 -0.1568338977509015 -0.043603787975123924 -0.15653888849531547 -0.12128007629371083 0.053928768040122685
1573125000.0 -0.08274423657912945 0.05428023188231835 -0.046450719368663504 -0.15572647242701945 -0.04668818391001252 -0.1555765053876396 -0.12192156890371844 0.054464095499872266
1573812000.0 -0.08371470591325378 0.054666715014647274 -0.04961709787002306 -0.154621367599616 -0.049815404753822526 -0.15456801593518893 -0.12242536956810207 0.05503898214477084
1574500000.0 -0.0846570782893242 0.05501306607085726 -0.052827132451393415 -0.15347628417377454 -0.05288634424674479 -0.1535032667559516 -0.12285406064690156 0.05560793049412141
1575188000.0 -0.08566789550548139 0.05546700793027032 -0.055881490784105356 -0.1522377101056823 -0.05599646485517857 -0.15235874093161172 -0.1232056509318421 0.05631709802095821
1575875000.0 -0.08661598543650058 0.05587777251920034 -0.05893722203317562 -0.15094545770699477 -0.05908195019210087 -0.15098405677768273 -0.12359575720212775 0.05695942448408266
1576562000.0 -0.087636827836813 0.05622895351248665 -0.06196888970149948 -0.14947591024700052 -0.062105735388789045 -0.1497109938472699 -0.12382187839981049 0.057864811802349835
1577250000.0 -0.08858510675381774 0.05659842081111571 -0.06481628252176794 -0.1481558852661824 -0.06513758320005103 -0.1482730833561752 -0.12403473511666048 0.05873013186305909
1577938000.0 -0.08950971568666516 0.05709170129962673 -0.06780625561127115 -0.14667324643336668 -0.06797864202481485 -0.14673429113775593 -0.12421215081536224 0.059632394201222516
1578625000.0 -0.09051369959004404 0.05768674993412319 -0.07064930406359503 -0.14515997870290026 -0.07094484052924194 -0.14523106861246116 -0.12433625084107479 0.06082229636717002
1579312000.0 -0.09144689762321134 0.05824081807189954 -0.07337505832013881 -0.14353107204504809 -0.0738113237896048 -0.14357021810926962 -0.12461237735119374 0.0619113209069636
1580000000.0 -0.09231063794095976 0.058860460511920405 -0.07615779081232361 -0.14191533748400176 -0.07651247000668057 -0.14181540695912742 -0.12470126320473394 0.06312938950494909
1580688000.0 -0.0932182382713466 0.059578925788087544 -0.07880037444110216 -0.140244374699277 -0.0792293771946339 -0.14005421004720991 -0.12494498211306822 0.06455373112087198
1581375000.0 -0.09399692764250811 0.06034830915733979 -0.08142107193759446 -0.13850298007109765 -0.08192707251468319 -0.13826878014552535 -0.12514100495223646 0.06606484033830957
1582062000.0 -0.09482601115048955 0.061214099479771564 -0.08403355050511148 -0.13672875008386315 -0.08448812060690705 -0.13649350839814295 -0.1254895486447225 0.06746571192178441
1582750000.0 -0.09556509051387492 0.06213497724875876 -0.08659821727291007 -0.13497810444472474 -0.08701274970170864 -0.13458868454056166 -0.12588828603164973 0.06903600655222314
1583438000.0 -0.09626517542943128 0.06295765307493377 -0.08919365681986201 -0.1332029330130918 -0.08947005631216519 -0.1328571194554199 -0.12640672396068467 0.07053170147025009
1584125000.0 -0.09682649157212125 0.06398082306901903 -0.09159426959182326 -0.1311635525375838 -0.09190777149584543 -0.1309499805514171 -0.12693594259342778 0.07211955644509027
1584812000.0 -0.09746225190076734 0.06491560820746727 -0.09405872135838975 -0.12940051681348702 -0.09430207934867538 -0.1290629627697442 -0.12746140920068258 0.07349797275307535
1585500000.0 -0.09803868303200783 0.06588982521166922 -0.09654368498786235 -0.12731333085563476 -0.09664378859159112 -0.1271778842654949 -0.12828982187592144 0.07491927991459961
1586188000.0 -0.09851652652660761 0.06686544636840167 -0.09885274590690235 -0.1253508513439612 -0.09888001686756406 -0.1252746750657851 -0.12883489998203984 0.07616294471865087
1586875000.0 -0.09898437526854062 0.06786374492160901 -0.10107229632112194 -0.12322457924022902 -0.1011435177861309 -0.1232163524791094 -0.12976878563907768 0.07718038475585638
1587562000.0 -0.09945356076766723 0.06882722839735736 -0.10341352180411104 -0.121246464524197 -0.10351139605379493 -0.12126704893278864 -0.13047538481381718 0.07825046112252527
1588250000.0 -0.09984047022631183 0.06982101773343874 -0.10557408363074351 -0.1190850329407622 -0.10571665197594031 -0.11922186729385116 -0.13112033150904126 0.07890266016264116
1588938000.0 -0.1002866852182927 0.07079788083872064 -0.1078787146676609 -0.11700868046665809 -0.10785256329435444 -0.11701843156620913 -0.13201281688573138 0.0797295827736993
1589625000.0 -0.10062703022277417 0.0716864355702934 -0.1100212015316459 -0.11484345692477341 -0.11000480964933777 -0.11491463182102353 -0.13247022255575608 0.080271771819276
1590312000.0 -0.10106584533549628 0.07258216171746339 -0.11212145317144005 -0.11260228965531512 -0.11213931967273773 -0.11269009121850011 -0.13309693913143023 0.08061329438119477
1591000000.0 -0.10140777618132382 0.07349335600276902 -0.11404191004345003 -0.11030875957301778 -0.11422213712966782 -0.11043607661246231 -0.1333512998915037 0.08095711484574374
1591688000.0 -0.10179675438608762 0.07448191803048904 -0.11611305436811917 -0.1079866508503929 -0.11622427362416479 -0.10816195145240012 -0.1336036494265597 0.08124350003013225
1592375000.0 -0.10226839679324848 0.07536884418509067 -0.11808179540048812 -0.10572975351169366 -0.11831739770199952 -0.10577751935856597 -0.13373323839269363 0.08139834833963189
1593062000.0 -0.10261937214586594 0.07626332992812997 -0.11996134821321408 -0.10337246229626007 -0.12026897795115843 -0.10345559835314168 -0.13372816501385543 0.08170667786095921
1593750000.0 -0.10294188580112185 0.0771932435433293 -0.12187586831795483 -0.10105085774382763 -0.12229611446514495 -0.10111744779261181 -0.1333184751110918 0.0819351433764986
1594438000.0 -0.10331334093888325 0.07802982294479474 -0.12374218039864239 -0.09869910252357753 -0.12430485652652044 -0.0986336288585746 -0.1330547267866405 0.08221623529788041
1595125000.0 -0.10377927073336828 0.07893512581072354 -0.12559806869077617 -0.09632950396631143 -0.12609170697609348 -0.0962870163896326 -0.1323584456114781 0.08248675225446984
1595812000.0 -0.10398540251948481 0.07981387780861568 -0.12728114702311646 -0.09390893137344697 -0.1279208054909187 -0.09377568954030281 -0.13182110913295247 0.08303951958024666
1596500000.0 -0.10432856807904849 0.08066649060945316 -0.129027592315422 -0.09139132113493817 -0.12968795317167486 -0.09122306899889986 -0.13102873514513816 0.08361403458966765
1597188000.0 -0.10449773808398087 0.08148146970637742 -0.13078459144777527 -0.08895259718456101 -0.1313852345133491 -0.08879816294653682 -0.13007798762347106 0.08457194165970384
1597875000.0 -0.1048529276083762 0.0823897867816735 -0.13242775395345646 -0.08639176736986873 -0.13302949463356178 -0.08632086297630867 -0.129132540593319 0.08564707276943538
1598562000.0 -0.10504755340885 0.08317015449524022 -0.13400182351161016 -0.08391290459359398 -0.1345547241613566 -0.08367256056553331 -0.12829669597190715 0.08673326860626768
1599250000.0 -0.10511915442625158 0.08400115799669204 -0.13562577046620483 -0.08122549929891447 -0.13617903058408476 -0.08110454543670785 -0.127244798412575 0.08810108976659133
1599938000.0 -0.10532072627992627 0.08480776129648793 -0.13715177013454144 -0.0786510336829645 -0.13763278924640063 -0.07850428101731043 -0.12644704316600294 0.0895917260555
1600625000.0 -0.10537694449676796 0.0855421523511973 -0.13852922226151884 -0.07613273808180505 -0.1392311249875153 -0.07583307776974468 -0.12561609681510685 0.09139352524882606
1601312000.0 -0.10540423467494547 0.08640668198282793 -0.14009957491042424 -0.07355918166363676 -0.140485972041013 -0.07324166632709281 -0.12493330203996561 0.09320844595580073
1602000000.0 -0.10530702136973741 0.08710916223626161 -0.14141469992166755 -0.07089039002191097 -0.1417897274152379 -0.07058803049731151 -0.12441838419342276 0.0951514569945922
1602688000.0 -0.10527388457251505 0.08791126793887914 -0.14280443564834516 -0.06834056288649291 -0.14319503259617056 -0.06781811065527138 -0.12390026682298685 0.09763986963009189
1603375000.0 -0.10530686232573988 0.08857156208736867 -0.14401786038165507 -0.06555326703592092 -0.14435115887318634 -0.06512469330927516 -0.12371744347110716 0.0995634489010085
1604062000.0 -0.10519859706037263 0.08943969160802714 -0.14538744567835796 -0.06304753431269149 -0.14560654978266907 -0.06241621622229168 -0.12389662769529784 0.10210762158237992
1604750000.0 -0.10507812999227256 0.09004308244372684 -0.14653148779926348 -0.0603641257828407 -0.14677839307258073 -0.05966691622217902 -0.12381315994280208 0.1042571713743489
1605438000.0 -0.10482267033872493 0.09076409487157834 -0.14764814785137864 -0.05752919226067361 -0.14791116650988645 -0.056894120956828775 -0.12455099913163982 0.10637443536927599
1606125000.0 -0.10464101698721115 0.09153834595151546 -0.14892348590354018 -0.05483090350930224 -0.14888369807615642 -0.054113109163541624 -0.12501514190354576 0.10856324693283435
1606812000.0 -0.10441525240248904 0.09220319745059993 -0.14994522925098505 -0.051983405102496424 -0.14997110953393908 -0.05124877057786093 -0.12558235833521741 0.11060025823769873
1607500000.0 -0.10427898536150833 0.09293908887979498 -0.15115221857695355 -0.04918789362818617 -0.1511040186333674 -0.048413604497444786 -0.12614285889764137 0.11256735458086192
1608188000.0 -0.10394232092027547 0.09368824400161908 -0.15216984090462057 -0.04635911659324927 -0.15203565760706791 -0.04569303757456651 -0.12777070833743373 0.11435118971785431
1608875000.0 -0.10370277379420538 0.09436389766548012 -0.15322770715382583 -0.043388598029490195 -0.1528984353451846 -0.04276693289302609 -0.12840984275103212 0.11557537648318493
1609562000.0 -0.10345667308015588 0.09508550697670479 -0.15418009168509147 -0.0405815615223108 -0.15374856661531452 -0.03991497859723584 -0.12970439600178937 0.11710667524962047
1610250000.0 -0.10310191667504107 0.09570927379546755 -0.1549988345957573 -0.03741258758550816 -0.15445327903092484 -0.037039583184836584 -0.13056371405489525 0.11810559811130186
1610938000.0 -0.1028242531068392 0.09624022422099364 -0.15570268768020107 -0.0345366670230665 -0.1551726293862766 -0.034153238313685726 -0.13141811201817533 0.11890341039749554
1611625000.0 -0.10246964566127187 0.09694862848607967 -0.15654801625793596 -0.03136799791551324 -0.15590972584568513 -0.03120745113786201 -0.13244160873386193 0.11930496827256823
1612312000.0 -0.10216805330544623 0.09783279433746497 -0.15708417625210036 -0.028166693248786127 -0.15665453201765814 -0.02822476093359179 -0.13295833273972776 0.12006396166352318
1613000000.0 -0.10197387587856116 0.09843623217558674 -0.1576550465544547 -0.02498196419490432 -0.15714299695904302 -0.025233805495683447 -0.1333979354944303 0.12055980842251884
1613688000.0 -0.10181461589634117 0.09912617232554473 -0.15796104026364413 -0.021847308123777297 -0.1576985865676612 -0.02216571817803069 -0.1333903657482599 0.12064361816711301
1614375000.0 -0.1016142321360921 0.09993887781742088 -0.15836181917381995 -0.0186531270692445 -0.1581647501230565 -0.019046782264784994 -0.13323285181293454 0.12083289467552784
1615062000.0 -0.10147590694315174 0.10086114444105085 -0.15856133574726353 -0.015267598230646402 -0.1585980578790624 -0.016007123949541856 -0.13291328497324822 0.12139735199000176
1615750000.0 -0.10134845521983567 0.10152051068517226 -0.1587521747885744 -0.012243815046349051 -0.158903746872159 -0.01281086479636093 -0.13244068906874168 0.12140345987691774
1616438000.0 -0.10116663243475595 0.10238464575844493 -0.15871364037334867 -0.009062118809715306 -0.1591595739897013 -0.009585240144800352 -0.1311746833444199 0.1219544556231206
1617125000.0 -0.10102098948173406 0.10322872459511569 -0.15878685554636446 -0.005862695823442811 -0.15944404449554236 -0.006235649088977722 -0.1304837009171119 0.12246408595289084
1617812000.0 -0.10094145251924344 0.10401183363048118 -0.15880274627009985 -0.0029136658617356682 -0.1595672085220171 -0.0031379203969487987 -0.1295545322662922 0.12335775017663268
1618500000.0 -0.10078645935213246 0.10491358012270256 -0.15870202129942573 0.00026585041661960116 -0.15960916216273158 0.00018890871148656235 -0.1281678537110889 0.12423497526196206
1619188000.0 -0.10079260683765343 0.1057898659585855 -0.1584482561867705 0.003411854491553837 -0.15957982493901188 0.0033504304508528504 -0.12710092435727746 0.12506911511155702
1619875000.0 -0.10068405287083665 0.10680024037663322 -0.15837866324541572 0.006391646304972463 -0.1595629931698176 0.0066391836475124645 -0.1260783092885268 0.12609563717504055
1620562000.0 -0.10057779963282389 0.10767266950432332 -0.15816810054834143 0.00934743768062661 -0.159326521865198 0.009729017082184526 -0.1250921895573514 0.12732007681689433
1621250000.0 -0.10055767340200422 0.10842110072684162 -0.15783600571638914 0.012145944905411795 -0.1590842852922647 0.012944951649547436 -0.12375490455787068 0.12881177459362195
1621938000.0 -0.10028888894573965 0.10917663780682053 -0.15757693728967104 0.015093137352143082 -0.15868913474273558 0.016082736724862396 -0.12309523718909124 0.1304027719098313
1622625000.0 -0.10028175495183857 0.10986729786747965 -0.15741291122024395 0.01786628409731248 -0.15836462661707246 0.01907937765141832 -0.12251500248509246 0.1324158617337788
1623312000.0 -0.10010072668301966 0.11063595235194365 -0.1570031811564294 0.02089373884788719 -0.15790153777634555 0.022117784461953855 -0.12230731525974055 0.1340754936233368
1624000000.0 -0.10001263946557383 0.11128724251794397 -0.15686572013557568 0.02364477411224669 -0.1574104421935842 0.025074847366127327 -0.12188974188446418 0.13587379145367107
1624688000.0 -0.10004757625602802 0.11188140814230539 -0.15668479703837374 0.02630805333473357 -0.15703136732046835 0.028070108534493713 -0.12204506552969832 0.1376391547110804
1625375000.0 -0.09986207977310327 0.11246607836841717 -0.15628022177836617 0.029377336626239307 -0.15639039472159288 0.03099187814843667 -0.12206650017393555 0.13953733076349412
1626062000.0 -0.09990153895590115 0.11293982204685374 -0.15604313599179223 0.03222131360122698 -0.15586572580573974 0.033932749344426305 -0.12317038077013642 0.14151005746625325
1626750000.0 -0.09998130493831851 0.11350925896400012 -0.15567177399488305 0.03527744226828781 -0.1552593993277299 0.03677844368576448 -0.1237155744755966 0.1435124614575121
1627438000.0 -0.10011218177903783 0.11383742730603467 -0.1551946712388201 0.0383034747846929 -0.15468880000235488 0.03976156305333506 -0.12493503057214676 0.1444356919147842
1628125000.0 -0.10011638867239026 0.11431552410254961 -0.15478148986428766 0.04144165290679721 -0.15389853172531962 0.04255843917428025 -0.12588260319653963 0.14640414027695464
1628812000.0 -0.10030341512273272 0.11487428444421656 -0.15428553965403305 0.044616946721986114 -0.153297882089061 0.04557968503075491 -0.12779125759025822 0.14771504824621418
1629500000.0 -0.10054475694048483 0.11523722789544152 -0.15370072002187968 0.04763878686364853 -0.15250502925507164 0.04846535755994583 -0.12901888988346635 0.148710623530907
1630188000.0 -0.10069587779640324 0.11568240558510363 -0.15281766582702283 0.050871052963422765 -0.15176337826554798 0.0514048432423174 -0.1307032779114624 0.14928384435631378
1630875000.0 -0.10092471477730375 0.116243729778599 -0.15201247400971724 0.05407716066034966 -0.15089906017292093 0.054364003665136905 -0.1324335794955408 0.14983979638996964
1631562000.0 -0.10107456600275505 0.11670552952150712 -0.1510772668549056 0.0574127758656982 -0.14998645486216436 0.0573461222660414 -0.13416142401363712 0.15000376276130303
1632250000.0 -0.1013060988204372 0.1173478743225063 -0.14996542203857602 0.06057490036172354 -0.1489966244914096 0.060402954364369404 -0.13554255199636042 0.14989408737052853
1632938000.0 -0.10155885263993737 0.1179078629405899 -0.14875161130173517 0.06380592225225541 -0.14798744178376347 0.06334913757435902 -0.13706137000490803 0.1497863572906497
1633625000.0 -0.10170975825697813 0.11851329719225144 -0.1474072065702766 0.0669492220650168 -0.14674388379909842 0.066409655754161 -0.13804778559703568 0.149203997218427
1634312000.0 -0.10182047363161394 0.11916390092519814 -0.14581016569165337 0.06994084448138643 -0.1454553644866983 0.06941577854934916 -0.13890703997290899 0.1483586910717289
1635000000.0 -0.10188453705866464 0.11983548270461837 -0.14417853044236512 0.07298387541775493 -0.14390664771739653 0.07241806044647817 -0.1394113028238346 0.14750984623634672
1635688000.0 -0.10202275638317551 0.12044509665629254 -0.14234230564066894 0.07595002725148774 -0.14245016203457245 0.07534755171237084 -0.1399368820707004 0.14639300314578452
1636375000.0 -0.10199398574271377 0.12109478977753058 -0.14060021053970922 0.0788392520021132 -0.14094123699082042 0.07831853132281638 -0.13989915646256218 0.14548938662489305
1637062000.0 -0.10191223870495592 0.12161318981724846 -0.1387064798994271 0.08138626283122406 -0.13906224203506354 0.08122928272889299 -0.13959258679897382 0.14430902797154072
1637750000.0 -0.10193524333627427 0.12229351525967014 -0.13686972712778211 0.08426536751853908 -0.1372386259435011 0.08399658958512679 -0.1391508702568466 0.14332417153902846
1638438000.0 -0.10180981335211917 0.12285803600033436 -0.13458747856822087 0.08671052109890547 -0.13524180704867222 0.08660988404086076 -0.13815039349352576 0.14251189604122463
1639125000.0 -0.10177072678967153 0.12359588021856066 -0.13259753353706352 0.08914654204172336 -0.13323144870232534 0.0893494503136634 -0.1373755777390956 0.1416137804184458
1639812000.0 -0.10177330937750555 0.12411817244782748 -0.1304953702628968 0.09159712046193377 -0.1313309814118462 0.0918864837419436 -0.13631760130192175 0.14109745316553512
1640500000.0 -0.10164087953117663 0.12468035487633038 -0.12851696505566576 0.09391546248482467 -0.12911806672780166 0.094319826050966 -0.13517990636098667 0.14048711348776033
1641188000.0 -0.10173689330864384 0.12526465327100206 -0.12656742591344036 0.09618024056764556 -0.12711624789062517 0.09683886976557997 -0.13416457699987544 0.14036158194984036
1641875000.0 -0.10183507839490602 0.1258063084706964 -0.12462915168405862 0.09841141159403523 -0.12501387595261504 0.09914104894398794 -0.13292256118751333 0.1401893534149916
1642562000.0 -0.10209951044353621 0.1263110063606158 -0.1225832358425361 0.1005940997578987 -0.12311074145223196 0.10133449762820608 -0.1318181165423919 0.14058923266996126
1643250000.0 -0.1023582505775535 0.12679085737886067 -0.12074194081714427 0.10267410323029176 -0.12100707266176665 0.10364179405441676 -0.13102975816982607 0.14099942838631016
1643938000.0 -0.10262409972663113 0.12745586496466169 -0.11873057578753865 0.10488232928920399 -0.1189159157631349 0.10579789226210908 -0.13031049455220123 0.14150614143811446
1644625000.0 -0.10309160592674153 0.12818356161936692 -0.11683763646690817 0.10701444274366491 -0.11690039708117499 0.10800253951447504 -0.12955217224294563 0.14200466795263453
1645312000.0 -0.10353421928353332 0.1288691172303217 -0.11488331600406985 0.10926600478460834 -0.11490648290466432 0.11025603635423509 -0.12897404238015087 0.14306089651337364
1646000000.0 -0.10400341401394687 0.12971715671515874 -0.11307177184206893 0.1115248942403574 -0.11287923648800914 0.1124787026382086 -0.12873536825750279 0.14402426121319384
1646688000.0 -0.10453973953430895 0.1305369285857236 -0.11084966456547471 0.11378648393181166 -0.1106163182211079 0.11469830429343658 -0.12850396101386055 0.145172459814384
1647375000.0 -0.10502086139036713 0.13143983206595927 -0.10874735669350813 0.11585833364015716 -0.10860556572738767 0.11690220464678 -0.12850103512742736 0.1462695139823653
1648062000.0 -0.1057199223181075 0.13241018691262305 -0.10663640858291654 0.11813713020081351 -0.10642567197203624 0.11927391294199047 -0.12880980802383513 0.14761196536371143
1648750000.0 -0.10615383497398803 0.13333677165503685 -0.10434153966365825 0.12040154969849574 -0.10394650560025058 0.12148607054625256 -0.12893889961144292 0.14886340223766006
1649438000.0 -0.10664983682837437 0.13439408860263655 -0.10209806191273325 0.12247996780004355 -0.1015919562808055 0.12370291385183686 -0.1298050744980883 0.14993754465859266
1650125000.0 -0.10717775558204591 0.1353759722915808 -0.09979580372272288 0.12475250037462039 -0.09922897177462735 0.1258999283933314 -0.13066589224421374 0.1512207184861604
1650812000.0 -0.10769327382588025 0.13647843292416553 -0.0973201192935072 0.1268528850933675 -0.09664385389072154 0.1279773282209885 -0.13143025736990954 0.15190294019698475
1651500000.0 -0.10811583696822749 0.13753100050768644 -0.0947555308132965 0.12900056801380622 -0.09399263497523927 0.13015230704610278 -0.13235900607322149 0.1529858279664393
1652188000.0 -0.10857794468094331 0.13845787910358776 -0.09217675329158541 0.1311710561928577 -0.0911441323867574 0.1320769975601007 -0.13284003189803206 0.15385562348163329
1652875000.0 -0.10907460328560337 0.13932854652861326 -0.08956932168585979 0.13310975762255764 -0.08820864216857989 0.13387644174593993 -0.13367682443567344 0.1543087153790293
1653562000.0 -0.10969945333412232 0.14019854248630353 -0.08687657272858536 0.13496787407358013 -0.08548554479925617 0.13565210826286045 -0.13444487169875974 0.15466626303599054
1654250000.0 -0.10993651042143145 0.1409699378960788 -0.08386506938708141 0.1366758908504231 -0.08248950099405186 0.13731828831517656 -0.13481806972722274 0.15524045713859574
1654938000.0 -0.110523246395677 0.14167916473357947 -0.08096546743907751 0.13861211884183489 -0.07959335351674957 0.1387086188054091 -0.13544151601200255 0.15532794618505502
1655625000.0 -0.110986048913476 0.14240260691966503 -0.07799297086183357 0.1402270428270561 -0.07660388964854958 0.14019131794306902 -0.13572487410900774 0.15524919580550772
1656312000.0 -0.1115461778570722 0.14305923095772174 -0.07499320571983285 0.1418193584651173 -0.07370061773700226 0.14147104910909652 -0.13588834321335638 0.15545214030766047
1657000000.0 -0.11230270917519294 0.1437640993765414 -0.07209790401279109 0.1431303825890747 -0.07087234496285082 0.14265792707506567 -0.13568843341840742 0.15528194148341518
1657688000.0 -0.11301456520778164 0.14442250397172146 -0.06906146202966877 0.144534108867976 -0.06797399276734285 0.14379403867669688 -0.1353692369992092 0.1552341661886988
1658375000.0 -0.1136218039804676 0.14500828151876785 -0.06591223431251785 0.14574703811480272 -0.06507469389975484 0.14498919953577796 -0.1351078941963133 0.15531438755023946
1659062000.0 -0.11445140352603629 0.14571604848737635 -0.06287930088581331 0.14699869673805877 -0.062196812356779846 0.14600677068422258 -0.13439420650228864 0.1553780382131629
1659750000.0 -0.115224948288258 0.14643579835929804 -0.059759711861705395 0.14804587915000803 -0.05934089418665156 0.14705035633006028 -0.13375813834060996 0.15556235311730277
1660438000.0 -0.11593839493687706 0.147379848732894 -0.05661649948720046 0.14913724935193332 -0.05658869798771155 0.1480563237535953 -0.13292223154498264 0.15582372642728148
1661125000.0 -0.11671377432136537 0.14821599453530465 -0.05343578335547532 0.15011153897307022 -0.05376812654827368 0.1492363047788037 -0.1317728233879004 0.15635555871664633
1661812000.0 -0.11738454838400691 0.14914862530988882 -0.05043829907623093 0.1510059433342306 -0.05095815789152829 0.1502292955690405 -0.13091213367983792 0.15707238542433966
1662500000.0 -0.11808918498511567 0.15020986803876382 -0.0473627171168792 0.151843898421218 -0.04807696027663446 0.15127206666879067 -0.1298386183998977 0.15777577302370485
1663188000.0 -0.11870396955531264 0.15130800228700786 -0.044291788578468994 0.15271096417437804 -0.045332241956783086 0.15226703099569946 -0.1290136141969004 0.15894172724404224
1663875000.0 -0.11925292500008176 0.15235282621344104 -0.041142811987579714 0.15340161176650163 -0.04236896063285715 0.15330266256895336 -0.12808952122122377 0.16023806590498563
1664562000.0 -0.11967531847790013 0.15352253880237973 -0.03825379651113426 0.15412238622705765 -0.03925029824469147 0.1542532099563398 -0.1270382086600164 0.16185667174971502
1665250000.0 -0.12012847589715141 0.1546867598581509 -0.035117862987110886 0.15454993764623196 -0.036278647635082074 0.15521964064320665 -0.12616998298577106 0.16350555989462673
1665938000.0 -0.12040827575297802 0.15583699831258255 -0.03216576575651118 0.15514685088407462 -0.03308467536199136 0.15598784997326293 -0.12552372042053264 0.16561700769537474
1666625000.0 -0.12076154347758762 0.15686163132102243 -0.029111493660723218 0.15557740442261586 -0.029918229687571695 0.15694739745571729 -0.12497911342425627 0.1677401739838955
1667312000.0 -0.12103921813590593 0.15809014920713943 -0.025960986567949318 0.15600136041535934 -0.02652388291112345 0.15754118200272754 -0.12454185228623064 0.17007577601526042
1668000000.0 -0.12136043297387697 0.15912010800328713 -0.02308132749318591 0.15640893283752874 -0.02325721864875102 0.1580979962740977 -0.12419061357275987 0.17248456379674162
1668688000.0 -0.12133200187930496 0.1603506207997306 -0.020032714116874278 0.15676107880929696 -0.01979050397993802 0.15857154881889524 -0.12401744220529226 0.17520491746314676
1669375000.0 -0.12166842966233767 0.16138446502898793 -0.01710110488431711 0.15696171868188513 -0.016496362746240174 0.158913876565198 -0.12391722666614087 0.17780925167127723
1670062000.0 -0.12177559286446987 0.16244228784626877 -0.013919121668871399 0.15717503559267915 -0.012970555687924754 0.15902162562281352 -0.12406339112139651 0.18065855498257907
1670750000.0 -0.12216481372371779 0.16367150854733134 -0.010994617915398687 0.15743130492535867 -0.009588092414162705 0.15917976429436295 -0.12422185305156182 0.18355664332925195
1671438000.0 -0.1224693446743241 0.16465122308772212 -0.007988928120335881 0.1577228436055408 -0.006417889303232133 0.1591141643413619 -0.12485451241603641 0.18612943205190263
1672125000.0 -0.12257442891811236 0.16578083598162555 -0.005007885633865514 0.15770256108265604 -0.0030060400369849964 0.15891874390766636 -0.1253008440410185 0.18874911780432074
1672812000.0 -0.12297724017571111 0.1670564437164617 -0.001886714868112078 0.1580211479996121 0.00018699423545163796 0.15872886111772233 -0.125944686244956 0.19162192004146242
1673500000.0 -0.12344297901619895 0.16831298920516358 0.0011696954728954523 0.15806424802632874 0.003326861154457649 0.1585458958275014 -0.12654718280775645 0.19417178980610753
1674188000.0 -0.12380980170447271 0.1696586876823145 0.004160900833586258 0.15815313839555475 0.006460825581788801 0.15823973057603163 -0.12740884129634972 0.1964699823557597
1674875000.0 -0.12408174195557625 0.17106373856383292 0.007285057983511131 0.15817639850192683 0.009446073809819796 0.15775827554560828 -0.12817749088440605 0.19869794324750456
1675562000.0 -0.12455861475380337 0.17261768559350316 0.010479578128961907 0.15823837536027902 0.01238590530386272 0.15741058667816568 -0.12897574052259772 0.20085178253457706
1676250000.0 -0.12495883400943152 0.1741033537530137 0.013585990968073338 0.1581099446313643 0.015213892471834538 0.15692827885694358 -0.12974512005189787 0.20281109304109418
1676938000.0 -0.12534434613465228 0.1757587611639114 0.016818557246482124 0.15797241046869429 0.018150917663729275 0.15655268655896978 -0.13066696068405848 0.20448538397714544
1677625000.0 -0.12555140153072686 0.17736950657168507 0.020042105583154907 0.15765228399515308 0.02110675153607672 0.15618430562857966 -0.1313110840183591 0.20606342250092152
1678312000.0 -0.12590886079475466 0.17897690543759284 0.023263451833473142 0.15737059910848122 0.023847540396837445 0.1556686556011094 -0.13209718596091435 0.20787028078644662
1679000000.0 -0.12606831176477915 0.1807308344386734 0.026457317568766202 0.15690023876799608 0.02676928512239134 0.15522613463499182 -0.1324707784944964 0.20930889548415565
1679688000.0 -0.12629136627447488 0.18246577773792305 0.02978264273914802 0.15629336218578235 0.02968795347556334 0.1549602788851907 -0.13323572259664324 0.21080249151651004
1680375000.0 -0.12635440807964154 0.18410623908444437 0.033073041823132886 0.15566204219675944 0.032678337905611275 0.15448306082962532 -0.1336479878103666 0.21219637996017532
1681062000.0 -0.1264232603436187 0.1857184015985706 0.036283616715218944 0.15485509954320437 0.035759511423163574 0.15389886916770149 -0.13410015913792186 0.2132972799845426
1681750000.0 -0.12652793062154677 0.18746687693738062 0.039552009887962106 0.15406788469901225 0.038747245452598146 0.15343479646468955 -0.13456211856030592 0.21465686096131756
1682438000.0 -0.12640827370655847 0.1890245847864548 0.042798244372132144 0.1530025814632862 0.04194370734681617 0.15269144881943636 -0.1349371829094762 0.21598337817724778
1683125000.0 -0.12658902162441457 0.19058646970191948 0.04598585878127296 0.15185265378789234 0.04499660250673208 0.15186793060230622 -0.1348000714677094 0.21689436712901417
1683812000.0 -0.12639825482802192 0.19197182979253136 0.04909206628354317 0.15073960949510187 0.0482023036717515 0.15097881332778 -0.1349969495696466 0.21841951930197925
1684500000.0 -0.12628869306525253 0.19346409823305732 0.05211298914414582 0.149516943788195 0.05143128618134738 0.14998616847389107 -0.1350948424430408 0.21951208357171814
1685188000.0 -0.12620481037925485 0.19495265246628996 0.05509045796892493 0.14803645737925566 0.05460292076823204 0.1489339744846905 -0.13473885004311173 0.22103887090001592
1685875000.0 -0.1263146674970474 0.1964713776196659 0.05790367230004458 0.1467831040510625 0.05767025438895846 0.14762673796684558 -0.13465956352675995 0.22234613467361355
1686562000.0 -0.12614620643987146 0.19780488274527414 0.06076928777222679 0.1454174951670858 0.06062053188230596 0.14620717403830397 -0.13409339843478044 0.2235553059162004
1687250000.0 -0.12604696179348748 0.1991883615459548 0.06350525965603769 0.14371089803775683 0.06375211334058148 0.14473197843594657 -0.13372979929849851 0.22504306871325425
1687938000.0 -0.12579295397076462 0.20079174977864278 0.06632010072745474 0.14219141360365709 0.06675990715213977 0.14314581478141114 -0.13305044170432315 0.22671724187145767
1688625000.0 -0.12576645745111248 0.20208981479229493 0.06881092383919414 0.14057556876255833 0.0695941909224891 0.14160932665599385 -0.13230526824521552 0.2284641513087573
1689312000.0 -0.12561346325849718 0.20361978426584693 0.07135560919858938 0.1392048831826062 0.07241853161877213 0.1398540039576001 -0.13178398566483374 0.2302905517333304
1690000000.0 -0.1254260959152332 0.2051756292511157 0.07384670873550078 0.13759023134908388 0.07503825136932368 0.13815866288359124 -0.13108034678309016 0.23189010725468648
1690688000.0 -0.1250625901337842 0.2067869611003083 0.07642542013643157 0.13596380666363217 0.07767057736468871 0.13638809586547887 -0.13046238452669662 0.23396764234614653
1691375000.0 -0.12463987390170819 0.20841101501263085 0.0788212379553475 0.13436095157527342 0.08016367746292413 0.13465849245032335 -0.1297316088041549 0.23629763215679264
1692062000.0 -0.12427408510649288 0.210045606939347 0.08145871186442005 0.13281077225933471 0.08275415870373592 0.132757382339693 -0.1293410360867198 0.23848206190014665
1692750000.0 -0.1238728317629536 0.21168963025757168 0.08381561707557912 0.1310783246285815 0.08500579604361379 0.1309597049395401 -0.12825883066872237 0.24028835955705496
1693438000.0 -0.12320521901535836 0.2133327078512437 0.08623705447935452 0.129392645591163 0.08741839031960878 0.12909877748398912 -0.12762854799127862 0.24236052255461282
1694125000.0 -0.12261953751828575 0.21513777220413047 0.08866824203876107 0.1277174416431267 0.08983228027927188 0.12721819724381528 -0.12703824803760383 0.24444431138393488
1694812000.0 -0.12191728160255796 0.21686201027646865 0.09111791852756669 0.1259452900718713 0.09208815018889682 0.125461946833298 -0.1267382385811123 0.24671987246253846
1695500000.0 -0.12118351076095611 0.2185015591184502 0.09354399212089089 0.12410234499883484 0.09434821423220377 0.12346806839635928 -0.12620717129499093 0.24865609257256768
1696188000.0 -0.12046922940434752 0.22042721907529253 0.09589437565853606 0.1223450772301852 0.0966146597607889 0.12166194731418813 -0.1257536985752146 0.2504173192934285
1696875000.0 -0.11954375360174303 0.22217633085269528 0.09827911450401058 0.12041756062252348 0.09888121662375479 0.11982402301953912 -0.1255631377691687 0.25254442038340735
1697562000.0 -0.11869913590436414 0.22388883651303607 0.10059181830303622 0.11856544611263588 0.10104639418069007 0.11793043112083852 -0.12549695614564302 0.2542400968158681
1698250000.0 -0.1177243508377547 0.22560566647212457 0.10284966733269037 0.11644377786475067 0.103328017272744 0.11601191859511595 -0.1253892269785903 0.25582851969575393
1698938000.0 -0.11667547022947493 0.2273536424214629 0.1051760219388614 0.1143189691769354 0.10549064750990994 0.11383363097271738 -0.1251918635095309 0.25733342934711434
1699625000.0 -0.11587584608311308 0.22913976373002976 0.10741922615547586 0.11228207072763409 0.1076696829953866 0.11181617097444639 -0.12509409918844516 0.25892768544692313
1700312000.0 -0.11462687452441936 0.23077978326173768 0.1094998490148368 0.11009092941167976 0.10985241883696308 0.10966784356612433 -0.12503818207481215 0.2602669633412327
1701000000.0 -0.11361109471908294 0.23275887917970609 0.1118248639009451 0.10776102447720244 0.11192204673754107 0.10746810306504308 -0.12455166071813159 0.26129697770732024
1701688000.0 -0.11266832026436067 0.23459569191566276 0.11392229563648584 0.10546830669703193 0.11413038014542813 0.10528394334614997 -0.12462773017348736 0.2626371431224125
1702375000.0 -0.1116764097699258 0.23627355246749324 0.11588247036010565 0.10323804382922289 0.11607672231847892 0.10298891873810156 -0.12434811893431653 0.2631700328570359
1703062000.0 -0.11068231619347993 0.23805165103723336 0.11786412563108503 0.10085879620586223 0.1180547291529222 0.10046373526678824 -0.12381505077137422 0.26406627016008327
1703750000.0 -0.10955338176973371 0.24006041350743487 0.11965681548580734 0.09844945744450927 0.12000395212348278 0.09802355143726206 -0.12355972072543746 0.2648087180722286
1704438000.0 -0.10850474837755202 0.24181688356469497 0.1215149881740476 0.09589345327963997 0.12189704989667315 0.09562981179733025 -0.12288544396614816 0.265201725165082
1705125000.0 -0.10755969730917338 0.24371501138553425 0.12335532899686612 0.09323805799090563 0.12378664443730136 0.09307961169178643 -0.121677598328965 0.26554600950149826
1705812000.0 -0.10645795139146157 0.24560846203256972 0.12486648363361354 0.09079523555145952 0.12541139385868474 0.0904121092128857 -0.12087882735620077 0.2656858053649561
1706500000.0 -0.10539273244957426 0.24738137651484954 0.1265773897509893 0.08824590451539431 0.1271234511494167 0.08789854666946866 -0.11959116462246214 0.26625318353067595
1707188000.0 -0.1042618579156816 0.24926128281129664 0.1282145498358577 0.0856555427475653 0.12864895464740947 0.08526751426706121 -0.11796185395114522 0.2663327850990772
1707875000.0 -0.10327232812118675 0.25117023843056374 0.12971588930538142 0.08290343688377745 0.13010965745858868 0.08265963540218497 -0.11615669051749758 0.26655430547801556
1708562000.0 -0.10201181608009834 0.25306057580199254 0.13123075175742901 0.08032440019284576 0.13166060904191268 0.07996181982439804 -0.11430865807589874 0.26679459668753314
1709250000.0 -0.10090280585211539 0.2548674774475951 0.1327094506430271 0.07775834532012166 0.133082138109468 0.07725060473507282 -0.1119788249128794 0.26704921611866683
1709938000.0 -0.09974893703388736 0.25664682179240345 0.13405119494115014 0.07498693096835797 0.13442090773001583 0.07454898019207262 -0.10918912407829054 0.26743959768376063
1710625000.0 -0.09855616649749296 0.258436195784295 0.13535291460781818 0.07219637176544816 0.1356495569454102 0.07174356520253868 -0.10646705190277943 0.26808340597716557
1711312000.0 -0.09725720902711436 0.26016369138259027 0.1367150959376321 0.06946525729663326 0.1368990343356987 0.06900011360586925 -0.10344170734835076 0.2688585165835962
1712000000.0 -0.09606122158610407 0.2620934047260492 0.13788012599119323 0.06675403601340732 0.13799245098577018 0.06625160532284304 -0.1006825419316209 0.2699166406322672
1712688000.0 -0.09492690265142698 0.26379662635523365 0.13892379864302437 0.06401301169586666 0.13912310098902617 0.06346255866974858 -0.09770656278913804 0.2708465173889845
1713375000.0 -0.09353703412229983 0.2655060841784197 0.14002483023251114 0.06111020029277822 0.1402667427292826 0.060810850533226005 -0.09446818511529972 0.27217549647099354
1714062000.0 -0.09211561135801352 0.2672033090097312 0.1411531152095789 0.058433781284093024 0.14122208709280892 0.05800277856412443 -0.091138378914623 0.2736697647656779
1714750000.0 -0.09066122911519907 0.2688144023101638 0.1421896268935065 0.05550130961325486 0.14201897476568343 0.05514341075334759 -0.08799118119398634 0.2755345495445065
1715438000.0 -0.08948026541137748 0.2704410330792515 0.1429128913327761 0.05269350100853433 0.1430208375667538 0.052303176881771406 -0.08478123660679433 0.27750831048008384
1716125000.0 -0.08787048278092714 0.2719616559765337 0.1438255509496905 0.04971674200968007 0.14387791902111605 0.04946736037874617 -0.08174766757243451 0.2798691069554006
1716812000.0 -0.08641921900432754 0.27367708657266904 0.14462354804565256 0.0468699267640436 0.14463244463648434 0.04663857372985979 -0.07882108535572123 0.28206219462475457
1717500000.0 -0.08506804619926113 0.27531287406696237 0.1452455211150121 0.04410873316129279 0.1454380916498495 0.04387436445833453 -0.07629320295672347 0.28460533264203963
1718188000.0 -0.08319414179897534 0.27684412345022313 0.14598106597000804 0.04112710033560235 0.1460609125579224 0.04108670665967457 -0.07403669035741425 0.28695555874886436
1718875000.0 -0.08156301717312779 0.2783193717329056 0.14653666841012244 0.038272870712151824 0.14674027151670446 0.03825657516113593 -0.07157075011031207 0.2896165987776718
1719562000.0 -0.0797282684279132 0.2797591609407885 0.14709361303844512 0.03541559836761725 0.1473330255366733 0.03539951484315091 -0.06968447480888126 0.2921921815629034
1720250000.0 -0.07790085815585565 0.2813088556961772 0.14754238651250687 0.03246022260849021 0.1478001077059385 0.032528965164133186 -0.06764806310282562 0.2945873630094881
1720938000.0 -0.07624930832584545 0.28286284503294934 0.14807295470780685 0.029551505172532987 0.1484463892776333 0.029740741216114513 -0.0664015713816441 0.2972237098562155
1721625000.0 -0.07441257616940211 0.28436389916197496 0.14840274695745603 0.02676787582590225 0.1489176006531487 0.026739347873527455 -0.06464735238680638 0.2998031555182966
1722312000.0 -0.07256892071232346 0.2857848287158618 0.14882846946676953 0.023872425021490385 0.1493523994821495 0.02381629322289945 -0.06318946423771564 0.301995401937328
1723000000.0 -0.07065081082963928 0.28735994240259916 0.1490267446222053 0.020990943696453865 0.1497290027284261 0.020976689930969645 -0.062159393559626665 0.30387780628614725
1723688000.0 -0.06869665111968415 0.2887899505827334 0.1493114046798182 0.01811360499868147 0.15004200656584313 0.018030052754752546 -0.060914166375748466 0.30568497352145513
1724375000.0 -0.06669429482205254 0.29031129551629087 0.14935446799418767 0.015312444199109316 0.1502989294924685 0.01506034662241216 -0.05995256027942027 0.30715910554816983
1725062000.0 -0.06482931000527462 0.29187162611274137 0.14971079483318284 0.012516729511959517 0.15056840031661273 0.012059056476010847 -0.05874082061379537 0.3086395104132918
1725750000.0 -0.06292984642465885 0.29328624614550236 0.14965608458156276 0.009597711828738208 0.15068614637191244 0.00918681740484622 -0.05772451955381664 0.30927714168941994
1726438000.0 -0.06100894447574587 0.2947028089031648 0.14991451483322477 0.0068279838780611855 0.15066947736179384 0.006231995392441851 -0.056388071175031446 0.31037962612141656
1727125000.0 -0.05892382855103301 0.2964845722230461 0.14973833960952038 0.004128129078371397 0.15070633990942361 0.0031724002145512168 -0.05505992890544534 0.3108680388537508
1727812000.0 -0.05702415613263369 0.29788193738931235 0.1497226535554429 0.0013475000546905504 0.1506016476516375 0.0002427526484569199 -0.05330573499146297 0.31129260872566866
1728500000.0 -0.05483854859959796 0.2995990712960604 0.14959909979411878 -0.0015915998588756273 0.1502775296176421 -0.0029160983161220766 -0.05136781753984525 0.3113003296248097
1729188000.0 -0.05290819364131882 0.3014753966336744 0.1495247217923033 -0.004367609829293226 0.15002013678658158 -0.005785419953044906 -0.04955419753213132 0.3113510761059189
1729875000.0 -0.05060279077923763 0.3026745016312662 0.1492501993313441 -0.007171525516263035 0.1496251433743158 -0.008641363501862254 -0.0473851870541573 0.3114122767337676
1730562000.0 -0.04867654310026913 0.3042056663531905 0.1491046051716354 -0.009942199839960374 0.14921024443201342 -0.011478425746264039 -0.04481780426860387 0.3113618243941496
1731250000.0 -0.04632364266632139 0.3061222631457086 0.1487865628606171 -0.012849355804001367 0.1488524351621353 -0.014456126085145628 -0.04184313593167272 0.311371775701716
1731938000.0 -0.04429267123059148 0.30749578492795887 0.14856045155621006 -0.015769853607197595 0.14822159530026013 -0.017238457290968668 -0.03885262863177286 0.31199256456770563
1732625000.0 -0.04199726917941577 0.30931217161040486 0.148229694180932 -0.018688430788712893 0.14773637509484272 -0.019956282796200316 -0.035999484205850786 0.3122934410543303
1733312000.0 -0.04001636679154543 0.31061019455347255 0.14790945763343208 -0.021541573711937156 0.14709672751143285 -0.022635907805692752 -0.032668735562425055 0.3127103887199894
1734000000.0 -0.037879340131185504 0.31190545560692595 0.14749621445184283 -0.02439061556119309 0.14643482941787014 -0.02528519345710896 -0.029283863128176175 0.3136396987867281
1734688000.0 -0.035570217590657524 0.3133300312188599 0.1470756261194883 -0.027300576739648946 0.14588604828845114 -0.028031459538852048 -0.02604078019218964 0.314477483144364
1735375000.0 -0.03354214632688118 0.3148256154684529 0.1465053988316887 -0.03018112538216736 0.1453047409437608 -0.030635214973294623 -0.02272963024179954 0.3156103597037848
1736062000.0 -0.03135542418192067 0.3159816804729709 0.14589669966296762 -0.0330430406022702 0.14473017626588142 -0.03324462279630595 -0.019441601423901382 0.31741537964045263
1736750000.0 -0.029242162801783777 0.3172267129225736 0.14518719538042893 -0.036010427453743034 0.14416187928456797 -0.03582045841932648 -0.016327632335331098 0.3190934632343528
1737438000.0 -0.027134563307897232 0.3182595292415441 0.1442396395922359 -0.038768752036870684 0.1435067739094825 -0.03842371057021457 -0.01340459007055763 0.3208655218188671
1738125000.0 -0.02497386647612204 0.3193465736953597 0.14353666490719438 -0.0416519045096012 0.1428131574374573 -0.04113805093603785 -0.010827243647153881 0.3229903428260603
1738812000.0 -0.023067462836034613 0.32036566044818626 0.14250627282287934 -0.044342884365357604 0.1421733112476482 -0.04381798782727288 -0.008164828258532188 0.3254053960590972
1739500000.0 -0.02094692624359813 0.3215169310413587 0.14154191585482948 -0.04727422844291964 0.14154443032172173 -0.046510110759067705 -0.005819682610409485 0.32783229422037946
1740188000.0 -0.018899783193769403 0.3223702516502481 0.1404772513585735 -0.05000488249599778 0.1404641125289429 -0.0493443801915594 -0.003487764673804518 0.33024620140896477
1740875000.0 -0.016994230223161017 0.32335741587533623 0.13935127857549504 -0.05264424319379751 0.13960394524707478 -0.052063900278039234 -0.002247101363051281 0.33257070521378673
1741562000.0 -0.014814962595264868 0.3242924380545596 0.13821944328439362 -0.0553527181839074 0.13873752792780342 -0.05477931863842987 -0.0006213036825183699 0.33547673352973806
1742250000.0 -0.012808131867613039 0.32521560465905236 0.13708771519039697 -0.05797887459845969 0.13778551311857787 -0.05763473511037531 0.00029094350756471936 0.33800799358465455
1742938000.0 -0.010672334949788554 0.3261307250544651 0.13558375926214677 -0.060430377896468414 0.13655780166547796 -0.06031495060668343 0.0011288765625425542 0.33953981281608653
1743625000.0 -0.008662454795358158 0.326936920002411 0.13437728106337632 -0.06293612458628085 0.1354284342343796 -0.06289637659575056 0.0015014932863874958 0.34161728285641113
1744312000.0 -0.006467209787962735 0.3276183714330375 0.1329649570235237 -0.06536219222772259 0.13417289353341932 -0.06554652311005993 0.0020981905262952563 0.3437432471651804
1745000000.0 -0.0041353769611732075 0.32822508258853733 0.13157802581646033 -0.06772622029007444 0.13267527612256147 -0.06821162983863391 0.002344820594507164 0.3446853106476876
1745688000.0 -0.002022065279831947 0.32893225056042374 0.1301664470640737 -0.0699875424125056 0.13131332592276787 -0.07064943418122119 0.002359677279155129 0.3457164175831678
1746375000.0 0.00029956119646515133 0.32947472790535387 0.12876536174904296 -0.07208720231077623 0.1297057401836679 -0.07320029958288432 0.002517106810916598 0.3459644699700078
1747062000.0 0.002754919095359482 0.32989360480474145 0.12717891362008668 -0.07422150596313613 0.1282423136591445 -0.07550747979725932 0.0024543770474057453 0.3458942874882399
1747750000.0 0.005172472400902072 0.33063952362513466 0.12592828830146144 -0.07627214080079907 0.12669255178523184 -0.07784851651040614 0.002871535113374232 0.34534584911459915
1748438000.0 0.007452492309230518 0.3307589785057812 0.12451217765502676 -0.07842237802136799 0.1248336785735884 -0.07994261192450348 0.0034436654288036053 0.3446239573670604
1749125000.0 0.009775109153052011 0.3310445165662308 0.12299450996277152 -0.08035562831784918 0.12323173032914547 -0.08210517488955388 0.003793076682724766 0.34335794734825126
1749812000.0 0.01221617511155919 0.33160490274315096 0.12169380320896767 -0.08239342454427961 0.12152978613020986 -0.0842054178390268 0.004722272109694169 0.3419718381564067
1750500000.0 0.014660574144387697 0.33160251326815654 0.12016481145953055 -0.08445879239426604 0.11971997534613305 -0.08613257557790716 0.006118615274324562 0.3404316248582468
1751188000.0 0.016970810896461356 0.33181401755467727 0.11883006877008609 -0.08654036995180463 0.11823650167278557 -0.08815566112521757 0.007682117677894023 0.33870743103401235
1751875000.0 0.019504167343422304 0.3319979655089669 0.11726365918783113 -0.08871522930851054 0.1163932469106911 -0.09011538039829942 0.009558427389441113 0.3365652279714719
1752562000.0 0.021795631860751032 0.33195166597540066 0.11581250565861047 -0.09076527242515385 0.11468209858108484 -0.09203157952590894 0.011660595793248114 0.3345772205743758
1753250000.0 0.024231442504661443 0.33210902069746945 0.11417181505512622 -0.09293015411035321 0.11313872107740179 -0.09401298933988418 0.014159467096274867 0.33255404287329426
1753938000.0 0.026717605107742248 0.3319761198381541 0.11275494682207908 -0.09505880026951388 0.11139297796689736 -0.0960343896994105 0.016706349892979363 0.33095939371117067
1754625000.0 0.029126497120224606 0.3320009860246151 0.11109463010964896 -0.09740999515809592 0.10967564619757514 -0.09799145973758748 0.01985331179515135 0.32915496462240373
1755312000.0 0.031398492750819684 0.33214897263878695 0.10933627008536007 -0.09952151285708384 0.10793100190857034 -0.09999714113431878 0.022700518380070294 0.3277758921369963
1756000000.0 0.03373303142958761 0.33218018805767374 0.10747657680842407 -0.10188862157754029 0.10623737813870263 -0.10204785026209524 0.02628287902354014 0.3264120138269531
1756688000.0 0.03601565701610008 0.33233016676402033 0.10536014815377234 -0.10403107589046111 0.10429242258594108 -0.10408341881302917 0.029713772659208666 0.325231162605916
1757375000.0 0.03839596421493954 0.3323331011984792 0.1032844673843726 -0.10630097362184476 0.10239729117640461 -0.1061614510772076 0.03328222215887122 0.32458479504141957
1758062000.0 0.040730591737541025 0.33237510774329115 0.10116987239560184 -0.1083909466379342 0.10039973126047935 -0.10822140024740576 0.0365885688639454 0.32402969411039595
1758750000.0 0.0431708781642613 0.33256403871498946 0.0990074638743989 -0.11050570701873604 0.09830280238060032 -0.11024870111919499 0.04004983959336352 0.3237137830092429
1759438000.0 0.04559009977180555 0.33277435731915433 0.09665533000587893 -0.11253803022980631 0.09613913608904373 -0.11223941334176499 0.0435040744644908 0.3234924672033865
1760125000.0 0.04778283143166309 0.3327996582800726 0.09420761136437578 -0.11456647863463341 0.09381104597526922 -0.11420451457415004 0.04686186755913104 0.32365487759586536
1760812000.0 0.05028166050793264 0.3327513946178318 0.09179752258309042 -0.11640345613060045 0.09146597417300706 -0.11608369887079746 0.05019454999010622 0.32408806317373356
1761500000.0 0.05274165831258674 0.3327376379366653 0.0892392511230488 -0.11813459572620771 0.08896545499564139 -0.11783899837888868 0.052621267980799975 0.3241870813806989
1762188000.0 0.05491991336197819 0.33288275380239835 0.08671032398769891 -0.11980628692992216 0.0865930399199961 -0.11956936353977464 0.055592202450046924 0.3250319872969583
1762875000.0 0.057355621541043816 0.33278021993249773 0.08416108437860652 -0.12142720071836424 0.08405867228395891 -0.12122650855573805 0.05778985010266013 0.32569285502647805
1763562000.0 0.05953973190720332 0.33244918053707356 0.08146119074104867 -0.12290779984141494 0.08155556408386734 -0.12277589825446328 0.06034768955671452 0.3265031035021631
1764250000.0 0.06221909579729348 0.332164676201983 0.07882376954548745 -0.12435998409104385 0.07887520896373558 -0.12415537294926993 0.06217643060272919 0.32693046930900027
1764938000.0 0.06409778945342817 0.33185389336660925 0.07632786064424911 -0.1255773213767158 0.07646121218135014 -0.12543444232581566 0.0633986838664264 0.32741148273313464
1765625000.0 0.06634942578091076 0.33162008393301157 0.07382237651733885 -0.1268330491842311 0.07405803818635998 -0.12676164561663805 0.06442517883433477 0.3272996539703297
1766312000.0 0.06815231415383222 0.33097186537103396 0.07134889059980204 -0.1279156051777801 0.07159919731051267 -0.12796952162204117 0.065631507905937 0.32749346003006446
1767000000.0 0.07020273172268823 0.33064034245491375 0.06891548628245138 -0.12915880154209014 0.06914446671093107 -0.12930223222958323 0.06660355333229856 0.32726132656611295
1767688000.0 0.07220469594205088 0.3300272714845533 0.06649467384680124 -0.13018275951863947 0.06674295424452026 -0.13041625728801806 0.06727529177995581 0.3267221284599609
1768375000.0 0.07415528599094097 0.3293745222473637 0.0639809772989068 -0.13128663216370992 0.06440570430285388 -0.13158419141166572 0.06796850384697264 0.32590782008590347
1769062000.0 0.07592906236188025 0.32855645146002954 0.0615181768936049 -0.13222472722482342 0.06199189391030063 -0.1327069695068157 0.06890994638952154 0.32447676610718157
1769750000.0 0.07789165730422605 0.3280355013805493 0.05922810294421909 -0.13329308553159158 0.05958605846188584 -0.13396551334990092 0.0697272805144639 0.32308138470303593
1770438000.0 0.07941861903268689 0.3272481091171838 0.056841512863542616 -0.134276443982841 0.05726653431207254 -0.13503402408379575 0.07057839372905399 0.3213531184626883
1771125000.0 0.08115398567054645 0.32638954344195376 0.054588385872187804 -0.1352695890339083 0.054929102185166764 -0.1362698984844858 0.07174300647381779 0.3195074403082719
1771812000.0 0.08318311061441283 0.3258210969126718 0.05224810782097835 -0.13641243122530888 0.05243601567290754 -0.137359401302619 0.0730551348227794 0.3173730731324166
1772500000.0 0.08478250674902535 0.3249002738123993 0.04987857148306745 -0.137172578131523 0.05001699123365192 -0.13855176610082126 0.07435455631686984 0.3151062892160094
1773188000.0 0.0866453333883783 0.32407142172812875 0.04757606020561125 -0.13826444910583813 0.04732155543991217 -0.13952905813588093 0.07623060771111195 0.31297607026716606
1773875000.0 0.08839086413330133 0.32333367286548154 0.04519259537079806 -0.13925187870059128 0.04467322176616268 -0.1406392775107303 0.07811885172525353 0.3108601863560075
1774562000.0 0.09020174867057419 0.3223528926150417 0.04256721054737138 -0.1402798154230037 0.04199707204751207 -0.14149770383345414 0.08052267192671403 0.3089102314004353
1775250000.0 0.09216621535539515 0.32144721650794933 0.040128762628486456 -0.14128592632926326 0.03904867209550755 -0.1424696526314887 0.08287408021731883 0.30689856880231803
1775938000.0 0.09411372385756041 0.3205664274940819 0.03743443758660636 -0.14220636970304248 0.03618341975406784 -0.1432822998374821 0.08515531631793444 0.30470085880740766
1776625000.0 0.0959136779885232 0.319635062474217 0.03460913119951122 -0.14308044965759717 0.033311259638939515 -0.14404449954403697 0.08824360916435886 0.3031685718448027
1777312000.0 0.09813607912890518 0.3187000246099308 0.03183865774718333 -0.14404296932340005 0.030323891456212712 -0.1446280336757131 0.09095174740430204 0.3017013957017291
1778000000.0 0.09975021567151648 0.3175062996724143 0.029100076996469527 -0.144771786116235 0.027324809550699738 -0.14515349941116729 0.09442536127821875 0.3002788744337625
1778688000.0 0.10186917111221344 0.31644190618447343 0.026255581861739027 -0.1454199550161625 0.024540688395674425 -0.14570379923638774 0.09712185978416983 0.29938531762230275
1779375000.0 0.10387401778969067 0.3153834552456214 0.02328125122466408 -0.1460507911312774 0.021528828905142936 -0.14596361862120022 0.10040453932965471 0.29838668358587156
1780062000.0 0.10580459145064029 0.3140996563541298 0.02032117303378562 -0.14649831497045737 0.018649441217241217 -0.1462321834169185 0.10343182168242057 0.29791089811682353
1780750000.0 0.1076950674671709 0.3129402233789649 0.017304196445480483 -0.14696646347884154 0.015796401057509502 -0.14633059417165112 0.10672787295593464 0.29756039704491916
1781438000.0 0.1098149225618093 0.31175844992280816 0.014262146825403499 -0.1473052106121126 0.012971669609514371 -0.14658981512882988 0.10953520743688017 0.2974712586422123
1782125000.0 0.11168886990649336 0.3106748948551716 0.011110705517781195 -0.14758859417313627 0.010233504615584452 -0.14672565740406815 0.11237561790734442 0.2976539595875503
1782812000.0 0.11340590733668117 0.30949626216092974 0.008250171818027173 -0.1478429042179301 0.007440839928852541 -0.14679271642933775 0.1149420007712832 0.29802094363832116
1783500000.0 0.11510349440043106 0.3082908315672567 0.005283340748432943 -0.1477462636572912 0.004822614807789433 -0.14669422021009534 0.11725819634223929 0.29846316434707054
1784188000.0 0.11695245516843207 0.30737355593579635 0.0021567759091007427 -0.1478650900743156 0.00212225052219835 -0.14674899536578795 0.11949607589038165 0.298885978355569
1784875000.0 0.118577691211115 0.30627055708563017 -0.0007096976590584957 -0.14771722372323168 -0.0006041987234634937 -0.1467876800852135 0.12136538939542223 0.2997384538708346
1785562000.0 0.12020603636381033 0.30523402334989475 -0.0036739000929451367 -0.14754921290356984 -0.0033298888752887074 -0.1466440497742569 0.12295335395504414 0.3004383787670659
1786250000.0 0.1219138345113721 0.30436843980317113 -0.006621121696108779 -0.14747931285895488 -0.0060258334283084585 -0.146781725167745 0.12420136660361773 0.30108771276436386
1786938000.0 0.12353781451380949 0.3032200084247208 -0.009433473299919034 -0.14706382324579834 -0.008830825809218292 -0.14674225522814094 0.12512518206829315 0.30191449923534325
1787625000.0 0.1251262499532751 0.3024420923836281 -0.012252090561703718 -0.14691929441293042 -0.01154472244182138 -0.14655375311902188 0.1260078066103975 0.30235426684540856
1788312000.0 0.12671579046304282 0.30160198562343227 -0.01515063665057215 -0.14643241779592125 -0.0145320923425444 -0.14667728993879864 0.12626890717218564 0.3026166180395767
1789000000.0 0.12840027928898465 0.3007632639749063 -0.01802572399612261 -0.14609689950662366 -0.017378925343470113 -0.14655660063562884 0.1266880990006176 0.3026900958042601
1789688000.0 0.1299475923711756 0.299897303139301 -0.02083461803277603 -0.14572860625904652 -0.02041688960342054 -0.14622551800963537 0.12713307501833174 0.3025674973143534
1790375000.0 0.13154043438392787 0.29910306746051063 -0.02365762721543705 -0.1452846438654967 -0.023326689510419323 -0.1460381038492897 0.12722699625230988 0.30247998544550264
1791062000.0 0.13313790901039607 0.2985939954964423 -0.026452699962768018 -0.14479870361152994 -0.026397712478870856 -0.1457374754288327 0.12733792626035373 0.30208628263762527
1791750000.0 0.134831223290854 0.29761314834803143 -0.029258694272608948 -0.14427178068479948 -0.029440811372370004 -0.1452929350545317 0.1275834485983305 0.3014506066809424
1792438000.0 0.1364505999804417 0.29682300055881605 -0.03211358391051483 -0.14371463581825558 -0.03247820344149705 -0.1447596300973221 0.1276535085321592 0.3005270440192331
1793125000.0 0.13802257258322753 0.2960600398378149 -0.03489866043590608 -0.14298907805267444 -0.035421561491132875 -0.14416068840876833 0.12803835600933697 0.2995378183937583
1793812000.0 0.1396294648030776 0.29541162069800275 -0.037760041674723195 -0.14238673022114517 -0.038444339526845214 -0.14340419331778811 0.12842912707102302 0.2986994986552446
1794500000.0 0.14105656417733853 0.2942445204352554 -0.040498264129591746 -0.1415601782397968 -0.04129557020014984 -0.14260541391918624 0.12871680648831083 0.2978526237217839
1795188000.0 0.14261517368331536 0.29354279796138166 -0.04333623453004631 -0.14099492823120657 -0.04421450455780459 -0.14180018815312215 0.1293653270438517 0.2969434869001188
1795875000.0 0.1439229759990394 0.29278735055227 -0.04600720478500095 -0.1401646530196173 -0.04719417925565362 -0.14076366470141805 0.13005318454495624 0.2958598299783617
1796562000.0 0.14535241076355176 0.29192021445245875 -0.04884995867001139 -0.13924360550905487 -0.04999037994926278 -0.13968187654424224 0.1304007894627551 0.29453173074809363
1797250000.0 0.1466844132431104 0.2909984251185759 -0.0514631817722706 -0.13820968567190145 -0.052772451551512806 -0.1385224664767669 0.13158747614405397 0.293094144799667
1797938000.0 0.14800316375347644 0.2902819336282713 -0.05423627600342626 -0.13729194410672416 -0.05541398504407589 -0.13745851717898325 0.1323988560337424 0.2919847024883438
1798625000.0 0.14936731874464357 0.289376558102493 -0.05691200895214096 -0.13633004373913035 -0.05807844613813777 -0.13627280570760192 0.13343200924020882 0.29092643379198224
1799312000.0 0.15039354434039431 0.28837486182982136 -0.05961858215993502 -0.13519592687749496 -0.06067420370444351 -0.13487390691404388 0.13442868592961155 0.28945482160437125
1800000000.0 0.15181098947868216 0.28753584235677426 -0.062246401237251114 -0.134006968936442 -0.06336470029743939 -0.13371746313115118 0.13578391976919146 0.288868518670594
