! Created with skrf 1.9.0 (http://scikit-rf.org).
# Hz S RI R 50.0 
!freq ReS11 ImS11 ReS21 ImS21 ReS12 ImS12 ReS22 ImS22
1800000000.0 0.15962936810847098 0.29508658816334804 -0.06112454478877315 -0.13457009291050867 -0.062173553274151236 -0.13397762904680421 0.13737849336088073 0.27973773406353813
1801062000.0 0.16154104037594025 0.2936270862814233 -0.06513556637589818 -0.13273269431004922 -0.06614045975765649 -0.13217773607124378 0.14054714616323266 0.2796542907674447
1802125000.0 0.16329149673510934 0.29225223512705967 -0.06915230838750104 -0.13089737320175207 -0.07000929589658772 -0.1301233011428992 0.143529418233971 0.2800051674472919
1803188000.0 0.16507165279204503 0.2908542125049318 -0.0731237469663509 -0.12891565540615885 -0.07391973067047085 -0.12819795133010561 0.14554379513870094 0.2806175640289715
1804250000.0 0.16687391805976678 0.28960361783300925 -0.07708278940004343 -0.1268224533983658 -0.07769092376516325 -0.1261316649475779 0.14718716705013388 0.281293742823296
1805312000.0 0.16886691451200728 0.28811350183960976 -0.08105288883538693 -0.12456464616140032 -0.08150906447688863 -0.12402575361571448 0.14875861261855455 0.28229344722717503
1806375000.0 0.17079733864040963 0.28673878413495335 -0.0849792610342455 -0.12215063140576136 -0.0853014277455034 -0.12169448447359892 0.1498179541359214 0.2825937703788269
1807438000.0 0.17280437766175546 0.2853549374958566 -0.08884038574706257 -0.11972098886929149 -0.08911345180378265 -0.11931664544015197 0.15032863443002217 0.28281081385228835
1808500000.0 0.17488825295120872 0.2840001812630613 -0.09249310315680857 -0.11700366433847004 -0.0927119954771107 -0.11669968281928168 0.15069591063993948 0.2823781290195019
1809562000.0 0.17688268123604578 0.2826443514557861 -0.09602111586155754 -0.11413272392200229 -0.09628529338082743 -0.1139323685668447 0.1510220892398018 0.2815358724968554
1810625000.0 0.1788457572030613 0.281301876014666 -0.09959765114397214 -0.11108167131337131 -0.0998720412238832 -0.1108771801713625 0.15175223020755726 0.2799919121072964
1811688000.0 0.18105601711856514 0.280143292319897 -0.10303609512268706 -0.10800179885903298 -0.10323420678791331 -0.10776360165216964 0.15256048993793808 0.27829233779319124
1812750000.0 0.18293145181630882 0.2786308559796462 -0.10623758213623882 -0.10469192582583602 -0.10651448136821039 -0.10439774497441597 0.15388006141791652 0.27619625969623673
1813812000.0 0.18493810040214675 0.27743852496998134 -0.10936996522555803 -0.10130201052226048 -0.10973141138968286 -0.10089123286558366 0.15558209456788338 0.2738530127867516
1814875000.0 0.18679246122790238 0.2763392677189395 -0.11247160196498826 -0.09778400208137643 -0.11286993344341502 -0.09737067173793704 0.15813586999128995 0.2712599100066562
1815938000.0 0.18849872681052915 0.2751463106576658 -0.11534822937106032 -0.09411021510444788 -0.11577597361482231 -0.0935927056664816 0.16089354370511738 0.2691636794609433
1817000000.0 0.19032015615634 0.27390619392639365 -0.11820855231427585 -0.09036282601638183 -0.1185807830650323 -0.08983706623164632 0.16435734523633036 0.2675908350414358
1818062000.0 0.19201017144711335 0.27287010194978417 -0.1209400718708258 -0.086428350822876 -0.12123880511030635 -0.08603383544774883 0.16783744890682864 0.26646350210075886
1819125000.0 0.1936877277997869 0.27174364348574026 -0.12346181434411231 -0.08244167939150612 -0.12371421317650302 -0.08213281015053336 0.1714397260777362 0.26592405887633724
1820188000.0 0.19524785760315758 0.27076917036374154 -0.12590167254684587 -0.07842170388518918 -0.1261522641050948 -0.07814485788400741 0.1747423931171933 0.2658512132126494
1821250000.0 0.19697208011755069 0.26968986524236 -0.12828107244309314 -0.07429630711361665 -0.12842286097374842 -0.07406364507724658 0.1780930048818262 0.2662945973551208
1822312000.0 0.1987147613537854 0.2687712719181178 -0.13041766275905187 -0.07019486946736585 -0.1305097219679456 -0.06994587473583827 0.18075080405289337 0.26755331313764374
1823375000.0 0.200291212348331 0.26776583082474303 -0.132494884085085 -0.06604737636269045 -0.13269169104128223 -0.06593426386828993 0.18299381351625332 0.2687503388979141
1824438000.0 0.20197075325698582 0.2668529949832489 -0.13446910844535082 -0.06197893748605061 -0.13465617836584234 -0.06181279461510655 0.18517485035810222 0.2701541370028849
1825500000.0 0.203678273343056 0.266027370085356 -0.13631575243123698 -0.057855765267824946 -0.13658050631928018 -0.05774261642791741 0.1866086183044714 0.27155395083549216
1826562000.0 0.20546992662948405 0.26517914441411855 -0.13792226563517493 -0.053759081369270094 -0.13846868501915718 -0.053587809757813534 0.1879168096811219 0.27253930878997645
1827625000.0 0.20716671778386425 0.2644304276243669 -0.13947883747405843 -0.04964250669930985 -0.14018008044677002 -0.04939995548884154 0.18889418006446146 0.27354384429829703
1828688000.0 0.2088266257300748 0.2635853379481441 -0.14102874838269394 -0.0455234340083933 -0.14193372650074734 -0.04521897869905248 0.18969787399092866 0.2740099961657004
1829750000.0 0.2103960020495472 0.2626250955885611 -0.14227832811757507 -0.041445684533161845 -0.1432869017221038 -0.04084627230869612 0.19025995727728587 0.27383889427737473
1830812000.0 0.21210001886687363 0.26178957981442763 -0.1435740187348492 -0.03719093997330863 -0.14457166838283295 -0.036595310589864476 0.1910436610213893 0.27301021752747
1831875000.0 0.21369522986360753 0.26092494597690435 -0.1446750600257818 -0.0328777558311879 -0.14558995632204721 -0.03200315447040253 0.19196104971376327 0.2717547446892496
1832938000.0 0.21497047137163983 0.26000770053526673 -0.1455542661584989 -0.02856682050074408 -0.14643929968330244 -0.027427871510883068 0.19329477308096077 0.27019377983209864
1834000000.0 0.2163591953006001 0.25891274031036715 -0.14640994601255578 -0.02380204617580545 -0.14699662024296883 -0.02260279444157089 0.19508140035639104 0.2680156822593279
1835062000.0 0.21789685906516093 0.25796106704025934 -0.14722278941267514 -0.019165897896330046 -0.1472185568868698 -0.01770761345022431 0.19750253892788897 0.2654353358016048
1836125000.0 0.21927758389260185 0.25685917971999866 -0.14746779255462758 -0.014422556540064536 -0.14733520805293196 -0.012862696196424852 0.20025710951068787 0.2630866065375753
1837188000.0 0.22072627684250457 0.2557957174454042 -0.14784203868590243 -0.009606264369937232 -0.14724093144757666 -0.008050637812054916 0.20346317412387463 0.2608711520615993
1838250000.0 0.22230442995847605 0.25483901128886893 -0.14779283113463837 -0.004702102886671351 -0.14690852651864517 -0.0033043607527793997 0.20678259211250302 0.25908335037501995
1839312000.0 0.22370777257380944 0.2538199936609549 -0.14767245442899624 0.0003883417953631884 -0.14653212402141735 0.0013184456294568394 0.21044368016384396 0.25755574748807514
1840375000.0 0.22541298316018177 0.25287423156894223 -0.14723365676646155 0.005283005898329114 -0.14594608574244852 0.005907933781348419 0.2142076010033581 0.2566517234487785
1841438000.0 0.22725662103276476 0.252065917578848 -0.14664103991664174 0.01016802013535071 -0.1453108782487458 0.010363599785842113 0.21773414220617704 0.2561777065713513
1842500000.0 0.22899725070283997 0.2509925487854415 -0.14571500638570495 0.015061110566230386 -0.14466894665734506 0.014637775576215746 0.22101070466585193 0.2557268150446236
1843562000.0 0.23078585009692282 0.25007194698961066 -0.1447499158450962 0.019877123121395918 -0.1439213975482227 0.018949399281276404 0.2241263393271557 0.2555783462821554
1844625000.0 0.23276198996643557 0.2487690465895915 -0.14347517206026708 0.02453221463976391 -0.14320901756008925 0.0232956056565157 0.22690090323913067 0.25537551887316196
1845688000.0 0.2348098449222747 0.24759213522716697 -0.1421888014951277 0.028952859637774015 -0.14257005121484934 0.027724825257897972 0.22943022564070292 0.25525073096580664
1846750000.0 0.23663382339424163 0.24621543198606663 -0.1408556439162008 0.033290222767236956 -0.14184406984910639 0.03224293896547023 0.2316830181143691 0.2547580518456847
1847812000.0 0.23838663498525792 0.2448632340781883 -0.1394443725342327 0.03741819593055888 -0.14098124110317023 0.03680358863206832 0.2338623318699078 0.25390252254262174
1848875000.0 0.24019101321509936 0.24340680340845852 -0.1380460175963995 0.04139179401733304 -0.13989480383422306 0.04136236816864481 0.23592625953477625 0.25280417836261365
1849938000.0 0.2418544233674318 0.2422453169433154 -0.13668288606111073 0.04530351497635486 -0.1386310867455911 0.04599179814445848 0.23794374701172913 0.25132680370163074
1851000000.0 0.24355179726043938 0.24086112377394842 -0.13511140402232819 0.0491645394814153 -0.1369406533937828 0.05059384780467612 0.23989640977079418 0.24917611877691723
1852062000.0 0.245183542764579 0.2396574786350982 -0.1336078124587905 0.052976634733332244 -0.13492500366922022 0.055018059762320416 0.24215804762136764 0.24667989705194338
1853125000.0 0.24706862956382417 0.23843205553357488 -0.13195506579747512 0.05673341670584197 -0.1326339373476823 0.05923642958561317 0.24459717451752436 0.24369868204120337
1854188000.0 0.2490389305908082 0.2370806726477288 -0.13014159192949087 0.06058563674020559 -0.13010444517959968 0.06326637959301457 0.24700126116544316 0.24038279668059986
1855250000.0 0.25105617897915755 0.23574703225383387 -0.12811491535017372 0.0644049761151436 -0.1273177194260095 0.06695209272667278 0.24975677110384334 0.23696019934600787
1856312000.0 0.2533236908885528 0.23426063884540685 -0.12589447477211368 0.06831477072214916 -0.1245145039829269 0.07048259743765067 0.25304602671126336 0.2334186827526125
1857375000.0 0.2555464332648295 0.23271185944821482 -0.12344548208569396 0.0722076127606962 -0.12169135485066153 0.07381401184481186 0.25641706241154877 0.23000440719447574
1858438000.0 0.2579406941449258 0.2311807134912432 -0.12104846586416768 0.07602727445815864 -0.11901536795261493 0.0769968526100029 0.2600220333934513 0.22699862394773107
1859500000.0 0.26040561223187864 0.2293389547366657 -0.11844228264223675 0.07983854975148603 -0.11633183202070368 0.0801477061276432 0.2638826203028568 0.22409111693396339
1860562000.0 0.2627599409757736 0.2274349141151481 -0.11556232706733287 0.08344790651507746 -0.11373105429147523 0.08319619334078916 0.26765816229756706 0.2219952020255475
1861625000.0 0.265236184216673 0.22536658828566622 -0.11260604860205517 0.08713752012860193 -0.11110027810454116 0.08637012537709984 0.27113936675083145 0.22000370027236668
1862688000.0 0.26738176229403177 0.22336471723325665 -0.10942871405937803 0.09063876294551243 -0.1084904978120971 0.08954758271112848 0.2745927177057804 0.21843069332179402
1863750000.0 0.26969133494538294 0.2210964887391519 -0.10619051582832005 0.09402420130752136 -0.10575553256790125 0.09283508878013014 0.2779487368734875 0.21659219068237393
1864812000.0 0.27193277548238737 0.21894382481614183 -0.1028008700681531 0.09729543017274045 -0.1029129077503905 0.09613399824708847 0.2808793117903881 0.2152936705269336
1865875000.0 0.2742085482814682 0.21680103868625966 -0.09934809872147542 0.1004059625343904 -0.09994832129140463 0.09954626514283425 0.28353131895055433 0.21359797973750158
1866938000.0 0.2762365455671521 0.2145854804678287 -0.09589202728476938 0.10322038495139346 -0.09676762263159007 0.10276393442594386 0.2860803242300308 0.211910152906083
1868000000.0 0.2785020388507962 0.21248945648261466 -0.09220662685950035 0.1060134550409959 -0.0932498274013233 0.10602223904326326 0.2885181350256539 0.20961921045946286
1869062000.0 0.2808796132196549 0.21020700761646677 -0.08858305545727033 0.10850317745955161 -0.08960265920397278 0.10892237172912632 0.29092723646205004 0.2072152616524242
1870125000.0 0.283242692597153 0.20813775733579643 -0.08482975153529712 0.11081264394318932 -0.08573090105418452 0.11165153087233473 0.2933778353819043 0.20436088066908945
1871188000.0 0.28575865661363437 0.20580470532201578 -0.08128843730257207 0.11290643942246657 -0.08185542675771092 0.11411061581804978 0.29565123647588704 0.20122815579946615
1872250000.0 0.28823466359919037 0.20326464311314874 -0.07755691422974804 0.11484825425086673 -0.07786970118776697 0.11623976154715714 0.29817257953601334 0.19763828541080908
1873312000.0 0.2908836809320962 0.20079396592440849 -0.0739140332793628 0.1166418623948409 -0.07385867362414004 0.1179925193792606 0.30040494222488745 0.19406076670755984
1874375000.0 0.2933222404184608 0.19826359123642548 -0.07030383883858021 0.1182820028453826 -0.06999899711775709 0.11954821711283728 0.30272251215072143 0.19015918329393136
1875438000.0 0.2957898411381457 0.19530766728639118 -0.06666633303007746 0.11997321770351109 -0.06603560167874528 0.12101438290795295 0.305285920778986 0.1860726652534404
1876500000.0 0.29826179910716777 0.19248504786600915 -0.0630468625246608 0.12123934974358137 -0.06222968200625465 0.12229048452323021 0.307656700735163 0.18204372730365262
1877562000.0 0.30062154315737294 0.18946765299720902 -0.05939847037281786 0.12266154332961705 -0.05844733890460189 0.12353959067302514 0.3101870132409265 0.1779689597349493
1878625000.0 0.3027084430332547 0.18641468376518197 -0.05572625978126525 0.12414628014661831 -0.054670513383212875 0.12476386331296022 0.3125161132902375 0.1744795905523257
1879688000.0 0.30477030504217756 0.18352046803805672 -0.05194999241508077 0.12552398611950244 -0.050917702569010174 0.1260741893161693 0.3152029977733004 0.17098762149566468
1880750000.0 0.3067901613095058 0.18036912895685123 -0.048238040385519244 0.12682816813852626 -0.046984716065258655 0.12723706143818034 0.31737352109351347 0.16764940064977063
1881812000.0 0.3084940334900343 0.17721142820598015 -0.04431001966124516 0.12813316629876922 -0.043064348695125716 0.1284347609090589 0.3195264445229735 0.16471438061710858
1882875000.0 0.3104510641686334 0.17410548834023315 -0.04028228744280364 0.12946793929556116 -0.039049166864096416 0.12948519614720122 0.321174553899604 0.1620695012825708
1883938000.0 0.3123630851358518 0.17089772704813017 -0.036193754587964096 0.13060974600785544 -0.034998667149341266 0.1302962406132887 0.3223994098089488 0.15921572671999362
1885000000.0 0.31424207980196034 0.16762278136678246 -0.03200574437454201 0.1314718162177074 -0.030890362607196777 0.1310595940105953 0.3233714034665242 0.1561271692524516
1886062000.0 0.31624051479004245 0.16436968862837462 -0.027634733637585514 0.13237136701189514 -0.02678560616901021 0.13160630940476503 0.3242670431096972 0.1530324680893538
1887125000.0 0.31811185951382215 0.160757773044921 -0.02326007616710756 0.1328393424485525 -0.022675396060453334 0.13189259369972006 0.32483397567194583 0.1494316672294576
1888188000.0 0.32021280602676966 0.1571946847484755 -0.01892525632678785 0.13324052796044442 -0.01872617328383742 0.1322372600988648 0.3255953301010826 0.14543345798263296
1889250000.0 0.32202671286539947 0.15331149702958158 -0.014509214563404836 0.13331444340260992 -0.014798643281168224 0.13234674598774668 0.32632070830695276 0.14117931678758774
1890312000.0 0.3238734944533096 0.14952991000183055 -0.01037367678352554 0.13307513050587827 -0.010908665065237886 0.1323277682686736 0.32723423307194055 0.13663404031789406
1891375000.0 0.3258225777953698 0.1456695892426673 -0.006316535776701067 0.132603551087428 -0.007045234708234611 0.13219129739128663 0.3282861182286567 0.13191577455229694
1892438000.0 0.32754365598796864 0.14167350313397553 -0.0023218261870967148 0.13204608306299992 -0.0032293737761563326 0.13204400596782792 0.32936308978580714 0.12720186738236552
1893500000.0 0.32905844733437195 0.1377636443583635 0.001470304126884433 0.131329706063236 0.0005712303614128479 0.13178303624182902 0.3307786510429549 0.12285139496119274
1894562000.0 0.33039425080075185 0.1340537088756699 0.005079834037415153 0.13057209332506575 0.004389150479978591 0.13140984744679665 0.33198123849368283 0.11830929678481841
1895625000.0 0.3318278946762883 0.13027441571686937 0.008657269134007963 0.12975659110879478 0.008280832295636163 0.13093565769257412 0.33327475971057663 0.1140410080449419
1896688000.0 0.3330428130608716 0.12655266379902322 0.012305502551599337 0.12885584386094145 0.012121782310952218 0.13028608090847466 0.3345200815413025 0.10995210956744979
1897750000.0 0.3342647645974157 0.1229257230498963 0.01566424387077515 0.12806612538834872 0.016116059982927373 0.12947364173524367 0.33535102578769094 0.10619035196766667
1898812000.0 0.3353490880201708 0.11936292762013914 0.019136681879101208 0.127208972617086 0.01996441789568732 0.12844750948457268 0.3361983980954934 0.10232508509900011
1899875000.0 0.3364805843295876 0.11589358497369225 0.022583635027092666 0.12630042160998944 0.023841661407602084 0.12726749670539783 0.3366201175976197 0.09890146670664306
1900938000.0 0.3375685175718157 0.1124360902644895 0.02606885263838909 0.12542597375075187 0.02764806142772187 0.1260341324702718 0.33705245899338254 0.09575010671992114
1902000000.0 0.33867036167211906 0.10883939155053453 0.02964795334383329 0.12451820300123399 0.031415445792116886 0.1246193161966466 0.33707393404850927 0.09215439390151196
1903062000.0 0.33969694569811326 0.10550754876513568 0.03330018948302322 0.12339921394990179 0.03498010046934865 0.12309574568126799 0.33665449690479105 0.08896300851872535
1904125000.0 0.34046776581645943 0.10187130862449548 0.03699338937342595 0.12223656056077196 0.038476813782414215 0.12159599908407868 0.3354755940825306 0.08531891760324685
1905188000.0 0.3411313927990635 0.09847552688693964 0.040729407746440585 0.12084458784249334 0.041796778332778055 0.1199751374035379 0.33415947035432997 0.08155785988546473
1906250000.0 0.34160288656217513 0.09497439018132099 0.044320480918056966 0.11934850051871476 0.04506904037330692 0.11837662754048613 0.3330383605615756 0.07716891532143615
1907312000.0 0.3420809655887284 0.09152043875376031 0.04789719220790124 0.11767832667803119 0.048230035427234995 0.11670353945555076 0.3313955649857811 0.0725233997612222
1908375000.0 0.342412969146775 0.08806462818377261 0.05138933546253133 0.11587036110253411 0.051383721532401526 0.11510383455529977 0.33014582139971776 0.06770039525811573
1909438000.0 0.3424735906372974 0.0848030402745328 0.05467380100707291 0.11400307262292426 0.05445081335559234 0.11336387840377833 0.32892299595723207 0.06244218899086827
1910500000.0 0.3424363612404908 0.08142352109707432 0.05781727352424436 0.11201371155920506 0.0574680818176531 0.11164189231733648 0.3281826117167605 0.0570843354591226
1911562000.0 0.3422198016529386 0.07812618569710063 0.06085841268823143 0.10986650570114628 0.06048206250499221 0.109713923149506 0.32760644467460687 0.05153363817603842
1912625000.0 0.3420526117619244 0.07481745866589996 0.06374612253640088 0.10770272435107664 0.06349399197004596 0.10768760542582276 0.32753386875195317 0.046323934498378745
1913688000.0 0.34176065409043416 0.07141171243010629 0.0665108613392114 0.10543401510602654 0.06638969955914678 0.10558558492269768 0.32743622605916956 0.04133425411422885
1914750000.0 0.34143101976903883 0.06810390206928504 0.06912806283462761 0.10292505823015385 0.0693446561773205 0.10328027385108576 0.3275537174413813 0.0368412015193452
1915812000.0 0.34100745716774816 0.06482990036182405 0.07171648537193484 0.10056389654203948 0.0721103187154229 0.1008598127343565 0.3278367866027743 0.0324911215135987
1916875000.0 0.3404922380243377 0.06138004898362543 0.07432651563236645 0.09794324460186501 0.07480484114096043 0.0983529721525136 0.32812388291044775 0.028865427323214603
1917938000.0 0.33993609329852637 0.058126783409883406 0.07686416431565793 0.0954468936495045 0.07742177301945413 0.09568450963682447 0.3278858419125349 0.025210368322976403
1919000000.0 0.3393924063592699 0.05491212072675384 0.0792996107604221 0.09285529856059924 0.0799236602624271 0.09303694014198423 0.32741143598750494 0.02220264617878961
1920062000.0 0.3386806952665449 0.05142854549773345 0.08163686674355562 0.09016661463448357 0.08231343284783577 0.09019275684035984 0.32681823237790664 0.01950274333493628
1921125000.0 0.3380343294486948 0.048173808994547485 0.08407056361416135 0.08738251985810581 0.08459425675221142 0.0873016218251772 0.3255143772351269 0.016436417524772904
1922188000.0 0.3373922977516414 0.0449523791329754 0.08631483787727193 0.08464168652870271 0.08686224185658548 0.08445492930094586 0.32406297946016643 0.013860094392594733
1923250000.0 0.3366142807182862 0.04180239103899168 0.08851638511074103 0.08172186973836382 0.08909320630505962 0.08149192122524311 0.3221216563662059 0.01110157118406632
1924312000.0 0.33591844584868036 0.03867947837172507 0.09049499052536536 0.07878404657669189 0.09115440505112357 0.07857672171682747 0.3197935768323188 0.008143719187587705
1925375000.0 0.33510107525066685 0.03560311638727459 0.09256411384088349 0.07584657511440528 0.09308910544701529 0.07556175583840034 0.3172480091674914 0.004997464112213731
1926438000.0 0.33444154977567103 0.032577234316246956 0.09435467395668284 0.07279241338022928 0.09498174887973598 0.07251797617709489 0.31448827252307027 0.0014277200671118696
1927500000.0 0.333608802839988 0.02957219465260683 0.0960933970303549 0.06988813208017607 0.09674992513032665 0.06945451167304617 0.3116364911467719 -0.002512955296624238
1928562000.0 0.3327477697185777 0.026643463522241097 0.0976455496651257 0.06688082593162509 0.09839060971610704 0.06643781200529739 0.3091620888762285 -0.006775111026063794
1929625000.0 0.33177474351843145 0.023693495923878604 0.09927990722219472 0.06381367241934345 0.09989216812257803 0.06335947189019435 0.30703456416360814 -0.011515059900615356
1930688000.0 0.3308737595024867 0.020717493419318167 0.10076011653237715 0.06087493056211331 0.10128476365034901 0.06028864880672331 0.3051731599531663 -0.016089485556524428
1931750000.0 0.3298255390147723 0.01779520828180423 0.10215195643119668 0.05793083859099722 0.10255829454684787 0.05733566924780399 0.3039027517061364 -0.020660554947925767
1932812000.0 0.3287139610467389 0.014933265349941199 0.10345394817330131 0.05497270952158479 0.1037998960233179 0.054321782784251996 0.30293759975192175 -0.024955659808389853
1933875000.0 0.3275390265842608 0.012184121608157225 0.10467332027040026 0.05184526085511032 0.10489141704479953 0.05131323604866338 0.30242407767318485 -0.028974159360444635
1934938000.0 0.32644898841175424 0.009265855448965151 0.10578489442796243 0.048852683589918865 0.10589737504945952 0.04825092826909801 0.3020808317155878 -0.032358042914718964
1936000000.0 0.3249788176363768 0.006655952152296648 0.10687313433368664 0.04575884493334571 0.10683631937703876 0.04517121243730453 0.30193977876178774 -0.035187895455480095
1937062000.0 0.3237667883777488 0.003935937751280339 0.10778210031261079 0.042554555219524406 0.10779832544559112 0.04198324731649421 0.3015032960221184 -0.03734207233284892
1938125000.0 0.32240666557182446 0.0012372245416464491 0.1085037727737986 0.03919145504368753 0.10861570548251825 0.038731054642415066 0.3007472310147858 -0.03921695799912478
1939188000.0 0.32091305862255204 -0.001643849501844176 0.10922392264930667 0.03583028021347253 0.10934511295513677 0.035419229214961316 0.29969394739589666 -0.040668458117968494
1940250000.0 0.3193579422613371 -0.004396488439110859 0.10991189543692394 0.032419468898822204 0.10997685477727996 0.03202123154653897 0.29831221442771416 -0.04187251605993607
1941312000.0 0.3178123499088339 -0.0071439633857883775 0.11038315432863674 0.028883815921052044 0.11052047073454105 0.02850979286571117 0.29614890386325476 -0.042980227528049864
1942375000.0 0.3161947263750982 -0.009840499010670568 0.11077728286731398 0.025438803918854464 0.11084942842435387 0.025127352188229042 0.2936529621487425 -0.04407301718195703
1943438000.0 0.3143353083551022 -0.012667086353549455 0.11104343356155634 0.022035302950262056 0.11115259014135591 0.021657764248045264 0.29067936983642884 -0.04528884617679039
1944500000.0 0.31259037050544436 -0.015484121129893542 0.11117490853637621 0.018591403187814007 0.11125273110487648 0.01835894082337839 0.28729494888806534 -0.04663875928157873
1945562000.0 0.31061039115014016 -0.01823457487717884 0.11109187254471181 0.015349994367824572 0.11115860326830924 0.015071384925427799 0.2834850979353803 -0.04828734282753371
1946625000.0 0.3086830542363827 -0.020890814310872707 0.11109664386603213 0.01215700877817643 0.11102109903417337 0.01197142073386424 0.2794944082934344 -0.050307090904779306
1947688000.0 0.3066279644903332 -0.023593887505870548 0.11073383205780889 0.009073495578607585 0.11083624676891693 0.008948459907635745 0.27564661423438175 -0.05289249276559078
1948750000.0 0.3045498377270518 -0.026176256903217638 0.11038280932340172 0.006035781437996242 0.11054122831438173 0.005921192399757268 0.27185871060187544 -0.05585634489659336
1949812000.0 0.3023542893736748 -0.028774793356141037 0.10992865688452479 0.003150525549289207 0.11021563647899811 0.003044849003103373 0.2682949631855698 -0.05901501143926665
1950875000.0 0.3004538393728461 -0.03137530557899839 0.10958428935159302 0.00019058827305105166 0.1099826312232447 8.984601636736334e-05 0.26552815538685964 -0.0625827182668812
1951938000.0 0.2984670948649047 -0.033900058627887086 0.10911351401431471 -0.002570837796545719 0.10972161089409785 -0.002704351426930919 0.2632348635535414 -0.06577859022932092
1953000000.0 0.29620632706641836 -0.036380320892679584 0.10868204204120442 -0.005263268969628235 0.10933205450052404 -0.005636850977147737 0.261457447989904 -0.06873940328154303
1954062000.0 0.294385163076677 -0.038984818674336376 0.10821148723426238 -0.008117203578574652 0.10888241244462628 -0.008508142843845226 0.26027631231344545 -0.07145296115463712
1955125000.0 0.29239239513609117 -0.04151109075319611 0.10767442985686071 -0.01079889686469675 0.10835207202157089 -0.011497690828697168 0.2593192175878234 -0.07379146688376671
1956188000.0 0.29041506389504984 -0.044022836503335314 0.1070639374384733 -0.0136000293129937 0.1077094165030051 -0.014423080405749751 0.2583892835982716 -0.0753594313779844
1957250000.0 0.28843918959452686 -0.04650001832567462 0.10636661446441364 -0.01631389637504596 0.10684446620107012 -0.017435744726039683 0.25732132568852606 -0.07642928704299193
1958312000.0 0.2863060318254049 -0.04911191377725182 0.10551266850021468 -0.019231127162463574 0.10582576338870568 -0.020418619927692363 0.2560118594098262 -0.0770477885240057
1959375000.0 0.2842570485164157 -0.05157105472581579 0.10464030008947998 -0.022060051539326716 0.10457255247793755 -0.02336201964973649 0.2542410167617723 -0.07735076119600921
1960438000.0 0.28218043666459214 -0.05384110837262786 0.10377302765087909 -0.02492272619283845 0.10334886034620154 -0.026227965666187993 0.25203337546044147 -0.07748885804454499
1961500000.0 0.2799926867334955 -0.056298736543351414 0.10261642257413155 -0.027869650803557158 0.10191954670349238 -0.029028205215734508 0.2493158396443193 -0.0776024756348677
1962562000.0 0.27777405476195255 -0.05865798543171864 0.10149413148295439 -0.030814037391999033 0.10053927945599161 -0.031660916202323884 0.24603147801484757 -0.07775072148859843
1963625000.0 0.2756846413326775 -0.06066355762237279 0.10013282004795462 -0.03364597473979964 0.09917741353268326 -0.03416532647780998 0.24232507639568424 -0.07788455802855387
1964688000.0 0.2735254073547794 -0.06295101579878541 0.0989045797223582 -0.03638264991190885 0.09786440347479276 -0.03656502655497801 0.23811642028048932 -0.07857020276707
1965750000.0 0.27152585149129727 -0.06500167510834622 0.09743853197095864 -0.03914475736526381 0.09656805414623755 -0.03887607006010503 0.23353513078891178 -0.07947787640165403
1966812000.0 0.26939249575605617 -0.06704839139645982 0.09588883048578176 -0.041630718666614754 0.09533872430275427 -0.04106449711911155 0.2291236517291522 -0.08094150734828548
1967875000.0 0.2673349707055465 -0.0691271441164866 0.09429071627222468 -0.0440060443267271 0.09404872226220785 -0.04343457829228294 0.22449527172441566 -0.0828651752118276
1968938000.0 0.26537126769750313 -0.07113653610626583 0.09263870849731001 -0.04627542757514142 0.0928672484722427 -0.04570506492438601 0.22031924290732396 -0.08503799424175762
1970000000.0 0.2634438751848297 -0.07315557021336686 0.09099511033299068 -0.048411212015355684 0.09161132607174408 -0.04801325949992461 0.21645637330676445 -0.0877673677459583
1971062000.0 0.26139573525263277 -0.0750300107232751 0.08933911098957872 -0.05047794964332434 0.09019941686082694 -0.05040565444540531 0.21353564891452192 -0.09065762066621112
1972125000.0 0.2594515081983479 -0.07708444404085449 0.08779767883204764 -0.052488227764681414 0.08873062904547296 -0.052829087441392426 0.21103212213873565 -0.09335423957804333
1973188000.0 0.2575106417719393 -0.07887673495814486 0.08624835449679738 -0.05455535819547728 0.08714086124399617 -0.05517777055009687 0.20922473243366943 -0.09629914605207941
1974250000.0 0.2554903629557429 -0.08085595971429456 0.08461637798325375 -0.056486581625717215 0.08532663810000139 -0.05747488648650645 0.207971198263074 -0.09862810588860332
1975312000.0 0.25346795026484004 -0.08255583260844898 0.08306101664662624 -0.05831319414702156 0.08346390808745464 -0.05956812715784129 0.20702430891634865 -0.10049792674231875
1976375000.0 0.2514570225884491 -0.0842617105223972 0.0813400006358963 -0.06036867685441251 0.08148602344630555 -0.061653680598822425 0.20642578190625355 -0.10195189702879948
1977438000.0 0.24933921455232225 -0.08595670198011089 0.07978263611527626 -0.06220514461450051 0.07957110896956827 -0.06360863862287512 0.20586316658038062 -0.10285584041523868
1978500000.0 0.2473144660516718 -0.08746256748269729 0.0780093067690792 -0.06396183010105193 0.07745671606197947 -0.06520758794350157 0.20505455832345376 -0.1029620583794136
1979562000.0 0.24538487286289715 -0.08890899420953342 0.07620647094515035 -0.06571846553904545 0.0753411298495997 -0.06679483430622468 0.20398432747669182 -0.10293678261444279
1980625000.0 0.2432339950304096 -0.09034092407469545 0.07427152492526633 -0.06757044471538659 0.07322258572186036 -0.06827335611592938 0.20233429066502728 -0.10258958120705484
1981688000.0 0.24126170496021757 -0.09169155342089615 0.07225487410080791 -0.06940553437185308 0.07124697886265026 -0.06978221196128077 0.20027082310646122 -0.10212779256285817
1982750000.0 0.239403104670853 -0.09317980852950354 0.07026045282397318 -0.07101658061698654 0.06925261228437204 -0.07118434868820118 0.19761167788618575 -0.10166655569931077
1983812000.0 0.2374327571040474 -0.09453068889243205 0.06800917916408544 -0.07276216476353285 0.06723973228063146 -0.07265111317879427 0.1948073200277569 -0.10173853323927509
1984875000.0 0.23555657465145044 -0.09580754076615462 0.06592987773499437 -0.07435913491332823 0.0653659041644778 -0.07407926417465634 0.19108444655756218 -0.10156339648186277
1985938000.0 0.23365061856859104 -0.0972208357200666 0.06377399350767474 -0.07595692294882593 0.06337806000816322 -0.0757051278380521 0.18747338917997258 -0.10215725823053577
1987000000.0 0.23173005029165802 -0.09841768519388128 0.061602312442596216 -0.07748703933538352 0.06145163904256223 -0.07715027561490466 0.18369122988368636 -0.10273498297485599
1988062000.0 0.22980731186932207 -0.09968225531823509 0.059373952283257404 -0.07872350368895818 0.05942095653360665 -0.07868621788523851 0.17998881101225886 -0.10408778987048557
1989125000.0 0.22768765248586773 -0.10092385971461076 0.057262327946301574 -0.08022780187766104 0.057326679474294526 -0.08026227373976379 0.17648467431184162 -0.10555697082317066
1990188000.0 0.22565041614406894 -0.10215896004451566 0.05512358577409414 -0.08138934123410092 0.05510817299054678 -0.0816229227876101 0.1735533363291585 -0.10729892660400407
1991250000.0 0.22335655958068948 -0.10324661928573152 0.052813650406258884 -0.08266941553651593 0.0528506148078144 -0.08301315621479363 0.17093798834005333 -0.10929060459620815
1992312000.0 0.22138705771663028 -0.10440565613488179 0.05056280001319391 -0.08365167953597363 0.050594519513760955 -0.08419509694014968 0.1688886702179465 -0.11100497022940135
1993375000.0 0.21918960078040714 -0.10533486115485925 0.04843417816679138 -0.08488794522131457 0.04816830919229714 -0.08543714049513068 0.16730780488873914 -0.1124156911053598
1994438000.0 0.21694815981818316 -0.1062628470021691 0.04627394565567651 -0.08585328843394008 0.045839324935907456 -0.08638893507440427 0.16622103029622784 -0.11373581209125834
1995500000.0 0.21477771950933805 -0.10716384661045938 0.04390519241043601 -0.08685888408069692 0.04345508849527299 -0.08735942436104348 0.16531461401310144 -0.11440567089545897
1996562000.0 0.2125360197160838 -0.10805764549042195 0.0416268336378727 -0.0878762761053744 0.041093727309055444 -0.08811160464829144 0.1646628716359766 -0.11469511332106364
1997625000.0 0.2103536111360711 -0.10894153151203548 0.03933857137823569 -0.08874217431103273 0.038814771762516326 -0.08888108401950584 0.1638465752541923 -0.11450805978308158
1998688000.0 0.20828539489824932 -0.10965774209651423 0.036972920502745206 -0.08946904803978038 0.03659583244397907 -0.08959625921030946 0.16269492102806393 -0.11370814287495389
1999750000.0 0.20614581173954047 -0.11036355415463693 0.03472080518722873 -0.09031670232841392 0.03435306654902561 -0.0902585486572975 0.16141189483076407 -0.1128291593060606
2000812000.0 0.20406931429062314 -0.11112319676941255 0.0324335102542879 -0.09089181629083272 0.03214141552818709 -0.09096448716825557 0.1595614943302884 -0.11172572638193728
2001875000.0 0.20189449845533985 -0.11177665365050606 0.03013439605396261 -0.09148004622630372 0.029941299658748075 -0.09158003859995037 0.1574466639698877 -0.11055272392256058
2002938000.0 0.19983420384711825 -0.11247281226194943 0.027910084998343538 -0.09212569177186346 0.027768059710924824 -0.09227077410909183 0.15484723966035546 -0.10934340773130839
2004000000.0 0.19756490404704788 -0.1130630729582225 0.025679932247754347 -0.09265706367200718 0.025487125367640775 -0.09290583352533144 0.15193456840319505 -0.10850587661817508
2005062000.0 0.19539865524072203 -0.11358558204421898 0.023404083694598996 -0.09317999366509544 0.023270332235323384 -0.09356422068645569 0.14881171987857048 -0.10763884330652407
2006125000.0 0.19315021096860047 -0.11393133785960477 0.02116704803955383 -0.09363121678728893 0.020977364151778033 -0.09409102115080054 0.14560205704974086 -0.10738499886082745
2007188000.0 0.19098702981438337 -0.11426362828483168 0.018992309515021396 -0.09409389106288768 0.018622466483259013 -0.09457723870241935 0.14234082756542776 -0.1073942943196991
2008250000.0 0.1886930579886909 -0.11442910144321476 0.016747272122664334 -0.09457995374033044 0.016306146185646495 -0.0949815803513298 0.13925595777479655 -0.10757008306313297
2009312000.0 0.1863782981694715 -0.11455998798889067 0.014473654081179673 -0.09490589014954422 0.013888555068913205 -0.09527927037211609 0.1363991315268365 -0.10807515223766291
2010375000.0 0.18414581642707387 -0.11456925383364713 0.012199740118803088 -0.09519291053670079 0.011425809473297074 -0.09554191055685189 0.1337939935492829 -0.10852808100367546
2011438000.0 0.18184662317486958 -0.11435504683652958 0.009821615177766242 -0.09556029437035958 0.009038167405825427 -0.09567338831821874 0.1317265574924997 -0.1091647077878438
2012500000.0 0.1796052125544625 -0.11434346055977988 0.007425929665135064 -0.0957959568180119 0.006633791253043183 -0.09581454691984184 0.13012858629774773 -0.10943969379109551
2013562000.0 0.17723458747869053 -0.11391023835187199 0.005059932526064133 -0.09599764343592991 0.0043018760654235455 -0.09588976942716422 0.12862762413418236 -0.1096633863191527
2014625000.0 0.17492628447757178 -0.1135907424388453 0.002599930636395722 -0.09604267240721355 0.001890008110948253 -0.0958933350056436 0.12749905888626875 -0.109274887428348
2015688000.0 0.17249442362821496 -0.11321141849177098 6.63619057770907e-05 -0.09610391298140888 -0.00048775764038143854 -0.09587633200900113 0.12637266371250855 -0.10839964391156034
2016750000.0 0.17010857585113795 -0.11281635506220292 -0.0023782393136751964 -0.09604314996727598 -0.0027708655550053468 -0.09590034048848747 0.12527637310552558 -0.10692389114774081
2017812000.0 0.16760968956519762 -0.11234196730253851 -0.0048550228244876 -0.09600638922649417 -0.00509844672732786 -0.09582807703979164 0.1237781225702835 -0.10512136203724641
2018875000.0 0.16511354121352154 -0.11182388721762464 -0.007409173289385475 -0.09582027867966572 -0.007518474950170201 -0.09570378852354276 0.12187704324306806 -0.1031261337998158
2019938000.0 0.16250434529012492 -0.11117533843060914 -0.009849558434362667 -0.09562725911195388 -0.00983845038075572 -0.09552789785984543 0.11966055740434475 -0.10097869100089037
2021000000.0 0.16000084409423643 -0.11055316456134538 -0.01229756144329414 -0.09539681268490303 -0.012369786509202655 -0.09537985107879582 0.11681120221918022 -0.09884052662768963
2022062000.0 0.15721388786815968 -0.10976258407604848 -0.014648431785492858 -0.09502871101057912 -0.014666491292077435 -0.09510610963722556 0.11379004026303631 -0.09680655905079541
2023125000.0 0.15463002458275477 -0.10905556275589941 -0.01702458750419116 -0.0946153414594838 -0.01715692286833032 -0.09478200220573835 0.11045419730372996 -0.09512049324060126
2024188000.0 0.15200138482468908 -0.10823532183222916 -0.019333357264116828 -0.09425941479896445 -0.019581617199584428 -0.09447285604728319 0.1070376775249454 -0.09391751411404695
2025250000.0 0.14932982847272 -0.10742917691276348 -0.02171749312649787 -0.09389692319184603 -0.021986519229583747 -0.09410060895941574 0.10366577939278085 -0.09278369834923984
2026312000.0 0.14674707204004425 -0.10659322796777448 -0.02394989535817747 -0.09344799537560874 -0.024381970535197178 -0.09361464917629969 0.10045402061797057 -0.0923632008078942
2027375000.0 0.14409606085505183 -0.10573900896812323 -0.02621524568413254 -0.09289452088287117 -0.026699610481119036 -0.09313627272655704 0.09734446702019238 -0.09189010507524832
2028438000.0 0.14156246010314544 -0.10488962690242834 -0.028451050223760814 -0.09236678580756492 -0.028977619222297447 -0.0925851218098847 0.09476245224144476 -0.09173913554644783
2029500000.0 0.13908706924181513 -0.10395175921330252 -0.03071057250941262 -0.09176008710387423 -0.0312549552440191 -0.0919954444525328 0.09235851997650539 -0.09179265818319123
2030562000.0 0.13662550392638442 -0.1030716838992518 -0.032959248182948764 -0.09107074744276242 -0.03353395140080966 -0.09124671438898044 0.09039315237263693 -0.09169096932687808
2031625000.0 0.13423731615277865 -0.10216782369889481 -0.035211863519344404 -0.09034551492788372 -0.03585524981402751 -0.09042226346119277 0.08884497297645806 -0.0914926149079809
2032688000.0 0.13197239953130882 -0.10126259398720577 -0.03742566907644854 -0.08969053436637596 -0.03810110385897498 -0.08964252526235958 0.0879113350825404 -0.09104947392089151
2033750000.0 0.1296806731399973 -0.10032856303454675 -0.03975599918228494 -0.08888621902622935 -0.040407881435964396 -0.08879734022562613 0.08711743481893727 -0.09002200917947926
2034812000.0 0.12752370018112766 -0.09941728885605076 -0.04200786946960653 -0.08804524662987384 -0.04264941608393725 -0.08787780863850021 0.0863698484773637 -0.0885436877249648
2035875000.0 0.12531995151362577 -0.09837438230159751 -0.04441252688691631 -0.08701306774309253 -0.04488469497362464 -0.08678600551937427 0.08555648833225481 -0.0867855449364519
2036938000.0 0.12328453073079142 -0.09737631285406734 -0.04662233573264291 -0.08608772042932697 -0.04720011301365787 -0.08575798828920668 0.08452029784018328 -0.08450625030601924
2038000000.0 0.12119156442656843 -0.09632718098674097 -0.04889344821467558 -0.08513721103346929 -0.04950071871748469 -0.08467007646618398 0.08314143199255951 -0.0818321650089187
2039062000.0 0.11926049277472314 -0.09526690137832279 -0.051244628651372644 -0.08394357556090838 -0.05175926730063563 -0.08357628781289561 0.08148133782975202 -0.0789322229869894
2040125000.0 0.11733989071010488 -0.09416730208053496 -0.05355049254055213 -0.08288753688727024 -0.05403339262334489 -0.0823757080009384 0.07931351756348866 -0.07619604667595925
2041188000.0 0.1154051926828149 -0.09304199415216684 -0.0560148950179923 -0.08158837548672045 -0.05633291420245999 -0.08116647324618938 0.0765731231894419 -0.07338614931158986
2042250000.0 0.11354178077047147 -0.09178289405454759 -0.0583294614707823 -0.08021631380715852 -0.05862298607363185 -0.0798732486187784 0.07355263880225997 -0.070839095858494
2043312000.0 0.11167615149039194 -0.09054676772877536 -0.06062832347272026 -0.0788440203432974 -0.06075087434466921 -0.07846140963831413 0.07051581699143059 -0.06907769231243105
2044375000.0 0.10979986228926551 -0.08921594761602926 -0.0628823095699576 -0.07733266083335141 -0.0630221877192696 -0.07708567777800143 0.06746018897262902 -0.06764853439951338
2045438000.0 0.10807995510042887 -0.08786506110777771 -0.06518389204589893 -0.0758389767875997 -0.06520467375555189 -0.07564272965493393 0.06456849428777503 -0.06675910962269109
2046500000.0 0.10628131711652514 -0.0865537258714485 -0.06733811556880445 -0.07417939245909026 -0.06735887295821397 -0.07411131388444918 0.06214338902125992 -0.06628033592404488
2047562000.0 0.10477852257992275 -0.08522544062020386 -0.06939582384528714 -0.07250271651881736 -0.06953556433372693 -0.07244055093162019 0.06018441089608388 -0.06620072924952689
2048625000.0 0.10292131216950194 -0.08382770884881299 -0.07139038426748373 -0.0708921172465961 -0.07161059728650075 -0.07073737116083822 0.05886854108916345 -0.06623872589851668
2049688000.0 0.10132363172061576 -0.08252050458613666 -0.073384104442123 -0.06897536996057671 -0.07367472836957895 -0.06892421113642384 0.058073170190564384 -0.0661874834221352
2050750000.0 0.09980091576537545 -0.08123619690935574 -0.07524665429999518 -0.06706685149359978 -0.07561172550583266 -0.06711539068514207 0.057972243627936036 -0.06591571548139527
2051812000.0 0.09822806296582436 -0.07992563058995322 -0.07703974151847774 -0.06528695705540705 -0.07752292360310986 -0.0651891297041051 0.05823930848677564 -0.06541158837707396
2052875000.0 0.09667636798319608 -0.07867532220413212 -0.07887649387678976 -0.06335241131591032 -0.0794212593198688 -0.0632402363930066 0.05878223337652448 -0.06438907372851352
2053938000.0 0.09518830316231722 -0.07745968972355166 -0.08064207496738031 -0.06138738631764574 -0.08122342911345411 -0.06128702703316605 0.05967861084666421 -0.06284058723883593
2055000000.0 0.09375067981764462 -0.0763529437870191 -0.0824105227462218 -0.059358218319723426 -0.08295288701980924 -0.05911752407543943 0.060533575630203305 -0.06062805618428838
2056062000.0 0.09225699814713272 -0.07517259401868971 -0.0841062079359059 -0.057310913615445755 -0.08466571553008279 -0.05703726746937202 0.06138009076991453 -0.05788671300370571
2057125000.0 0.09095564708209476 -0.07396368249241078 -0.08589476969096557 -0.055193154387456034 -0.08637082597134904 -0.054852282539937014 0.061865220832876426 -0.054756763916389464
2058188000.0 0.08961753602792767 -0.07273714523835755 -0.08763677639910882 -0.0529892035698878 -0.08803078780890226 -0.05264184388720925 0.06196618332541708 -0.05127024262851627
2059250000.0 0.08829371860946558 -0.07157740642226516 -0.08931507935906137 -0.05071068219341485 -0.08973563979113897 -0.05026961037123136 0.06153771839144438 -0.047498487815223846
2060312000.0 0.08711836215024145 -0.07032550353370318 -0.09100798187042407 -0.04850533088279521 -0.09132160398887941 -0.04795748095028388 0.06066225782454122 -0.043961676253970114
2061375000.0 0.08599622758193587 -0.06918972092661113 -0.09254083240328585 -0.04606089778359445 -0.09292527956674299 -0.045477112825905545 0.05932172979103128 -0.04055112440472005
2062438000.0 0.08492247145461056 -0.06790706051810316 -0.09415594508333468 -0.043566556149227886 -0.09441186407683777 -0.043026158541287066 0.057717154767257625 -0.03761154184920266
2063500000.0 0.08396735136513879 -0.066665958879749 -0.09557921304158874 -0.04111653867697027 -0.0959106614172609 -0.040470749065462386 0.055926211388410745 -0.035247626152859445
2064562000.0 0.08315842654404491 -0.06533141235253852 -0.0968999200925967 -0.03848115375995009 -0.09721782905261982 -0.03787580165775644 0.05429550609892498 -0.03351523642313469
2065625000.0 0.08235339490304665 -0.06408176443256397 -0.09828844824911435 -0.035848534582396265 -0.09846171013141776 -0.03536085687821054 0.05288373799942777 -0.032300837137266995
2066688000.0 0.08167691966776824 -0.06288061745245359 -0.09956673759377409 -0.03324261671587388 -0.09960296213024522 -0.03264857707120873 0.05199419019525837 -0.03160675005608309
2067750000.0 0.08097184694281227 -0.061714929350523494 -0.10061837524395788 -0.030610509303560116 -0.1007065742713055 -0.030026827955438058 0.051679509744822966 -0.03119565225640907
2068812000.0 0.08045590442277355 -0.06037869162989838 -0.10170443001703772 -0.027949777902261774 -0.10162737075822473 -0.02738134864013768 0.05207039892044152 -0.031015625468901964
2069875000.0 0.07978598322264364 -0.059119854952409526 -0.10264344971372392 -0.025137550668614533 -0.10243257267984647 -0.024678340127917715 0.05300849836770724 -0.030656807551612517
2070938000.0 0.07921328719005609 -0.057894729297886596 -0.10353517952856396 -0.022331432204845427 -0.10327114168831106 -0.021969520120683525 0.05467742046905378 -0.030050530037630717
2072000000.0 0.07877420603910598 -0.0565614340625398 -0.10413471548607706 -0.019473149311518095 -0.10397624344541527 -0.019184113554105164 0.05672463449703464 -0.02901282478470723
2073062000.0 0.07819413977261848 -0.055234556361959904 -0.10493167858442473 -0.016504824606916105 -0.10468753516117323 -0.016366210661773104 0.059057721544487726 -0.02741471582550584
2074125000.0 0.07778971341768846 -0.0536685317297875 -0.10553726053128774 -0.013576926243434671 -0.10540475816151736 -0.013494279948396882 0.0615086997268468 -0.025145741667357027
2075188000.0 0.07750886760434524 -0.05223001719497875 -0.10601862405910567 -0.010504027506073552 -0.10609588641246384 -0.010541113599488767 0.06381347760244424 -0.022210841196865123
2076250000.0 0.07720994345678246 -0.05065322406069813 -0.10644743803030186 -0.00749586979960177 -0.106636291668821 -0.007557299148343802 0.0657903791624099 -0.018899037332395854
2077312000.0 0.07702460871893302 -0.049075713920854865 -0.10686341554404502 -0.004495675946129641 -0.1071757296683991 -0.0044843808573692715 0.06721334971366186 -0.015036146747784833
2078375000.0 0.07697912247963769 -0.04744856252806294 -0.10705772782496559 -0.0013275625082820534 -0.10750247573901621 -0.0013506054441249486 0.06832593097727317 -0.011023092282832724
2079438000.0 0.07699450310899149 -0.045817261543996596 -0.10714012993718562 0.001718847386553643 -0.10775612553539726 0.0018194781455443468 0.06882758569599995 -0.006963733850358203
2080500000.0 0.0771343970162964 -0.04418061468166161 -0.10722865568181257 0.004819765535131273 -0.10792558499738295 0.005046881791281237 0.06874632759707644 -0.0030103861903772356
2081562000.0 0.07741015693564912 -0.04254955994642818 -0.10729507048701777 0.007757150709987948 -0.10798402664432585 0.008354104640400813 0.06804179016359058 0.00027570707476187414
2082625000.0 0.07768504417056396 -0.04097377276097787 -0.1073588446755562 0.010845637821371278 -0.1078138580610558 0.011587615232194788 0.0671665875652853 0.003087838935036016
2083688000.0 0.07810073903131512 -0.039313410529879037 -0.10730596882440306 0.013882544300958135 -0.10764564676000252 0.014748114077641001 0.06602312209538172 0.005349915044858435
2084750000.0 0.0785153725409788 -0.037673907906122656 -0.10710783281525263 0.016867099716299384 -0.1073008594828323 0.017880949943531683 0.0649786996674974 0.006612321487255902
2085812000.0 0.0791275200766518 -0.0362704807168507 -0.10692991933162929 0.019860848951057157 -0.10689122145982173 0.02083605343878794 0.06428304639325402 0.007157852140282531
2086875000.0 0.07959897461165137 -0.0345096441687745 -0.10671795037653113 0.02269729193509405 -0.10652535947037914 0.023708351432928654 0.06418213047847622 0.0071852330276938395
2087938000.0 0.08017951535773518 -0.03277289818421307 -0.10647825567151536 0.025592160881089208 -0.10600868376413015 0.026539015131704 0.06471397711836567 0.006816648987889267
2089000000.0 0.08090391782454712 -0.031006970965586664 -0.10605464663759623 0.028514402879898107 -0.10545129806903976 0.029282644513795707 0.06600168277236715 0.006150807794087387
2090062000.0 0.08175437187781892 -0.029173543576585827 -0.1056377266920722 0.031402456934911366 -0.10487473950367156 0.031989553114306304 0.06809666816499828 0.005518945473337775
2091125000.0 0.08255789294249678 -0.02735326064161421 -0.10498648909149559 0.034312883020510415 -0.10426233552380937 0.03468092307410008 0.07072051253001994 0.005293329574186887
2092188000.0 0.08359688744400999 -0.025545030330014644 -0.10424597203972862 0.037451027894776154 -0.10359200618734304 0.037514943701226294 0.07370653578561108 0.005659981141230706
2093250000.0 0.08468688467480608 -0.023659468833929404 -0.10336213038966831 0.040353563249028196 -0.1028271180902006 0.04030253438604633 0.07714400513808914 0.006355672972657339
2094312000.0 0.08593346520012904 -0.0217600699235365 -0.102345749836549 0.04345656110811782 -0.10198592133279501 0.04319757035960089 0.08047807952501224 0.007995173708569144
2095375000.0 0.08723368609321729 -0.019946625540634626 -0.10110700056377836 0.04657688061470982 -0.10097488405493409 0.046247102105483225 0.08355274375235147 0.009975580910843964
2096438000.0 0.08871270995338464 -0.018076577684899852 -0.09977061563656167 0.049517133491241025 -0.09989908951164793 0.0492930369074488 0.08608337459458264 0.01239048582595446
2097500000.0 0.09004755509271344 -0.01633487466640839 -0.09840428777640883 0.05255478242790515 -0.09864001032881263 0.052368399099027664 0.08832721171667197 0.015206392508996129
2098562000.0 0.09146102615246171 -0.014675530840481602 -0.09675087403136538 0.055451634946037165 -0.09724168667994597 0.05551048640737369 0.08964726295648813 0.018186056345834877
2099625000.0 0.09294813698957617 -0.01309891033459146 -0.09515341301254193 0.05833284983236161 -0.09559126828771246 0.05863367949789632 0.09038801355527389 0.021088475719280766
2100688000.0 0.09432062797876797 -0.01142992775918577 -0.09354163019267392 0.06095932458533302 -0.09386381450653032 0.06162385367107154 0.09070916382191872 0.02382217248080058
2101750000.0 0.09573888636696709 -0.009971970562417784 -0.09161412333842567 0.0638703567131619 -0.09204792207467005 0.06454397938785482 0.090423366375167 0.02571172591106861
2102812000.0 0.09721933963133107 -0.00833503459569811 -0.08986223929489479 0.06651449199884116 -0.09004556401353084 0.06745694332378373 0.08964182718624876 0.02690981111991073
2103875000.0 0.09872030168444543 -0.006887281058136245 -0.08803398835551758 0.06918179151388812 -0.08801551739722048 0.07009762871509682 0.08884315783983597 0.027530534097507723
2104938000.0 0.10018659565529937 -0.005513622107406881 -0.0862449497097736 0.0718069876752131 -0.0859046759198245 0.07269150165995031 0.0883262121557065 0.02759996106963581
2106000000.0 0.10175685039125766 -0.004079284979281657 -0.08422452369830193 0.07443255026225606 -0.08392158547780608 0.07525842746286182 0.08813537457484577 0.026683774313733297
2107062000.0 0.10340134790630505 -0.0028346275923821847 -0.082379765292411 0.07710810472570848 -0.08188022227856691 0.07764118884672346 0.08849944698491928 0.025249119857536712
2108125000.0 0.10513846360931821 -0.0016421525221625793 -0.08044631565244792 0.07947649632364123 -0.07989942785485936 0.0799734992199981 0.08961028227631665 0.023593283882400812
2109188000.0 0.10688458438510055 -0.0006201320474438108 -0.07852535047427917 0.08192908206398722 -0.0778637217114008 0.0823286771342044 0.0914698060763709 0.02163469303178478
2110250000.0 0.10860850344675181 0.0004290521872716153 -0.0766032984489238 0.08431832323981756 -0.07594031324174462 0.08453428945055572 0.09394143472399746 0.019999504261877216
2111312000.0 0.11046454649030518 0.0012235914657262941 -0.074539338725903 0.08650672669208065 -0.07391302951650308 0.08677479456660381 0.09749245572543214 0.01841142955606434
2112375000.0 0.11219229722137114 0.0018791918721202865 -0.07235635783567598 0.08884941424064093 -0.07182448081432649 0.0888527388431377 0.1009471688333398 0.01759095843017561
2113438000.0 0.1139551175858804 0.0025842033268290224 -0.0699904118950876 0.0910361420017667 -0.06962761158519967 0.0911056089786458 0.10498764580423722 0.017262557688957538
2114500000.0 0.11571363608681783 0.0030323468902081823 -0.06766800435694281 0.0932343984426765 -0.06732062569349907 0.09325553272054025 0.10893942065821607 0.017908342823362684
2115562000.0 0.11740145352344139 0.003377520683590925 -0.065105938068758 0.09519157638618284 -0.064861206553055 0.09534270606204524 0.11274051887326138 0.01882459737174047
2116625000.0 0.1189785383412345 0.003629785709726878 -0.0624887133489534 0.09713649572778192 -0.06231126708588482 0.09742503381827572 0.11596328944784692 0.0202793746167544
2117688000.0 0.12051405846529577 0.003901867316058878 -0.05975803990392006 0.09917452291751967 -0.05963743550098022 0.09948088356065284 0.11880336075214268 0.021958529199341735
2118750000.0 0.12205606909598571 0.004003948924114283 -0.056958049156553184 0.10103027894915492 -0.05678849330718629 0.1014363298341261 0.12106443859305793 0.023793803940304774
2119812000.0 0.12357045805451893 0.004074824222256538 -0.05411913912675038 0.10285539845665961 -0.05387838851117135 0.10327543524870844 0.12259270514103059 0.02564580315102594
2120875000.0 0.12492801704729488 0.004157717949565687 -0.05116531140765858 0.1046376831080994 -0.05086810063799903 0.10502901293949697 0.12345666610957715 0.02697535967178619
2121938000.0 0.12629103158256721 0.004213056855322187 -0.04807692992409065 0.10645762459673334 -0.04775225622736712 0.10671153693444559 0.12393985932978337 0.02791938370614998
2123000000.0 0.1276555714006045 0.004183972834872936 -0.045152955843372915 0.10791673300632246 -0.04471160624502521 0.10825583622446278 0.12409461205925855 0.028167527735735554
2124062000.0 0.12889700432622808 0.004041440056464585 -0.04211665752936356 0.10938014055747408 -0.04157290883101694 0.10970810379221309 0.12397727941010911 0.0276981190384117
2125125000.0 0.13007569752225875 0.00391717015213325 -0.038946403835911525 0.11082679730243541 -0.03838767464247997 0.11108401056295238 0.12402289123424243 0.026733097011735735
2126188000.0 0.13111634195826233 0.003778894703207444 -0.03581804765039377 0.11210588025960151 -0.03529065288619705 0.11239075975602855 0.12448123637240616 0.025172470854886705
2127250000.0 0.13195743613743882 0.003676803324929316 -0.03259469787638692 0.11336285436612416 -0.03201060278709017 0.11356959029853757 0.12534989047875195 0.023039630562086598
2128312000.0 0.13278341259694146 0.00343982354363766 -0.02924216899095781 0.11463508862685998 -0.02879735669962057 0.11478196213806931 0.12685186575523513 0.020895968597238506
2129375000.0 0.13351322594050824 0.003246590147606033 -0.02602138186210162 0.11567657958235293 -0.025542924381605433 0.1159183768632586 0.12879151059852556 0.018786733730781123
2130438000.0 0.13392645447175272 0.0030032384517514237 -0.022673247034029082 0.11669943239072791 -0.02218595348102266 0.1169587680096081 0.13157889553083665 0.016890613818046518
2131500000.0 0.13425887126629868 0.002707843611998225 -0.019361157965907063 0.1175630340639513 -0.018901436422084132 0.11785595536224387 0.13456421992962145 0.015266520513632911
2132562000.0 0.13443131901434896 0.0025006194094130915 -0.016001377944256465 0.11855225550893517 -0.015523084323941793 0.11864224442790824 0.13788611468141174 0.014376893615890974
2133625000.0 0.13456055015932283 0.0021499001223257166 -0.012598982965074609 0.11920935842885304 -0.012066750221945087 0.11932372266173084 0.14122622993137368 0.013968062596406428
2134688000.0 0.13451724608964072 0.001915172507169978 -0.009105471191754599 0.11997478814144252 -0.008687008633028064 0.11994503969571475 0.14446053882810606 0.014085583707626897
2135750000.0 0.13431919049609975 0.00152480636157477 -0.005682746451807312 0.12036943697855593 -0.005223219705747784 0.12040788823454038 0.14735053840183254 0.014647903597454626
2136812000.0 0.13415588275163462 0.0011606853249072702 -0.0021756233272297986 0.12077807178348444 -0.0016593387943304768 0.12072515763544935 0.1496833300293696 0.01563874573626493
2137875000.0 0.13389328935386663 0.0008664726787851705 0.0014097811265598012 0.12104207656148763 0.0018479087238867029 0.12107629598867964 0.1515124745327801 0.016717247630975336
2138938000.0 0.1333615174510978 0.0004444784850750677 0.005011490868654284 0.12124070245285756 0.005492338307371087 0.1213166883332373 0.15272786585926612 0.017792687265024948
2140000000.0 0.13289991041710034 0.00016648229209111792 0.008613549809993864 0.12120349061532022 0.00900919280936922 0.1214555819162681 0.15317337790482707 0.01878180160289698
2141062000.0 0.13235237319097046 -0.00015424970727087692 0.01219626038269977 0.12116748022551077 0.012586480766106056 0.12140955051177227 0.15314448965397912 0.019288920954636402
2142125000.0 0.13197698321712745 -0.0003746929510035432 0.015731086538169976 0.12108471456561594 0.0162755384280712 0.12142455610285859 0.15263390871785684 0.019217913825175188
2143188000.0 0.13139011994981395 -0.0006033769754824484 0.01944087280296821 0.12086061645611025 0.020004547509269728 0.1211919549233915 0.15196831100191066 0.018597899040751032
2144250000.0 0.1308340839057135 -0.0008707808287306605 0.02308592528568424 0.12061381431952292 0.023656515795477437 0.12073678305418599 0.1512522833802799 0.017284647149210453
2145312000.0 0.1303872342456834 -0.000829378400658211 0.026709769634809637 0.12014184011962813 0.027406517029378182 0.12029180010602163 0.1507882108252194 0.01551590175200069
2146375000.0 0.12998796780779473 -0.0009043566722329513 0.03033153672690936 0.11969957326865904 0.03105790090155345 0.11962120598335782 0.1507958057055626 0.013291978864721108
2147438000.0 0.1297415164402737 -0.0009242782285146372 0.03386570586113653 0.11915227597003579 0.03477698956025369 0.11892678952306499 0.1511543309213618 0.010867718124806447
2148500000.0 0.12953372411358643 -0.0008004716260814411 0.03757368333818648 0.11839929222838254 0.038437402722835634 0.11805728387884803 0.15215596270715215 0.008411939243442615
2149562000.0 0.12928377582343684 -0.0007105946770664298 0.04117980563968433 0.11754544782898695 0.04198491359621925 0.11711056988237122 0.15377866826678294 0.0062750639381641965
2150625000.0 0.12912027689128736 -0.0006724993846276816 0.044798839708950995 0.11669812314152105 0.04550251569235194 0.11602578905741823 0.15568588513111278 0.004439023264932881
2151688000.0 0.12896552428454303 -0.000415275821743467 0.04838625357709527 0.11555764200536353 0.04891668468077866 0.11491277245473576 0.15788250601948775 0.0031714233608544267
2152750000.0 0.12886347834359013 -0.00037773673180108494 0.05221351211050268 0.11430279947514196 0.05239318381601819 0.11375424767890373 0.1599728523654971 0.0024467706146794515
2153812000.0 0.12870097172807787 0.00013131840167365086 0.055840271507031074 0.1129658520986893 0.055827982487110496 0.11236242747809792 0.16200368630019146 0.002304001844957262
2154875000.0 0.12870319205646413 0.0005063312228753111 0.05961229918496946 0.11131841174228183 0.05938423310595383 0.1109827505081622 0.16358004231372034 0.00252987735608138
2155938000.0 0.12876649748406818 0.001203355178569407 0.0631773883220939 0.10955017258390735 0.06294659649662575 0.10955652312474853 0.16470417475381846 0.0032032413344833532
2157000000.0 0.12883146349426772 0.0018348885864617592 0.06665355907265115 0.10770249788353833 0.06647586522896541 0.10789237058067316 0.16525324167877417 0.0038327634949028933
2158062000.0 0.1291100304599985 0.002571015205670916 0.07016873471225762 0.1055912466031304 0.07005018568955775 0.1060323843045969 0.1650561892929905 0.004364325841706245
2159125000.0 0.12932989123603927 0.003455331978999746 0.07352670397808043 0.10349018565438414 0.0735580165163036 0.10411036846277497 0.16432691040136688 0.004858999652171959
2160188000.0 0.1296983749138606 0.004335667806328536 0.07672014231292715 0.10120735369105444 0.07713862656726952 0.1018123479868292 0.16290747987945917 0.004898813523133568
2161250000.0 0.13028803163568392 0.005226407859964665 0.07979639653482845 0.09880464643455668 0.08058472632400004 0.0993431323433916 0.16119761093080914 0.00463554253846735
2162312000.0 0.13085961036565885 0.006062285480702948 0.08272155027438546 0.09632913030479456 0.08390367723838414 0.09678870295992335 0.1591461483822862 0.003378146232502172
2163375000.0 0.13156138102676154 0.006844298547444617 0.08571767524632123 0.09398183515563453 0.08698866400652604 0.09399881365009753 0.15758991204762351 0.0018578240165842686
2164438000.0 0.13244883957543407 0.0075229125976097105 0.08842849751120825 0.09140205874786844 0.08988021900888103 0.09122060406875784 0.1559168048171607 5.37598258011426e-05
2165500000.0 0.13319079669021597 0.008207988983564903 0.09122976128845182 0.0888695358319462 0.09256876938431459 0.08823000020057682 0.15480271382302171 -0.002559363888992967
2166562000.0 0.134069441617137 0.00870383111544127 0.09392243171790318 0.08615390971945917 0.09508635884015963 0.08528818823917328 0.15435746017865887 -0.005363584859223991
2167625000.0 0.13498392003483597 0.009198036017146879 0.09660114247770281 0.08348283230281511 0.09746869876831141 0.08233746232750362 0.15447476423573359 -0.007972045351876447
2168688000.0 0.13598398974488773 0.009660693342810682 0.09926797415812755 0.08077313399466104 0.09982445930685452 0.07960578258438855 0.15527941150072727 -0.010392474373821294
2169750000.0 0.1370359965766126 0.010046233729333883 0.10190587204311961 0.0779942073381121 0.1020306965484101 0.07673507046591087 0.15673812766337084 -0.012584321960002573
2170812000.0 0.13823529059291495 0.0104665419064848 0.10442839627236099 0.07516633856046182 0.10419057601141946 0.07400373348077562 0.1586807821621541 -0.013949236727762574
2171875000.0 0.13942056436460215 0.010771503560033988 0.10698722905647602 0.07218063386472712 0.10645985781483266 0.07110377124065292 0.16092604694298196 -0.014658978895365838
2172938000.0 0.1407715501821961 0.01130230661894421 0.10945833058122156 0.06895237336723106 0.10879799794040344 0.06829474122306724 0.16309525203999106 -0.014916636458155223
2174000000.0 0.14227369305867762 0.011574964580908984 0.11177320162366004 0.06561344966872189 0.11110777052806234 0.06531848942020833 0.16519383997922657 -0.014569614904620722
2175062000.0 0.14405874672352784 0.012052176412014655 0.11402067730443276 0.062125872003358666 0.11354207515392085 0.062151165640624895 0.16653555474185197 -0.013674356957139002
2176125000.0 0.1459800414390314 0.012311343927131894 0.1160193951903184 0.05840266471652679 0.11590798580738311 0.05868577820285001 0.16736196710259 -0.01256344510157985
2177188000.0 0.14796485375421312 0.012582742945559148 0.11809176398885685 0.05458728086690544 0.11821059281087228 0.0550457453030542 0.16773384940750893 -0.011372310719232543
2178250000.0 0.15004328902626707 0.012633069902041187 0.11988773162365698 0.0508531955322763 0.12023986338262706 0.05116709751490923 0.16752501429498792 -0.010546181942014874
2179312000.0 0.15216954679566408 0.012515836379418757 0.12148199478757464 0.046902376466050444 0.12213187242707917 0.047192716843281864 0.1667242050391914 -0.009947670274282514
2180375000.0 0.15427472997429872 0.012390432623858706 0.12279091421483217 0.04305724275244938 0.12374445040016092 0.04312297543700441 0.16538987011867515 -0.00987062958484515
2181438000.0 0.15645121862813652 0.012094692763828577 0.12405876020406521 0.039087281401594474 0.12503111700313674 0.038919595288723276 0.16383610185289194 -0.010343003916087085
2182500000.0 0.15853938100785397 0.011900440452499234 0.12512770464569 0.035290101980744504 0.12606777961802984 0.03473835147431981 0.16222841092536724 -0.011435859161065976
2183562000.0 0.16063283788934155 0.011511895235308121 0.12617048501861589 0.03145582062729712 0.1268563900568738 0.03062700287128365 0.16093835287780167 -0.013133069093179219
2184625000.0 0.16265920850601048 0.01133735321944505 0.126875640587604 0.02770506521039298 0.1274892077571465 0.026665500535928758 0.16039578164835464 -0.015030471877595044
2185688000.0 0.16474667395132692 0.011060521354593199 0.12763611131547128 0.023905775083462748 0.1279908590785489 0.022895217494424216 0.1603391032917249 -0.017280950617945587
2186750000.0 0.16680383469799387 0.010879577065871641 0.1282604005004253 0.020268804535965173 0.1284344714555275 0.019126724886321365 0.16088209494338723 -0.01955047623894422
2187812000.0 0.1688768350381946 0.010821019871777105 0.12871487467856407 0.0164302607875693 0.12883971418312265 0.015534695714167338 0.16233769568831186 -0.021462384310458913
2188875000.0 0.1708931745583009 0.010712528969095466 0.12931680060186398 0.0126805336430688 0.12914765296368955 0.011975067250837135 0.16448174580791744 -0.022977258309467865
2189938000.0 0.1730533370564587 0.010681131615254308 0.1298337518624455 0.008938274309205178 0.1297519955349859 0.00833160334526763 0.1673088674268195 -0.023941376339179903
2191000000.0 0.17514718280019642 0.010326667097559422 0.13023813145906515 0.0051018848395092894 0.1302006757187357 0.004732465742872504 0.1702395685548925 -0.024354354142980206
2192062000.0 0.17743568181818914 0.010175032808279501 0.13064707199566902 0.0012998475117882021 0.1307012620087092 0.0009586150277272199 0.17353358233111996 -0.023814893319658584
2193125000.0 0.17961415839214714 0.009777286213097277 0.13098018358419444 -0.0025920807209514145 0.13113150672329155 -0.002943428784495515 0.17648886995165572 -0.02258324450709707
2194188000.0 0.18173027887096582 0.00941284800691034 0.13123683114602988 -0.006563132762763541 0.13129103351074653 -0.0069735369425825595 0.17927052556224424 -0.020916192110487307
2195250000.0 0.18389765275139558 0.008834913824770885 0.131184558123044 -0.01061554726350556 0.13135842998218367 -0.011174844759081246 0.1813699157408327 -0.018988849120753295
2196312000.0 0.1857806368453937 0.008283776872989559 0.13106842445933475 -0.014827525144815903 0.13124693390532172 -0.015475256915310915 0.18266163707603633 -0.016746061131002028
2197375000.0 0.18762845194513642 0.007822025375652533 0.1307790496319148 -0.01900479631039372 0.13088040483089 -0.019754333891357223 0.18328702649508677 -0.01465680777012521
2198438000.0 0.18954445320549088 0.007168579434257724 0.13028872233063016 -0.023015173740402236 0.13026074454740827 -0.023981206320283503 0.18318140083660314 -0.012966613190361858
2199500000.0 0.1913409798572457 0.006703229053081665 0.12959695854733908 -0.027265448814641532 0.12951412527757253 -0.02816439831588097 0.18251123878658843 -0.011700104858820745
2200562000.0 0.19306010394423004 0.006426126198629521 0.1288092001364444 -0.03143664832674554 0.12854318735355072 -0.03221769615884218 0.18162429231812352 -0.01115094594783162
2201625000.0 0.19482542104875558 0.006040383269397403 0.12792465428807379 -0.03553562693940174 0.12749608421729489 -0.03614683703366086 0.18055175821401864 -0.011330598891986001
2202688000.0 0.19654609957689415 0.00582218800382498 0.1268103675834272 -0.03953222119724192 0.126220370808008 -0.03992791932978775 0.1797408661586839 -0.01200655605878078
2203750000.0 0.19835614841925714 0.005736892230131384 0.1255033477965551 -0.04350988363044672 0.1250374017517704 -0.043573710010630665 0.1791445705509136 -0.01348599254249997
2204812000.0 0.20023820500908876 0.005538350262909497 0.12418184166806827 -0.0472310092276528 0.12374043171713349 -0.04729616421575203 0.1792822300573005 -0.01536546258843645
2205875000.0 0.20228336019487153 0.0053908910471262075 0.12258401193120212 -0.0509661989067248 0.12235907410072888 -0.050903888653188956 0.18007592518891713 -0.017399663156504066
2206938000.0 0.20414657175672107 0.0052045960576962945 0.12081260346414896 -0.05470305311872164 0.12096099104260558 -0.05452469344728741 0.18178096921323475 -0.019345099386663105
2208000000.0 0.20612788511954283 0.004929089102766844 0.11916256355319593 -0.05828418445854152 0.11956543229777516 -0.05818366801013767 0.18429132010341642 -0.021082942333562688
2209062000.0 0.20810296659323366 0.004617882981433903 0.11743889415465798 -0.061694661697938864 0.11792869675148306 -0.0618923205583939 0.18731645595289773 -0.02242036904548094
2210125000.0 0.21004501308928566 0.004343440795576533 0.11547745473295634 -0.0652089095470373 0.1161684243948394 -0.06565592179740158 0.19089315890207803 -0.023098339149101237
2211188000.0 0.2118138297678636 0.004007565339187231 0.11350053720003617 -0.06856577992184401 0.1142155941433332 -0.06941275128572062 0.19472009235125134 -0.023126376538257196
2212250000.0 0.21365413773921715 0.003724134897859328 0.11144234479925023 -0.0719826898420465 0.11195525284451313 -0.07305006336754613 0.1982985348777946 -0.022316955113586105
2213312000.0 0.21543991839676307 0.003421633674396724 0.10932692403363342 -0.0752286057220485 0.10960330965830292 -0.07669284155979232 0.20154126569962402 -0.021008118857801135
2214375000.0 0.2172373891026552 0.003273525861883728 0.10709961335991766 -0.07860303326779727 0.10697475868591234 -0.08008278798679366 0.2040753309098659 -0.019339741262091585
2215438000.0 0.2190528368980627 0.00301792309208881 0.1047177058677992 -0.08198898801981022 0.10428207612531398 -0.08345518074418667 0.20590579025896946 -0.0174546923518243
2216500000.0 0.22075215109215263 0.002877565022830959 0.10226509749201015 -0.08533017592749133 0.1014765389084834 -0.08663732686862798 0.20689256288703675 -0.01573997356129017
2217562000.0 0.22271763338090156 0.0027163991135518836 0.09968979794373051 -0.08875021892222847 0.09861129767177002 -0.08975458872745753 0.20708096022421027 -0.014294313490281318
2218625000.0 0.2245354957022192 0.0025770530640213986 0.09684912211296814 -0.09183754539160736 0.09579164006876736 -0.09258387708190485 0.20649244543908843 -0.013268915043996962
2219688000.0 0.22648956372701887 0.0023617408210703365 0.09404621984719366 -0.09512198239832403 0.09287732986191317 -0.09549560115973824 0.20563125085219958 -0.01310481301528494
2220750000.0 0.22860902755547222 0.0020229731174915056 0.09109732565205574 -0.09828031539739182 0.09007480035974867 -0.09832742829557521 0.2043803181802788 -0.013751216916195607
2221812000.0 0.230658184548237 0.0016249786047911289 0.08808255256210296 -0.10116589064173932 0.08715176884962182 -0.10105908872576139 0.20333391139958656 -0.015123271544227814
2222875000.0 0.23275856468626016 0.0010684055269165975 0.0849807956041638 -0.10393680341299102 0.08428369921416823 -0.10368784284629903 0.20242986958074408 -0.01747068679895999
2223938000.0 0.23508583808383532 0.0004923490203929431 0.08155099456264904 -0.10675787826419271 0.08130213044168186 -0.10638546444262482 0.20221946817698971 -0.02015401363921571
2225000000.0 0.23707627568469763 -0.0002815928896199709 0.07822846094528028 -0.10928500294193184 0.07817793760631594 -0.10896434666078865 0.2028814046633098 -0.023524656433024618
2226062000.0 0.2393047052995746 -0.0011072229113232958 0.07477291156273821 -0.1116895036734936 0.07487544463044256 -0.11163934132729961 0.20421846162151394 -0.027235287970304254
2227125000.0 0.24147835754352123 -0.0020130268193564262 0.07125384781160525 -0.11399999162130821 0.07151368875185023 -0.1140742074351657 0.20666628745435947 -0.030497005214860873
2228188000.0 0.24369232970205107 -0.0030686079661870853 0.06772823011080693 -0.11608607404093935 0.06791917926231551 -0.11652078902513295 0.20984379523247224 -0.03374157311686303
2229250000.0 0.24583439070472812 -0.004078962788441111 0.06390721299324728 -0.11808674959585871 0.06423690247978993 -0.11868730078698274 0.21359028935492416 -0.03625243186396013
2230312000.0 0.24815301813480803 -0.005201119831104725 0.060285616755111966 -0.11989288818691844 0.06039670154767541 -0.12069375559991177 0.21804842924935763 -0.038210289123502876
2231375000.0 0.25025484694848205 -0.006459239827666019 0.05656725083569617 -0.12155232876935249 0.05641863843039208 -0.12246486695271971 0.22210566309937438 -0.03927331889263359
2232438000.0 0.25260458912286027 -0.007751099468067827 0.052908148713521785 -0.12314273960568033 0.05243707573874042 -0.12404952307909373 0.22637208525038735 -0.03978763192166558
2233500000.0 0.254942662779867 -0.009148208636912786 0.049128999696533074 -0.12459875718041917 0.04841387145374068 -0.125430208820969 0.22987622113618442 -0.039798623757747835
2234562000.0 0.257325718109082 -0.01060939331205484 0.0451163526177154 -0.12596749559975182 0.04435382760078404 -0.12657482459191424 0.2326214632930227 -0.039295020683543
2235625000.0 0.25965745153762493 -0.012238667287144877 0.04103736425766241 -0.12712334931747793 0.04030297846107966 -0.1276050772544088 0.23446919578113407 -0.03872151556759418
2236688000.0 0.2620567820497476 -0.01401433546611026 0.03715056334683984 -0.12807907903003396 0.03617966191853964 -0.12853272270680952 0.23558274066048043 -0.038317371257452784
2237750000.0 0.26428456802964806 -0.015865680996106187 0.03290801913164871 -0.12921703069040713 0.0320481327141804 -0.12942310734414916 0.2352434850113066 -0.03825376484549051
2238812000.0 0.26653436181601176 -0.017953030018025753 0.02881531344214774 -0.12988340725739833 0.027869259156457497 -0.13003144510881906 0.23467260897214282 -0.03908691568675856
2239875000.0 0.26874109768979393 -0.01996740272443193 0.024534234695514006 -0.13059123085598656 0.023768187924578448 -0.13062379118571718 0.2336575101884972 -0.040579046898503175
2240938000.0 0.2708494913662273 -0.022226783445774403 0.020273214590129027 -0.131189338615359 0.01964623514687047 -0.1311794790511924 0.23192817610965463 -0.043044521982020356
2242000000.0 0.27290887236704753 -0.024559960611657883 0.016090484214525407 -0.13153893889355214 0.015465685734983492 -0.1316787522997825 0.2305878234242756 -0.046180996157492084
2243062000.0 0.274851065855812 -0.02717675026712595 0.011756689272521924 -0.13195681891641697 0.011285520186246404 -0.13186180522351573 0.22973500739864275 -0.05061476603347193
2244125000.0 0.2769155494094419 -0.029754494665181055 0.007514057474971699 -0.1320808629625042 0.007030508351821267 -0.13224056317022562 0.22959152570340344 -0.05513536164600453
2245188000.0 0.2786947469301959 -0.032513418454132484 0.0032433094546158955 -0.13222585060573164 0.0029476450402107436 -0.13220829769333295 0.22987845218820455 -0.06048787573595768
2246250000.0 0.2804267378071649 -0.035314956577247335 -0.0008109338532438112 -0.13215677657269292 -0.001215604823880051 -0.13218462056206173 0.23142958552378495 -0.06570558682911838
2247312000.0 0.2821670810039552 -0.03829069538194177 -0.004913592211230623 -0.1318871232835978 -0.005426811608921783 -0.1319338655570526 0.2339212000434191 -0.07064313634466528
2248375000.0 0.28387391177919924 -0.04156984269625261 -0.009108242547305809 -0.13156094963887477 -0.009505978326544942 -0.13165018649871937 0.23696856395743393 -0.07506812099252622
2249438000.0 0.2852605540555812 -0.04453656071595338 -0.013243185641370473 -0.13108862970056756 -0.013687224835729367 -0.13119402505859862 0.24078275864414284 -0.07912871822990158
2250500000.0 0.28672011997215496 -0.04777287861906059 -0.01728264911338169 -0.13058690345293622 -0.017769313081138362 -0.13073356460722255 0.24510373895902193 -0.08204804548234945
2251562000.0 0.28810297192108913 -0.051260893705438855 -0.021385928601443453 -0.12988520943989817 -0.02189784351107479 -0.13002336586657082 0.24921001162501408 -0.08440863202087207
2252625000.0 0.2893785677214169 -0.05464797478101823 -0.025259576273464607 -0.12917235941224287 -0.025851864568349786 -0.12924660473415753 0.25323546499119576 -0.08567139591511577
2253688000.0 0.2905015668603735 -0.058254852621943756 -0.029390971975490978 -0.12812827681152264 -0.02996202958374319 -0.12836955265970593 0.25632391483272166 -0.08629667010805481
2254750000.0 0.2916623043542774 -0.0619850321188587 -0.033175135148580934 -0.12715176624836105 -0.03388706076092063 -0.12719509664576434 0.2591378507422675 -0.08663550621674672
2255812000.0 0.2927104745273527 -0.06578918106986173 -0.037167698815528324 -0.12595313729866747 -0.03778581887101544 -0.12590104791174198 0.2610197553958512 -0.086414997986501
2256875000.0 0.29384153826868714 -0.06962192396096437 -0.041054907470172576 -0.12459060097332048 -0.041628363548209764 -0.1244558497143276 0.2619127997754325 -0.08626476649499158
2257938000.0 0.29482915591775094 -0.07356119273291299 -0.04466196568890897 -0.12307586366558042 -0.045379235701474174 -0.12286105503063717 0.26188978916174716 -0.08681937914759971
2259000000.0 0.29567073966442753 -0.07756133211870271 -0.04851947888956301 -0.12145494736212907 -0.04900257412435517 -0.12101473993934704 0.2614496093724809 -0.0879357862678191
2260062000.0 0.29654196351537737 -0.08180057582091688 -0.05218588053342822 -0.11962242004191846 -0.05255407321427507 -0.11909117205716523 0.2602075928266042 -0.08973282748977669
2261125000.0 0.2972300367695204 -0.08595130705393604 -0.05566584856402442 -0.1174605360867714 -0.056076513678491986 -0.1170601740812133 0.2587127655755269 -0.09240140172132058
2262188000.0 0.29787616006531864 -0.09017423765077484 -0.05918423993953686 -0.11534975846438844 -0.05941586195341369 -0.11500549049608388 0.257444504818684 -0.09563073013137978
2263250000.0 0.2982906183662445 -0.09439333306174601 -0.06263692064663326 -0.11310469946824982 -0.0627432908113504 -0.11284163198733978 0.2563712163010221 -0.09966861395526083
2264312000.0 0.2988959871927078 -0.09859251142506022 -0.06586305984158411 -0.11074318951412829 -0.06595408791354303 -0.11067796701898036 0.2558047006483655 -0.10419944522534653
2265375000.0 0.2992239985480352 -0.10250651366491977 -0.06890061209421842 -0.1083247353997679 -0.06908252257301446 -0.10841694996780923 0.255727575670916 -0.10912517899543023
2266438000.0 0.2995448264769277 -0.10664028363116869 -0.07187985615641769 -0.10595630912233697 -0.07216871361062295 -0.10614913182928377 0.2564265454520913 -0.11392002977855474
2267500000.0 0.29970027607202393 -0.11058161121215343 -0.0747827347648809 -0.10340409230894562 -0.07513556919491998 -0.1037731435306409 0.2575932453161308 -0.11853924817619473
2268562000.0 0.29996119731227244 -0.11449695886975876 -0.07752876411124178 -0.1007427895205267 -0.07818262138249599 -0.10124693548926458 0.25925626426309506 -0.12284774971606356
2269625000.0 0.3001300775711468 -0.11847920567942397 -0.08037320714423236 -0.09829634921417789 -0.08119200481250165 -0.09863969043597573 0.2614093008721598 -0.1263501208160134
2270688000.0 0.3002683223005299 -0.1222347798643769 -0.0830195908430884 -0.09574992768527738 -0.08411353091184534 -0.09592510468211041 0.2635839569309136 -0.1290384022280785
2271750000.0 0.3002903891230048 -0.12602918693095408 -0.08565899474570585 -0.09318489672664002 -0.08691958229857538 -0.09297388151943008 0.2656884129388311 -0.1311729178116325
2272812000.0 0.3001716729194362 -0.1298688290557989 -0.08837910364220247 -0.09055947765075663 -0.08961876970128435 -0.09003907691900494 0.2674054307185323 -0.132437845283594
2273875000.0 0.29997102859049746 -0.1335236621485925 -0.09093398851225314 -0.08786641044958912 -0.09215350383320715 -0.08704972574491754 0.26860476252835397 -0.13324261833513326
2274938000.0 0.29971388121995507 -0.1372323751944854 -0.09346302927062633 -0.0850752601502453 -0.09448614358430876 -0.0840064706505385 0.2689996697337955 -0.133824639397624
2276000000.0 0.2993232582091753 -0.14083854766094883 -0.09590120152176572 -0.08222875183849762 -0.09667858048560128 -0.0809308185011491 0.2684229094640598 -0.1343042975417918
2277062000.0 0.2989331638159068 -0.14439754367218147 -0.09829538634837325 -0.07914671504252106 -0.0987794102763072 -0.07791339323011744 0.2672062980125001 -0.13504142593211915
2278125000.0 0.29835327342329654 -0.14786191408506827 -0.10070950908641935 -0.07609992016090832 -0.10054585557878058 -0.07487315614857427 0.2652655173174596 -0.1362940710032301
2279188000.0 0.29768681247769974 -0.1512020586569063 -0.10277073486634969 -0.0727033526222846 -0.10241364920181958 -0.07177782139903262 0.26273910088584534 -0.13816086514355932
2280250000.0 0.2970824288806063 -0.15440129791695814 -0.10482202161039571 -0.06947720894953108 -0.10420173562859439 -0.06886759109486391 0.260099032141818 -0.14085419419911352
2281312000.0 0.2964536823868852 -0.15763352560805938 -0.1067002399818657 -0.06610023508056909 -0.10594888349086735 -0.06581877603429484 0.2577146758272672 -0.14427519723464013
2282375000.0 0.29575060450726653 -0.16072198643553848 -0.10837775239659933 -0.06250437341519414 -0.10767085225798301 -0.0627078382894101 0.25542055049202733 -0.1481707650640343
2283438000.0 0.2948691575052525 -0.16367691062174458 -0.10982237883226732 -0.059070817109369074 -0.10935652670040297 -0.05952913984096054 0.2538641278279861 -0.1526860931033343
2284500000.0 0.2942771841242544 -0.16684166776224466 -0.11118653597532388 -0.05560661809597538 -0.1110646547413927 -0.056331377495461556 0.25272370511811654 -0.1573724453541458
2285562000.0 0.29358965069024096 -0.16970294701529315 -0.11227976066167547 -0.05203982355130084 -0.11267126619030694 -0.05282448940934038 0.25215807265034135 -0.16206585409263943
2286625000.0 0.2930383130652289 -0.17262941988006655 -0.11327234196487221 -0.048725760026313715 -0.11408516650295678 -0.04936455266806226 0.25217260469988834 -0.16652942843472765
2287688000.0 0.29241477914529607 -0.17560642005641197 -0.11408395034835911 -0.0453957438896654 -0.11528099088613591 -0.0457260604700338 0.2527176196373768 -0.17072500988042963
2288750000.0 0.29175311767040923 -0.1784472673081724 -0.1147942388372427 -0.04203458205264173 -0.11633366877627452 -0.04211046070098154 0.25353161964647014 -0.1741557298663541
2289812000.0 0.2912153982314292 -0.1812681422921998 -0.11570786936531953 -0.038776224356913774 -0.11723159618840427 -0.03839811633450817 0.25489190811537743 -0.1772137578876776
2290875000.0 0.29053392643726667 -0.1840096231558016 -0.11646485777433647 -0.035484200934876295 -0.11785738797569838 -0.03472471453934828 0.25582000379935993 -0.1794313592992502
2291938000.0 0.28996652674371015 -0.1867927719576541 -0.11718606833163057 -0.03233137269698143 -0.11839165615006997 -0.031196506502878373 0.256520401628495 -0.1811488181922001
2293000000.0 0.28932366603773013 -0.18948173593441578 -0.11801563732728056 -0.029282748742735253 -0.11882456366260667 -0.0277512892367553 0.2569399984895794 -0.18221122991438726
2294062000.0 0.28873780903113805 -0.19184972125445085 -0.11880161946918245 -0.025904930409739166 -0.11917536203843138 -0.024275229183732844 0.2565018361870326 -0.18309296161759042
2295125000.0 0.28813901328893193 -0.19416415979244364 -0.11954645373957741 -0.022695580363112578 -0.11945389985253206 -0.021139528863223237 0.25542431087837564 -0.18389413431653603
2296188000.0 0.2875139151843304 -0.19636363827820652 -0.11998438717280531 -0.019409103772834575 -0.11975340442747226 -0.01798726677220684 0.2537042182664387 -0.18462632223672387
2297250000.0 0.2870310681644124 -0.19856140139652945 -0.12067816865936964 -0.015901823027887063 -0.12012540192916013 -0.014814623876621415 0.2511843377924287 -0.186224353970477
2298312000.0 0.28642755798064556 -0.20063113308452235 -0.12117180487952987 -0.012323706687793392 -0.12048087234531789 -0.011553128202778077 0.24840778665782115 -0.18796187784099383
2299375000.0 0.2859688667451244 -0.20268480515628914 -0.12146867034191189 -0.00880775091088039 -0.12085651447575196 -0.008401677170252605 0.24556196604536978 -0.19056093580066913
2300438000.0 0.2855197412372071 -0.20477833006015467 -0.12150896024606742 -0.005276488746788915 -0.1211367154630881 -0.004932901806899224 0.2425882928184367 -0.1937742252330016
2301500000.0 0.2852478893994251 -0.2068008176211069 -0.1214906820362877 -0.0014930420810370458 -0.12128252690083381 -0.0014663632263479025 0.23987738774732542 -0.19802749654765114
2302562000.0 0.28490248943375535 -0.20886215655129456 -0.12150427108475872 0.0022602925852322465 -0.12137212184467715 0.002159549978397048 0.23790707267818983 -0.2024108946061525
2303625000.0 0.28439438570821407 -0.21083979468218034 -0.1212158735893096 0.005838315853335633 -0.12128399894848958 0.005817570790835404 0.23649099353051642 -0.20703695495372315
2304688000.0 0.2839998715313459 -0.21296607187781202 -0.12065712206418394 0.00951854030769728 -0.12089886936819369 0.0095885147046293 0.23581822033739405 -0.21159917312034776
2305750000.0 0.28352543525966983 -0.21482692361797162 -0.12011706617913621 0.013027457830943062 -0.12038048478862858 0.013325744047317673 0.23579842029084486 -0.21614062152058663
2306812000.0 0.2831054873797392 -0.21695698237081798 -0.11935123864757613 0.016632444239455337 -0.1195933666849552 0.01698475165560379 0.23650286086447814 -0.21998615940262106
2307875000.0 0.2826332682225445 -0.21883230059861858 -0.11848683706277623 0.019911881336598214 -0.11874531376361583 0.020554597962011478 0.2375485992566751 -0.22329199857030324
2308938000.0 0.28202508567595186 -0.22074306269026964 -0.11759216251300653 0.023313860120505986 -0.11772289689438051 0.024021344838041303 0.2387633766959059 -0.2258125816697869
2310000000.0 0.28141570672076877 -0.2227238621301905 -0.11651369076533016 0.026497790326855616 -0.11654796675176883 0.027240753747820517 0.23987699544058466 -0.2274476190622657
2311062000.0 0.2807854758588786 -0.22460297943609464 -0.11548550709021847 0.02982577168622555 -0.11550230958205703 0.030521584476925424 0.24068403625811854 -0.228771018393119
2312125000.0 0.2801736075978161 -0.22644078281086602 -0.11439061306890526 0.03309272338715318 -0.11441793064096786 0.033629690693406496 0.24115481953677648 -0.22940097115765418
2313188000.0 0.27949102115112834 -0.2284750563054082 -0.11327190019352033 0.036274157483662854 -0.11327679796512521 0.03676340458979766 0.24094609921792912 -0.22950450837755113
2314250000.0 0.2789370092498675 -0.2302222113609791 -0.1121876191653987 0.03937214100256671 -0.11217799456254707 0.03977499120122463 0.24001610859280267 -0.22963694089169287
2315312000.0 0.278230471311053 -0.2321493331739145 -0.11100580810503398 0.04245958364186574 -0.11109408122481954 0.04286543452203004 0.2384871754155033 -0.22987440338884335
2316375000.0 0.27760206116763275 -0.23417927434273722 -0.10989288192157085 0.04542170244090687 -0.11000546177239094 0.04593460509677586 0.23625964187367296 -0.23055980170082477
2317438000.0 0.27695684874617854 -0.23626615223643063 -0.10866326778541426 0.04845131388521769 -0.10881429368262867 0.04910182478759714 0.23375440793949762 -0.23148263698153565
2318500000.0 0.27636208418409436 -0.23820756661820916 -0.10726310783784923 0.0515246501424614 -0.1074666591081174 0.05217186732865279 0.23094240390637813 -0.23338015711163015
2319562000.0 0.2756205986595118 -0.2404208109036444 -0.10586001100270957 0.05452439634857845 -0.10594347270073376 0.05535979019374881 0.22791388453508485 -0.2357906504640938
2320625000.0 0.27468986774592996 -0.24251376646539508 -0.10424566351015824 0.057403574907239026 -0.10423572762825592 0.058403864625916416 0.22526885858219872 -0.23896459386762148
2321688000.0 0.27382945894888067 -0.2446710130119095 -0.10258378541064475 0.0604263405455757 -0.102433823916655 0.06145006914633551 0.2231917493982017 -0.24254151944929228
2322750000.0 0.27289265458342554 -0.24688615370923828 -0.10094090824130618 0.06329869527525983 -0.10050894665970232 0.06435790603855106 0.22170723173179213 -0.24657175210095034
2323812000.0 0.27175663014245144 -0.24893533553495575 -0.09896197119867309 0.06625413962462941 -0.09836838717582339 0.06715920898058436 0.22088800374996795 -0.25056391601068284
2324875000.0 0.2706769468033517 -0.25120615802555807 -0.09705961786973258 0.06909280944000808 -0.09626698477518769 0.06979814783633863 0.22100761288259005 -0.25424588201519865
2325938000.0 0.2695745420752592 -0.2532502094684925 -0.09498894578604826 0.07186825767797811 -0.09399329422433757 0.0722912883322625 0.2214327897526731 -0.25748196508890986
2327000000.0 0.26832351871743565 -0.2555153870647817 -0.0925672227187362 0.07453620868413242 -0.09175730112482934 0.07481399936946954 0.22241526901957637 -0.26000095450175714
2328062000.0 0.26708338407756 -0.25772257660496667 -0.09018506992916864 0.077149952896641 -0.08950565084317827 0.07724319681741819 0.2232327607965567 -0.2617940435316052
2329125000.0 0.2658298775111791 -0.2598505656826264 -0.087691362438594 0.07968780927336545 -0.08713503085301584 0.07958813690785504 0.22403736081791664 -0.26286688801734237
2330188000.0 0.26449108281153794 -0.26210757903293286 -0.08510890082693812 0.08212562159155197 -0.0847595156449285 0.08199129572564674 0.22448703341587775 -0.26326189986663023
2331250000.0 0.26320342268987906 -0.2643657023447171 -0.08248750619264024 0.08461051261886116 -0.08231320009500684 0.0843768768855156 0.2242943761582721 -0.26314321581018485
2332312000.0 0.26198491577708144 -0.2667515902033158 -0.07973905265559676 0.08696535106509834 -0.07983565172959035 0.08683601787847411 0.2233545564547575 -0.2626995799276588
2333375000.0 0.26059908450397395 -0.26907034666447593 -0.07697615263955004 0.08912563206810532 -0.07726000000581089 0.08916017067250318 0.22172790722767366 -0.2622264387466546
2334438000.0 0.2591687642744024 -0.27151772891841197 -0.07427877939039595 0.09132488163436082 -0.07454336153570057 0.09157939639293498 0.21930708455520878 -0.2619258346308432
2335500000.0 0.25776047798959917 -0.27410040365455113 -0.07169524014348097 0.09338687429641826 -0.0718133979664711 0.09388535467095872 0.21625308237568597 -0.2621407863054054
2336562000.0 0.25626433529284465 -0.2765389867839008 -0.06889820904824641 0.0954328226683506 -0.06899184143389028 0.0960419568643116 0.21264992965995672 -0.2626917506849807
2337625000.0 0.254594793486167 -0.2790854040882304 -0.06616013564278742 0.09738172646805451 -0.06613014804442445 0.09806380364426992 0.20873243049598486 -0.26403290166288734
2338688000.0 0.2531225477475533 -0.281681899356883 -0.06325612041207423 0.09916249263848279 -0.06325724452421233 0.10003931987633337 0.20463681725143495 -0.26675507110546426
2339750000.0 0.2515182122521325 -0.2841024195141246 -0.060382640797870125 0.10095813525016155 -0.060303448847600014 0.10177643392189101 0.20104877698626378 -0.26977546202261715
2340812000.0 0.24979174161399628 -0.2866160976568977 -0.05754415832415858 0.10263987469132176 -0.05720720015588686 0.1035221594016957 0.1980187355043279 -0.27371645995851673
2341875000.0 0.24818283645751485 -0.2890301463930591 -0.054807732719336186 0.10422238341317341 -0.054268087822521564 0.10504844847265973 0.19577658050861296 -0.27831182432506313
2342938000.0 0.2464527058641543 -0.2917777051694467 -0.051895707898066266 0.1058719735245633 -0.05125987984607075 0.10649773954463751 0.19447126326219547 -0.2831589526141728
2344000000.0 0.24463634481603402 -0.2942985832310484 -0.048892734203438835 0.10726888680684697 -0.048223078758240806 0.10780495022304391 0.19436404226339113 -0.2876307773696057
2345062000.0 0.2428692822939625 -0.29674924957831456 -0.0458902455033628 0.10857899508476691 -0.04519625880488474 0.10901567981137794 0.19494979421175693 -0.2920686628003414
2346125000.0 0.24098745381825706 -0.29946023651639914 -0.04282155184275631 0.1096459059105777 -0.04211272277413656 0.11012719513396532 0.19641069698028268 -0.295402551979427
2347188000.0 0.23915812421588065 -0.30205277568815214 -0.03978744481519117 0.11070158398498897 -0.0389020506161766 0.11106931763895618 0.19789808322277253 -0.2982449598583239
2348250000.0 0.23730064187125405 -0.3045435294390727 -0.03656674550810805 0.11165313868713957 -0.03571840031795987 0.1119502533254795 0.19955184593129063 -0.3000094288626337
2349312000.0 0.23534476355833725 -0.3070474718740249 -0.033204814732962835 0.11235321022811305 -0.032476276408861415 0.11257898600822915 0.20042179223139608 -0.3005100778416265
2350375000.0 0.23332676763322274 -0.30972749713427916 -0.029955051624772258 0.11318195881214654 -0.029030831798907652 0.11329722253535651 0.2003923465268606 -0.3007153017408992
2351438000.0 0.23127491866941352 -0.31221990949852024 -0.026470753462126736 0.1137673797174476 -0.02568217406067829 0.1138244337599562 0.2000731493360406 -0.29988333049836224
2352500000.0 0.22922048694977953 -0.3149211681016835 -0.022875109262139374 0.11430210796381662 -0.022260909287987494 0.11432981024069307 0.19776902990474166 -0.29945896134503125
2353562000.0 0.22684923560129436 -0.3176578210494017 -0.01935371452721168 0.11481428315422414 -0.018698935950364502 0.11472945884810905 0.19475188906548882 -0.2988106771512294
2354625000.0 0.22465035455728513 -0.32019590286658595 -0.015808003789360967 0.11530786238055964 -0.015219117019471208 0.11511185836131116 0.1906314110303503 -0.2984755272988996
2355688000.0 0.22229183756344117 -0.32285164161836 -0.012205003679353097 0.11567165975873617 -0.011755377966610157 0.11534875158925094 0.18569417102754096 -0.2988028971671845
2356750000.0 0.22000369615965243 -0.32554086645508395 -0.008466026843657026 0.11592106322611981 -0.00812875275449303 0.11564610879568633 0.1798896818127971 -0.30052694439394634
2357812000.0 0.21749236617939843 -0.3281475062964513 -0.004857902611583048 0.11613012256643718 -0.004627285408548376 0.11571882032198656 0.17430480107578486 -0.3025947833136505
2358875000.0 0.2150686499367049 -0.330886979978588 -0.0010496053195209827 0.11608412600589156 -0.0010213446845143167 0.1158763470197151 0.16884805970902877 -0.30610199380386494
2359938000.0 0.21268190423988256 -0.3335473043936673 0.00256728156073626 0.11585557610042067 0.0026188044224333277 0.11583423322508979 0.16379839642280766 -0.3104093688154864
2361000000.0 0.21020923451292223 -0.3361594848454377 0.00623535128942834 0.1156235557839524 0.006185117209657623 0.11571727885323826 0.15982353064934401 -0.3161292388133655
2362062000.0 0.20774273769394405 -0.33882397397219116 0.009657770694749 0.11508554321002548 0.009790738533923567 0.11553054780486326 0.15693147296221086 -0.32148057057778867
2363125000.0 0.20510923815526624 -0.3415012029900422 0.013214358898432726 0.11472699521255074 0.013373972122424116 0.11518249259201521 0.15510202654933125 -0.3281065130309985
2364188000.0 0.20286227269630142 -0.3442246516389116 0.016497877334825425 0.1142714890304243 0.01689489912523666 0.1147769415724995 0.15511001412052758 -0.3345443977043791
2365250000.0 0.2002321245449664 -0.34703142275619453 0.019790251567070913 0.11337953167981618 0.020278435329550114 0.11408054848065949 0.1559946715271994 -0.340137215142216
2366312000.0 0.19780506100038683 -0.34972655631979227 0.02299687548202753 0.11272183004838324 0.02363359382458163 0.11325705785884804 0.15781001472150444 -0.34516707838707056
2367375000.0 0.19534303777471046 -0.35257632864360405 0.02598166106839238 0.11188935123783314 0.026848787404290135 0.1123863884172963 0.16037005559475684 -0.3493275595123344
2368438000.0 0.1931423760164503 -0.3552472202129598 0.029032287096813356 0.1109705359989674 0.029786749479213104 0.1112355246468175 0.16337905549625764 -0.3523581066892641
2369500000.0 0.19054530268960046 -0.35803195585487363 0.031835433429308356 0.11002860312733158 0.03276535698007319 0.11015751628462002 0.16558794782755523 -0.35424777703449994
2370562000.0 0.18831391780257528 -0.36076145091014944 0.034687183374503126 0.10916098975276232 0.03566886996354537 0.10902446154737351 0.16749501043111234 -0.35505713317980875
2371625000.0 0.18584442279952249 -0.36334405565328554 0.03738383770925599 0.1080759659542299 0.03846867454765552 0.10769025943757955 0.16810949239455597 -0.3553371589631355
2372688000.0 0.18355105277415354 -0.36612886008452933 0.04035903979156259 0.10675971809770185 0.04130786456352809 0.10647985778022691 0.16703834763463216 -0.35460806306707204
2373750000.0 0.18105417873788704 -0.36874675320965555 0.04318772470182111 0.1056271208147808 0.04413580597656329 0.10512985872119955 0.16495542955428033 -0.35389778426721197
2374812000.0 0.17865662357958587 -0.37130263937321994 0.04612880431640808 0.10432573745410517 0.0469827652361382 0.10371667818482483 0.161543142697508 -0.3534115619073142
2375875000.0 0.176127399765359 -0.373861724232025 0.049345202066638595 0.10286329867370757 0.0499326319257554 0.10225290248419347 0.157170284589806 -0.35364193729958043
2376938000.0 0.1737803353676173 -0.3761256070571829 0.05230243879426282 0.10113850021233108 0.05288285670781724 0.10061683390170817 0.15164162951208005 -0.35453603925144533
2378000000.0 0.17128881919156527 -0.3783693671356491 0.055446783188432665 0.09935819183215858 0.05581102689828918 0.09885936290400056 0.1461855203500241 -0.3563134454167825
2379062000.0 0.16894886794250225 -0.3806679923058471 0.05849807636040998 0.09747989279796802 0.05880476356745409 0.09692071691577984 0.1404322769214376 -0.35913994311850084
2380125000.0 0.16636811927473222 -0.3827991681368797 0.06158604769037398 0.09526584870521426 0.061763946778417414 0.09482414043467079 0.13480313207701364 -0.36248827476157
2381188000.0 0.16397976782044757 -0.3849588948323259 0.06446892126519488 0.09315103369966107 0.06461954968313903 0.09263303255106181 0.13047873086487832 -0.3668361516681068
2382250000.0 0.1616388239897334 -0.3867038416034687 0.0672832717465072 0.09074883071803877 0.06730463676685922 0.09017594638728672 0.12662879658934068 -0.3715596684961793
2383312000.0 0.159008488510653 -0.3889240804163175 0.06994203963371362 0.08825689506727476 0.06988845168935019 0.08771955531029119 0.12385203407988657 -0.3763825691739511
2384375000.0 0.15651459965920744 -0.39094214191069804 0.07242029744387363 0.08576282099893873 0.0722142994483915 0.08519077808037447 0.12239622433785548 -0.3811301192725174
2385438000.0 0.15407157588162404 -0.3930344091505346 0.0746613920476696 0.08328609450454154 0.07447345570561746 0.08291186361079132 0.12160312868167389 -0.38550789849336153
2386500000.0 0.15150483055806396 -0.3950195990094028 0.0769211976046858 0.0805468822442223 0.07660758921653148 0.08056807569118661 0.1214858917468395 -0.389265010622573
2387562000.0 0.1486770909235186 -0.3968410908389098 0.07878642000274189 0.07817356571357392 0.07857592309228535 0.07828680205759915 0.1218924391533068 -0.39245349514689737
2388625000.0 0.14599817302390544 -0.398813315077763 0.08062684013425195 0.0757288216740555 0.0806479996341278 0.07615589390787517 0.12257963217850665 -0.3945787297431135
2389688000.0 0.14310062180958175 -0.40068163378941074 0.08235606397490866 0.07340950652369621 0.08261438039738063 0.07404980793650989 0.1229187261885119 -0.3957803246653508
2390750000.0 0.140173582454513 -0.4025591163130468 0.08425189963830902 0.07107178388979077 0.08464824337907743 0.07185600784599602 0.12260542118742947 -0.39605685002756075
2391812000.0 0.13731293596136251 -0.4043463141337454 0.0858309690891431 0.06885842352702956 0.08663177183895422 0.06950963147453502 0.1215480745598658 -0.3955836661531716
2392875000.0 0.13423945249568803 -0.40610655442255383 0.08755059869534072 0.0666220017083731 0.08862552089129963 0.06711817254121323 0.11928462992783379 -0.3947936011021885
2393938000.0 0.13138618897135176 -0.4079756904203318 0.08908379893020515 0.06425231888704892 0.09055985998972149 0.064444531904106 0.11601615970715501 -0.3936417998640671
2395000000.0 0.12843470749708166 -0.4095537033379022 0.09079080752691786 0.06188034222041455 0.09242849645329032 0.061621034926272134 0.11161612791078344 -0.3929817938422634
2396062000.0 0.125567632286177 -0.411345277950286 0.09240683212409817 0.0595225001260496 0.09410370024418198 0.05873577093426711 0.10633558549309963 -0.39250134869834624
2397125000.0 0.12276486547391618 -0.41303080421030264 0.09399954748357309 0.05698400672664312 0.09555665595797347 0.05579533127842196 0.10061114251676798 -0.392725827310651
2398188000.0 0.11997220919776191 -0.4149108474125825 0.0955862282188718 0.0543183652766517 0.09684215922524772 0.05266626990210585 0.09433306621451143 -0.3936841946834414
2399250000.0 0.11706930267693916 -0.4167935744263155 0.09714883146701972 0.05148361688794565 0.097848206118809 0.04956568809785473 0.0885838253854338 -0.3952456635035618
2400312000.0 0.11431080326076638 -0.4183787772517577 0.09852912094550344 0.048539552477863034 0.09860750459065767 0.04666778283016244 0.08303082240927753 -0.39765798523794277
2401375000.0 0.11121386556290988 -0.4199927018208724 0.09989571909823738 0.04551971643860103 0.09931928429966976 0.04377685669555868 0.07829488677291256 -0.4004102270419817
2402438000.0 0.10829359825791814 -0.4218800449810309 0.10099758432873417 0.04253958460261997 0.1000175747858834 0.04106098061721289 0.07429892382648794 -0.40343095645701516
2403500000.0 0.105430809054806 -0.42325508998000444 0.10193665342523561 0.039287451265257706 0.10070612993626143 0.03844169121910913 0.07112558890209197 -0.40651110598632306
2404562000.0 0.1022474771924623 -0.4247481490507294 0.10289601735041957 0.03623971011455667 0.10143869109643039 0.035935924854379186 0.0685076487008383 -0.4093998165814585
2405625000.0 0.09906663536292387 -0.42601854696332075 0.10373909913708641 0.03311194189640341 0.10233359101494087 0.03333183149523721 0.06668643915840015 -0.4117183898743838
2406688000.0 0.09592014917610908 -0.4272566584572347 0.10448089393340401 0.02999158187589602 0.10339020052637772 0.030648707827093495 0.06518913610062559 -0.4138172252120046
2407750000.0 0.09270571056813111 -0.42824511375520996 0.10501645582678247 0.02690230546768963 0.10446010762810219 0.028008881286846855 0.06397094492691253 -0.41537566135424686
2408812000.0 0.08951725410172999 -0.42911886964513923 0.105436685497304 0.023981429213500317 0.1055029920729753 0.025152435412827055 0.0625536464135425 -0.4159207610743837
2409875000.0 0.0864309976834548 -0.4300074187046874 0.10582796531226131 0.021042278889105277 0.1065481783997643 0.022171712982009824 0.060798705113988764 -0.41597787894567184
2410938000.0 0.08312341391788425 -0.430822699178408 0.10615902173462899 0.01810693307407662 0.1073990762080448 0.019020514239402632 0.058524423113280086 -0.41530871500513916
2412000000.0 0.07977840279105304 -0.43148486781204887 0.1063830579734117 0.015458829574061257 0.10798341638039637 0.01566000316071508 0.055202813514703124 -0.4145291470824954
2413062000.0 0.07645204444504035 -0.43216900767679733 0.10659224814321015 0.012616050084677009 0.10833200119644933 0.012379589539313651 0.05076445454821683 -0.41349987241345193
2414125000.0 0.07318537071652376 -0.4328895717510829 0.10672864781936452 0.009946131018081386 0.10843900117369869 0.009114718697654145 0.04608071738306848 -0.41208782105601466
2415188000.0 0.06970076605165697 -0.4335547925412278 0.1070111225487269 0.007109580522768945 0.10828308667350593 0.0058116442151678925 0.04004219784957145 -0.41138293153618166
2416250000.0 0.06637249346693984 -0.43393126913331626 0.10706979430483891 0.004267496228721601 0.10792958752535144 0.002664453748188716 0.03381938057262068 -0.4111578466020798
2417312000.0 0.06268118447512895 -0.4344995730188501 0.1071230704946797 0.0014741383515068788 0.10747922185717397 -0.00037785149405201947 0.026981318063472953 -0.4113550482383258
2418375000.0 0.05895955978474804 -0.43494772748863225 0.10702992694816656 -0.0013271100674492058 0.10681796018297454 -0.003238548827506004 0.020822481315801604 -0.41224578163736136
2419438000.0 0.05519793133418713 -0.4355113290641699 0.10700799656137405 -0.0041821511386859215 0.10634385223178434 -0.0058611687478234385 0.014913239965057837 -0.4137961335333207
2420500000.0 0.05134503306075036 -0.4357579177134046 0.10680589465302757 -0.0070717923267073785 0.10576116608260602 -0.008399503610314836 0.00971219467587822 -0.415773651393263
2421562000.0 0.047619528319460355 -0.4358625001168282 0.10647016595931463 -0.009966231310210932 0.10525710837424938 -0.010974737012404786 0.00563266441048323 -0.41799600830894246
2422625000.0 0.04372946258874754 -0.4361243109311641 0.10591697008089031 -0.01299833144278493 0.1048690913706636 -0.013394238099944611 0.002124191414929287 -0.4197461172833576
2423688000.0 0.0398520189734693 -0.43627250400279566 0.10545560172699149 -0.015992623397474277 0.10444011058400324 -0.016066899310687176 -0.0004467576439738124 -0.42159551034663045
2424750000.0 0.03611315125827762 -0.4363221149778752 0.10490861693127859 -0.019104834767806052 0.10413992989784375 -0.0188365006359387 -0.002669043740451618 -0.422915091457966
2425812000.0 0.032329590031139874 -0.4364198867125775 0.10419576469923467 -0.022124029363638133 0.10375457239617453 -0.021670301936480164 -0.004013706941354998 -0.4232310380975967
2426875000.0 0.02852076811803471 -0.4365415161386512 0.1033797615214396 -0.025258779794670578 0.10335939433567073 -0.024681801583496928 -0.005525753636764057 -0.42340109826716155
2427938000.0 0.024691890380771866 -0.43660091423106 0.10267031440529396 -0.028362874851736088 0.10279761091033401 -0.027862962373524175 -0.007333354774720295 -0.4227504098554361
2429000000.0 0.020983189840451298 -0.4366376231949201 0.10177042279930568 -0.031367560004978014 0.10211377650414505 -0.031018071101486012 -0.009500607854055149 -0.42179865518987614
2430062000.0 0.01734083426382273 -0.4366102974039305 0.10087691862270246 -0.03411782682371063 0.10126734495767889 -0.034179978509264755 -0.011864910655230706 -0.4202721357711797
2431125000.0 0.013481716969957104 -0.4364429637334399 0.09975496974669688 -0.037001712077877315 0.10023896087556666 -0.037323937247507086 -0.015146385938974521 -0.41840819826738385
2432188000.0 0.00968684966106727 -0.4362734630443848 0.09854379156958137 -0.03980049517269963 0.09900827298183991 -0.040308662926559484 -0.01891331692322963 -0.4169349028479867
2433250000.0 0.006037832490127788 -0.43596745793137726 0.09738281526335416 -0.04241020386753889 0.09766838927348594 -0.04317178749963327 -0.02348915550333849 -0.41529110846676404
2434312000.0 0.002268455108043858 -0.4356367254321587 0.0961120823766806 -0.04506545017370314 0.096241978365169 -0.04585043148812856 -0.02873491168037225 -0.4141773242798953
2435375000.0 -0.0014880850740936879 -0.43532674738618476 0.09483256241344155 -0.04769639961993031 0.09474279249993532 -0.0484786522852548 -0.034158951307508206 -0.4134655484278205
2436438000.0 -0.005192646855686498 -0.43470293637558427 0.09339922733341655 -0.05014241990659726 0.0932300922278824 -0.05092393539515605 -0.039873195790110436 -0.41339655425768934
2437500000.0 -0.008776039856047729 -0.43391570336102236 0.09194321778182742 -0.052608176316246855 0.0916523510245613 -0.05324208499229458 -0.0457519078597216 -0.41371704646028906
2438562000.0 -0.012577675932479467 -0.4334269579735566 0.0904274242693537 -0.05496083674702549 0.0901110906292453 -0.05551550472850986 -0.050834189166094806 -0.4147755508242417
2439625000.0 -0.016143009030670504 -0.43271314926896143 0.08894965569794984 -0.05750836385618827 0.088494605395469 -0.057831370985534106 -0.05575962697466706 -0.4165660742523954
2440688000.0 -0.019804268126914857 -0.43200853297009356 0.0873124932711635 -0.059793973098607005 0.08697569293103095 -0.060154691586044695 -0.059917536766248905 -0.418535564085859
2441750000.0 -0.023409986036983903 -0.4312739834422201 0.0856262785891685 -0.062220426419967965 0.08523532248290132 -0.06249649645458916 -0.06281803233021241 -0.4204425184840071
2442812000.0 -0.026810142123594886 -0.430570456890039 0.08394581343504919 -0.06457788844312075 0.08355519117526411 -0.06477833696177152 -0.06471942145881163 -0.4223072461908042
2443875000.0 -0.030318396130482577 -0.42991153554334216 0.0820237447063179 -0.06679399454625612 0.08170981363165658 -0.06711457758257224 -0.06606998769629305 -0.42343898249065437
2444938000.0 -0.03381455289877931 -0.429067117882535 0.07997400927418884 -0.06909200340990772 0.0796739818655348 -0.06937259625199237 -0.06687743212209125 -0.4236896610641845
2446000000.0 -0.03733039389006264 -0.42862089081341626 0.0777972826447309 -0.0714477462350133 0.07755619220667745 -0.07168445959213078 -0.0673776613119546 -0.42309958495057337
2447062000.0 -0.040973926382238186 -0.4279122571829818 0.07559324706418591 -0.07374148795945769 0.07542269323982911 -0.07397523027225741 -0.06801255850835329 -0.42156792938922566
2448125000.0 -0.044623900333391975 -0.42728371840251805 0.07319344328013301 -0.07595776535243294 0.07299720255834208 -0.07617876963547937 -0.06911992138259979 -0.4189320743558905
2449188000.0 -0.047970891110792696 -0.426535119436857 0.07089669200470236 -0.07811817268437539 0.07068248590081277 -0.07830111837172782 -0.07105498509513238 -0.41615647681980406
2450250000.0 -0.051483865805872504 -0.4259019012544671 0.06846515639814474 -0.08012778895357582 0.06832900037993472 -0.08033648016707057 -0.0736037583156991 -0.41276466922816024
2451312000.0 -0.054803257825064636 -0.4254178787132583 0.06601115113984038 -0.08230506402706493 0.06590004584809865 -0.08230499923097612 -0.07711946401751132 -0.4092970578434743
2452375000.0 -0.05799770914693475 -0.4245987615367293 0.06347977963157066 -0.08396315890022255 0.06347804524874218 -0.08419556213568753 -0.08114236192795367 -0.4063676763850112
2453438000.0 -0.06120867922626845 -0.4241942444821661 0.061089233997776014 -0.08581988063650595 0.06104320217112154 -0.08607154697227958 -0.08599121259962132 -0.40369938936509153
2454500000.0 -0.06440959072064223 -0.42360667193190443 0.058614527122561454 -0.08744847099530889 0.05851506828247431 -0.08777847204259633 -0.090819383361768 -0.4014559752832853
2455562000.0 -0.06745275809757402 -0.42303200104362587 0.05601894763511734 -0.08903884335931245 0.056021966357005244 -0.08942132977473678 -0.09613243258108244 -0.4000186539243859
2456625000.0 -0.07035377384025229 -0.4223404473621037 0.053623910954809964 -0.09059903838307395 0.053445097348765055 -0.09103984593650344 -0.1013726939074831 -0.3991104043035549
2457688000.0 -0.0734482842431453 -0.42192139395399786 0.051079669761943926 -0.09193013640080627 0.050818111899471954 -0.09245269011083126 -0.10640589445731605 -0.3990028548974323
2458750000.0 -0.07645382141557414 -0.4213309117512102 0.04855295256598617 -0.09339359642614233 0.04815851229747219 -0.09380817573190443 -0.11089053303919391 -0.39964517848632664
2459812000.0 -0.07920068221393041 -0.42073081936874585 0.04592889421157353 -0.09467567594234316 0.04546273455236412 -0.09511683827940647 -0.11472704661745484 -0.400688090730526
2460875000.0 -0.0820781198442065 -0.42007384894633326 0.043447318131588315 -0.09597015276683384 0.04273831650410792 -0.09635500213891533 -0.11766943988980952 -0.40210996468891486
2461938000.0 -0.0847507652327349 -0.41934667532435255 0.04065818920633458 -0.0972687189539422 0.03999885673020724 -0.09746500848641365 -0.11989112511304251 -0.4033485524113459
2463000000.0 -0.0874620803279901 -0.4184382198241193 0.037772717519143635 -0.09835471110513032 0.0371829950853152 -0.09845484226530807 -0.12094646658193262 -0.40413610306216075
2464062000.0 -0.09017720015794234 -0.41767648931069373 0.03496244562667408 -0.09944947283268438 0.03445648819616963 -0.09944010088616347 -0.12178863219099367 -0.40459333551683785
2465125000.0 -0.09261660525777457 -0.4167903799803116 0.03206357644695401 -0.10035542821532982 0.03161345182676824 -0.10034337075122508 -0.12198866018500684 -0.4040621996133421
2466188000.0 -0.0952254645332923 -0.4161531623232784 0.028989956705207477 -0.10124650195601602 0.028709554665332565 -0.10117008550336747 -0.12213816849799129 -0.40242076227749657
2467250000.0 -0.09768239626654668 -0.4153578652451493 0.0257989119435636 -0.10204555667363704 0.025776745304746326 -0.10191476204518331 -0.12259248192680813 -0.400014416194461
2468312000.0 -0.10024593240035883 -0.41472660230728037 0.022790741012674243 -0.10260209919635375 0.02269630654461771 -0.10269211161965293 -0.12322776071633583 -0.396983373191055
2469375000.0 -0.10268249684913665 -0.41397977818302883 0.01957677387656029 -0.1031468412101531 0.019643509971254844 -0.1032700909222596 -0.1248865882858538 -0.3932149088541963
2470438000.0 -0.10527854954196884 -0.4133087949664453 0.016339544252358805 -0.10358672279416259 0.01643073923814165 -0.10381558815759766 -0.12747985945659684 -0.3893996515295851
2471500000.0 -0.10779606810242758 -0.41263117494418755 0.013462548076592076 -0.1037208816794363 0.01322144708109771 -0.10414674639444803 -0.13068227863662218 -0.3851828003932574
2472562000.0 -0.11062602799391943 -0.41204326022710785 0.010288615750540539 -0.1038798717845754 0.00993315454671567 -0.10442009912032792 -0.13497087805104596 -0.3815945752565247
2473625000.0 -0.11325864741324207 -0.4114256540794886 0.00729901604788756 -0.10391640311636789 0.006823442512347262 -0.1044964788294558 -0.13975447832489674 -0.37864407079772333
2474688000.0 -0.1159490341079992 -0.4107432566587528 0.004358728467812258 -0.10393255027231238 0.0037558088350210885 -0.10458877664590166 -0.14542217557679638 -0.37683365811239994
2475750000.0 -0.11850315229670856 -0.4101990904218939 0.0015330275571304433 -0.10411439716872009 0.0007023389410908088 -0.10458598064814055 -0.1506686791022952 -0.37582336133534033
2476812000.0 -0.12132007432536293 -0.4096898531087422 -0.0014256222828370585 -0.10399294407384563 -0.0022617409836266657 -0.10432820936753866 -0.15598428997341426 -0.3756663499457828
2477875000.0 -0.12390860584792533 -0.40917939007082327 -0.004124588225231266 -0.1039627962357559 -0.0050368563562974596 -0.1042345046052229 -0.16066262412564045 -0.37678432017092356
2478938000.0 -0.1265427750680437 -0.4087886818475108 -0.007010979985998034 -0.10393408939108954 -0.007917556389545914 -0.10394739723992799 -0.16481579454519377 -0.3782756451432974
2480000000.0 -0.12899785258794302 -0.4085117538317558 -0.009858320040503457 -0.10385185499603668 -0.010586049605448023 -0.10364422000872081 -0.1678552460725774 -0.38037370663212244
2481062000.0 -0.13148796585411146 -0.4082784813467123 -0.012642120534178078 -0.10379536831849343 -0.013345869377302722 -0.1034303365180074 -0.17026679385988383 -0.3825246658669635
2482125000.0 -0.13385711605953873 -0.40798412901421827 -0.0155655734785724 -0.10348016029314873 -0.016172136560869726 -0.10310039648004397 -0.1714172100927057 -0.3842751505252538
2483188000.0 -0.13633661473673364 -0.4077958462687688 -0.01860305037605344 -0.10313774193173908 -0.01902066409393682 -0.10283884540272155 -0.17187369247130124 -0.3856032427688667
2484250000.0 -0.13855284928426076 -0.4076307447768602 -0.02166684524451927 -0.10263667935356731 -0.02197650445029158 -0.10234253977227668 -0.1719670918668157 -0.3859871766199807
2485312000.0 -0.14084143554724965 -0.4075520857049965 -0.024680534560558708 -0.10210487563202464 -0.025036958861123396 -0.10188287382905951 -0.17172081675425155 -0.38558334952336
2486375000.0 -0.14302003182308506 -0.4071337126221882 -0.0278958690893452 -0.10135331186756118 -0.028130528440145068 -0.10118925115228396 -0.17156036525826546 -0.38416257134411946
2487438000.0 -0.14533163171530358 -0.40685377890963653 -0.03082519243790222 -0.10032228984603395 -0.03121311920261471 -0.10028611406721981 -0.1717437565080274 -0.3818738921960655
2488500000.0 -0.14752672501869654 -0.40641714292712044 -0.033994309705119234 -0.09924316280921852 -0.03427001201983769 -0.0992175657762333 -0.1725249286748967 -0.37885265746796953
2489562000.0 -0.14970804385737518 -0.40577548751818077 -0.036887980293683925 -0.09783224615252399 -0.03723846601062317 -0.09795540874431324 -0.17383453154255796 -0.37547270148729234
2490625000.0 -0.15174730465185748 -0.40511475285181237 -0.03965974427999385 -0.09653380360707015 -0.04007827106276134 -0.09650905869043194 -0.17614907781782363 -0.3715068512380674
2491688000.0 -0.15392942243502708 -0.40443699494563 -0.042422627162045416 -0.09501291135396375 -0.04279772979170982 -0.094989699943557 -0.17917250817655422 -0.3679021429893765
2492750000.0 -0.15594729788920558 -0.4036520106992156 -0.045027331276443594 -0.09343756975802585 -0.04533388661514878 -0.09335041193752626 -0.18283320880448348 -0.36481696474659236
2493812000.0 -0.1580160338685384 -0.4028967138372054 -0.04751192329634213 -0.09190627798961067 -0.0477984964079531 -0.09179070271296141 -0.1873192219922461 -0.36250111852349554
2494875000.0 -0.16016384123528016 -0.40216862839290646 -0.04983742966479242 -0.09029340933724252 -0.0500569156032947 -0.09017457204378737 -0.19188334106415506 -0.36090933598016095
2495938000.0 -0.16220694347933376 -0.4013105657303876 -0.052193090290309586 -0.08870550475307967 -0.05231380037713169 -0.08862111239992947 -0.196532132340694 -0.36036087775793224
2497000000.0 -0.16450984309899838 -0.40043042893315417 -0.05435440877177191 -0.08707921559655374 -0.05451760548642493 -0.08712525443070734 -0.20094696997255454 -0.360749461143018
2498062000.0 -0.16657877878111232 -0.3995731611491715 -0.05654070447655548 -0.08556512390801874 -0.056832951537069756 -0.08567749727146379 -0.20482955332116845 -0.3617783496140749
2499125000.0 -0.16908610659542056 -0.39864594542121046 -0.05881615515295345 -0.08397465667073926 -0.059162927900854895 -0.08417188461789056 -0.20806135744913293 -0.3634640179955918
2500188000.0 -0.17153977885581115 -0.39784691387433857 -0.06110813115362377 -0.08237123917135575 -0.061610294059438714 -0.0827228241410096 -0.21041063031608587 -0.3654684742702683
2501250000.0 -0.17414866297306106 -0.3969893917756369 -0.06326292567196092 -0.0807868299165776 -0.06408250495712617 -0.08101660259373343 -0.211647854348469 -0.36731150758969133
2502312000.0 -0.1768559443907893 -0.39591752340239333 -0.06566586629051814 -0.07904114771907608 -0.06665465342269307 -0.07927607447274433 -0.21226777013458273 -0.3689492013950654
2503375000.0 -0.17947831268030154 -0.3948967619731762 -0.06806999055044724 -0.07719069717722683 -0.0691274453259867 -0.07720865680385666 -0.21240081871382022 -0.36989424130117854
2504438000.0 -0.18238013767583544 -0.39381808950503605 -0.07037552557103183 -0.07527986053129017 -0.07145411011157103 -0.07501691609121415 -0.21176351412349612 -0.3696703132029576
2505500000.0 -0.1850572918294831 -0.39271520096358375 -0.07274199199312457 -0.07324074614343543 -0.07376168050289329 -0.07253910096556114 -0.21130328310292923 -0.3683749942683806
2506562000.0 -0.1880564191756452 -0.39148810014929414 -0.07508935279502617 -0.0710331306835721 -0.07596910549712094 -0.07003656667038609 -0.21089872706262505 -0.36651572386324816
2507625000.0 -0.1910572261320449 -0.39041408385444726 -0.07731647218579892 -0.06869117848911409 -0.0778413321976768 -0.06751145773966842 -0.21106485758344912 -0.36356200625040186
2508688000.0 -0.19370511775104596 -0.3892977199225077 -0.07934185060053156 -0.06618644029840415 -0.07964757048165663 -0.06498413647147464 -0.2118282438304565 -0.36002588001367086
2509750000.0 -0.1965488237728808 -0.38830031518687536 -0.08133355132317474 -0.0636486436506712 -0.0812724082169577 -0.06251281346537753 -0.2132779476316161 -0.3562104528899586
2510812000.0 -0.19941991703676187 -0.38740142055700244 -0.0831938336825597 -0.06104110259266561 -0.08275291635443258 -0.06002498227216097 -0.21553467124364553 -0.35211455050591545
2511875000.0 -0.20226553927803803 -0.38652873086727896 -0.08486160515825646 -0.058421200011279914 -0.08418478660756432 -0.05776614845962809 -0.21858310351834423 -0.34867536513896896
2512938000.0 -0.20511654540658295 -0.3854925850050084 -0.08628838648342382 -0.055794007641625266 -0.08549496726868704 -0.05554025346755099 -0.22219714037730265 -0.34560907492411946
2514000000.0 -0.20795868567275283 -0.384783551550325 -0.08770548533970413 -0.05307274434295955 -0.08690322363297583 -0.053301377780217485 -0.22644579214644042 -0.34330226985888257
2515062000.0 -0.21082149350769214 -0.3838133066263088 -0.08894706483764679 -0.05048693866232804 -0.08826238998451363 -0.05108706507498304 -0.2307531795676302 -0.3419446255143257
2516125000.0 -0.2133426859943944 -0.38279077525769056 -0.09007151728372877 -0.04791494456685446 -0.0896386601198246 -0.048828036800856074 -0.2350079327794224 -0.34135865632494367
2517188000.0 -0.21613421267342822 -0.38174972631205434 -0.0910579137174195 -0.04534913147566858 -0.09109605753678846 -0.04632126913847503 -0.23906201739848526 -0.34169201543953426
2518250000.0 -0.21878399009200486 -0.38069401410815945 -0.09191332381644958 -0.04282587189065598 -0.09256297126853334 -0.04382049985439741 -0.242424002048733 -0.342950577712349
2519312000.0 -0.22129290295779042 -0.3794173264464912 -0.09291094257770699 -0.040290019656043737 -0.09393802310080211 -0.04103238085766921 -0.2453674578717294 -0.3442334376250374
2520375000.0 -0.2238269397557854 -0.37824382402579354 -0.09383192398906856 -0.03786551534647452 -0.09516819019775252 -0.038190520686582394 -0.24764387252780595 -0.34574932523990914
2521438000.0 -0.2264152488743572 -0.376692994687975 -0.09458792472190845 -0.035390667571139796 -0.09623705653638955 -0.03527611445672599 -0.24877736620778249 -0.347091146673021
2522500000.0 -0.22889273482500935 -0.3752944539724222 -0.09537182196374167 -0.03283301726190342 -0.09713419729404038 -0.0322160878668748 -0.24949012625276748 -0.34784319714152273
2523562000.0 -0.2313395431271062 -0.3736596005579561 -0.09630562757208785 -0.030248832523682625 -0.09781033676437835 -0.029293594815443684 -0.24971352271961456 -0.34762883302692615
2524625000.0 -0.23379392126746942 -0.37205533791313117 -0.0971091206845018 -0.027682577165314484 -0.09835437188981784 -0.026188595467386184 -0.24957707867187412 -0.34642888451832027
2525688000.0 -0.23640906369104275 -0.3703866576558499 -0.09805883414634906 -0.02490970521785078 -0.09876309833750795 -0.023279632353000977 -0.249762495359226 -0.34429136011321726
2526750000.0 -0.23907413257606988 -0.3687503714506198 -0.09881153530378207 -0.022018545082209805 -0.0990206852483011 -0.020368179857314594 -0.25051240419249 -0.3412791814670205
2527812000.0 -0.24171459967935047 -0.3669492547371438 -0.0994619612353242 -0.019265479182784803 -0.09912659035327365 -0.017659802772057455 -0.25144434716026104 -0.3374794356773167
2528875000.0 -0.24452043456303935 -0.365162738737641 -0.10022485504484124 -0.016303602351770814 -0.09945238850933688 -0.014909457394654315 -0.25319679659636 -0.33316231388086015
2529938000.0 -0.24739290651388318 -0.36323173039158746 -0.1006387836573423 -0.013293536728086851 -0.09967089286515021 -0.01227540237300991 -0.25594333725112445 -0.32881317392007053
2531000000.0 -0.25045767027191407 -0.3614414476795987 -0.1010599540716862 -0.010252338765659605 -0.09998364678069016 -0.009645430053085944 -0.2591415373697433 -0.3246930503870692
2532062000.0 -0.2534220585194324 -0.3594598008672089 -0.10129332309725605 -0.007154559796348084 -0.10022681774025127 -0.007014518587307914 -0.26318263972001144 -0.3210460332637782
2533125000.0 -0.2566938251464021 -0.3575098324665275 -0.10130741220778364 -0.004063871099391067 -0.10055303101573923 -0.004251999550865778 -0.2671683605799557 -0.31754094814122164
2534188000.0 -0.2598954859977181 -0.3556392637474169 -0.1012303714649862 -0.0010839217226888507 -0.10067636739659223 -0.00148507223066513 -0.27169107359995115 -0.31547204287881037
2535250000.0 -0.2630126511804567 -0.3534987703544064 -0.10096360459046265 0.001980333798485663 -0.1008692567280026 0.0014283597511005359 -0.2765866748872548 -0.31401516311174354
2536312000.0 -0.2663546981740149 -0.35164410701688303 -0.10068719605669323 0.004836915270193059 -0.10083009710682775 0.004281902674210611 -0.2812448070072446 -0.31358913430011887
2537375000.0 -0.2694107598486688 -0.3495677545892383 -0.10012698260005722 0.007678796770885381 -0.10066485484306097 0.007327133731152617 -0.2853321868765563 -0.31366259541581415
2538438000.0 -0.2727099125162268 -0.3476132302218492 -0.09952485448954856 0.010505230218350875 -0.10032551248165157 0.010289383540496192 -0.2890273919210188 -0.31445797558432764
2539500000.0 -0.2757897440219561 -0.3457525867271571 -0.09901637354017905 0.013274584522185136 -0.09989994791297692 0.013201208804855936 -0.2921795002361694 -0.3156164928687484
2540562000.0 -0.2790392491649027 -0.3440575538722814 -0.09851658177642635 0.01582527718971768 -0.09921784295472001 0.01625559111289973 -0.29439913453128874 -0.3168716780048293
2541625000.0 -0.28209866535401384 -0.3421352175116955 -0.09783512224527162 0.01853780977403019 -0.09852068178559038 0.01906277645866093 -0.2959073600361775 -0.31800298870080135
2542688000.0 -0.28515323274846355 -0.34041674434389485 -0.09719681251329133 0.02098794179290661 -0.09777409565008685 0.02178174200207188 -0.2971066338930782 -0.31823073644283223
2543750000.0 -0.28810493582841473 -0.33882103325528934 -0.09656988030284078 0.023401423727505945 -0.0969296718160788 0.02449560573609401 -0.29782140959943876 -0.31785635052414735
2544812000.0 -0.2911571807219223 -0.3370255187740146 -0.09600829398040127 0.026037734595731048 -0.09605637050774816 0.02709354436229602 -0.2983907347153138 -0.3165715386286931
2545875000.0 -0.293980785986759 -0.3351791502617214 -0.09526948447130293 0.028572872377779925 -0.09510852954494553 0.02966453407351483 -0.2988116422440996 -0.3141668865616645
2546938000.0 -0.2966861804823445 -0.33335753970302134 -0.09450833796882754 0.031080832680412528 -0.09425912585836935 0.03220083400153521 -0.3000966953757483 -0.3112779482751831
2548000000.0 -0.29937779392272473 -0.3315610636423579 -0.0937652395392326 0.033815131913021185 -0.09332917776457889 0.03469761406464772 -0.3017337385482288 -0.3076665781920048
2549062000.0 -0.3020122053131091 -0.3296101527367536 -0.09291242185925139 0.036525626240450165 -0.092317820824325 0.03718325054125906 -0.3044963518480988 -0.3039279997812404
2550125000.0 -0.30490978178009626 -0.32772651246962975 -0.09192051729489491 0.039121569064665795 -0.09130824685476413 0.039742074500720426 -0.3077558367637135 -0.3001890047931653
2551188000.0 -0.3074764844872328 -0.3258767078342965 -0.09091505906172333 0.04193086007293423 -0.09034924291490656 0.04228463290944095 -0.3116879695560329 -0.2967350992949606
2552250000.0 -0.31005118404481485 -0.3235928666883772 -0.08981035993703763 0.044561839241370485 -0.08910529252177198 0.04471922756179957 -0.3159452255453229 -0.29360252072883863
2553312000.0 -0.3126113053277617 -0.3216955596575101 -0.08834227176630789 0.047230550728881625 -0.08780810499812956 0.04717022825669502 -0.32040366380172836 -0.2915348258789207
2554375000.0 -0.31533477585244574 -0.31953417873345713 -0.08682400786565225 0.04964130738982036 -0.08640233725952522 0.04962697853753838 -0.3248426126786264 -0.2897948429618132
2555438000.0 -0.3177670549236003 -0.31746023801727036 -0.08532309230251739 0.05210974980328875 -0.08497117296111921 0.052080468449302045 -0.32889793034886117 -0.289012521956446
2556500000.0 -0.3204964419349358 -0.3151690020486709 -0.08346659356951541 0.05437173423143188 -0.08339420347826339 0.0543205721401682 -0.332273742868724 -0.288659698772476
2557562000.0 -0.3231800550190909 -0.31278678022472034 -0.08167142888401627 0.056536033312399016 -0.0816705447992807 0.056529293490600485 -0.33503236432353506 -0.28862609410175366
2558625000.0 -0.3259508421242918 -0.31058545271565713 -0.079803386987203 0.05864093086868242 -0.07991609260752758 0.05859358153484132 -0.33723887513468687 -0.2885861272855064
2559688000.0 -0.3285859756703172 -0.3081554271134774 -0.07793962271294202 0.0606108396086708 -0.07799735455573852 0.060755420209541215 -0.3384476065650452 -0.2883161477532399
2560750000.0 -0.3312721967205128 -0.305901897505384 -0.07602384450586251 0.06251848026435167 -0.07609372632746321 0.0628364578300767 -0.3393171218334651 -0.28801500609293934
2561812000.0 -0.334163463966457 -0.3034376825874764 -0.07392065644712874 0.0644967116710626 -0.0741384329013156 0.06477781543416808 -0.33946222417322414 -0.2870472638089503
2562875000.0 -0.33683347382728235 -0.30087694741468524 -0.07219319873424217 0.06643248837192281 -0.07222241752884297 0.06676498985499385 -0.33943435752304735 -0.28545223142269577
2563938000.0 -0.33946617138181967 -0.298690310509263 -0.07021720507811556 0.06824964976204557 -0.07018506563750476 0.06876015380279128 -0.3393230674921895 -0.2834357328521628
2565000000.0 -0.34218588198042105 -0.2961213977585577 -0.06818052565007157 0.07011115118813623 -0.06806106984470209 0.07066053696908739 -0.339275236152087 -0.28070446800896653
2566062000.0 -0.34470480863412195 -0.2936339579110315 -0.0662501104633515 0.07195985225319969 -0.06591599637568495 0.07254106445969204 -0.3395458973726999 -0.2770571534135371
2567125000.0 -0.3473490674092302 -0.2914924797672377 -0.06415394866598541 0.0738940717588596 -0.06378208782246585 0.07439109974239881 -0.34023911229248455 -0.2730566525287133
2568188000.0 -0.34964317249454213 -0.2891147673251392 -0.061993726578742546 0.07568291493327954 -0.0615722332464541 0.07615751401394424 -0.3415629902059937 -0.2685806724744777
2569250000.0 -0.3522304057077555 -0.28682537574973904 -0.05984606335604976 0.07745186599577751 -0.059391962157603145 0.07780226476189792 -0.34360623455197975 -0.2638421869841233
2570312000.0 -0.35455209240216784 -0.284487922030188 -0.057535497711662414 0.07920534612177048 -0.05711401322704444 0.07945114812293948 -0.3466779323681905 -0.2593294938625856
2571375000.0 -0.3568259248097843 -0.2824115251683457 -0.05530075785918282 0.0809388334920229 -0.05477463366298524 0.08094904592415125 -0.34998182456821186 -0.25535473460596575
2572438000.0 -0.35920180450712424 -0.28006562575714855 -0.0528634595388436 0.08232915372371204 -0.05256518310098977 0.08238422814963282 -0.3541338532582196 -0.2519689762224127
2573500000.0 -0.3610502548899563 -0.2779678449917493 -0.05053721302134077 0.08380561280431639 -0.05030661686426141 0.08383756769554034 -0.35861450117268556 -0.24962515430601298
2574562000.0 -0.3633246784940092 -0.2755389228822213 -0.04810913583301861 0.08513549191729512 -0.04795593491983391 0.08516242325996524 -0.3623777657496306 -0.24770286769734365
2575625000.0 -0.3650898251822144 -0.2732583202454026 -0.04574073374439155 0.08637412102529506 -0.04569733972718951 0.08650181300715391 -0.36627402288744604 -0.24687930494225258
2576688000.0 -0.3671336863984331 -0.27102330369564254 -0.0433560734205159 0.08737160172874857 -0.04336921214472664 0.08769351694126809 -0.36912428646832085 -0.24666819707234733
2577750000.0 -0.3688462388203231 -0.2684039410760905 -0.04095776330156833 0.08839413331895668 -0.040965671241890086 0.08883704516653927 -0.37109315486734307 -0.24644949085804635
2578812000.0 -0.3706826700570666 -0.2659452951085062 -0.038543688979561126 0.08932702300807749 -0.03849644986618381 0.08989477824434293 -0.37219707988947165 -0.24623554784086601
2579875000.0 -0.37256996330509196 -0.26348196382101036 -0.03621319673731986 0.09028075225381442 -0.03592592557275334 0.09083185042212982 -0.37243487531687064 -0.24557722518957376
2580938000.0 -0.37444236763940136 -0.2609465019652431 -0.03371082327392846 0.09103289565946832 -0.033236817287421866 0.09174839526045661 -0.3722499064580494 -0.24433723980546976
2582000000.0 -0.37618184569273827 -0.2584133882530646 -0.03129274642236541 0.09189904395744564 -0.030702746026309527 0.0924479067395949 -0.3711823152361863 -0.2422525022220386
2583062000.0 -0.3777996261833909 -0.25561957880526237 -0.028834888344053195 0.09270083413440756 -0.0279876274237826 0.09312567269240735 -0.37033661627919257 -0.23956645465033735
2584125000.0 -0.3795061701017499 -0.2529285209242955 -0.026222986441949293 0.09343762918254828 -0.025350738467490423 0.09371783877481629 -0.36943655047172325 -0.2359688546341965
2585188000.0 -0.3811575536257203 -0.250116855608017 -0.023489705570515558 0.09405993148560463 -0.022665997071147654 0.0942377368619155 -0.3684789697422081 -0.23145187311069995
2586250000.0 -0.3828812637424301 -0.24711781540167482 -0.020824259937735002 0.09480702891446784 -0.019972633475002256 0.09473310226300752 -0.3683376615521466 -0.22672629217770798
2587312000.0 -0.3845940592021706 -0.24420018284795872 -0.01799676525448836 0.095347158624472 -0.0174066368649671 0.09510250265977718 -0.3688066351719065 -0.22137904624300583
2588375000.0 -0.38606910916487125 -0.24130024212234033 -0.015201733923801653 0.09590160909752012 -0.014773218754744947 0.09557993329195198 -0.36990479994611875 -0.21571319019099766
2589438000.0 -0.38780168632513745 -0.23815958704894885 -0.012244747435126007 0.0962532412518048 -0.012010636734059523 0.0959482859641703 -0.3720437745045888 -0.21034554650408926
2590500000.0 -0.3893130469935351 -0.2351080029725437 -0.009386424544390698 0.09660964043032164 -0.009372384606329514 0.0963081829942112 -0.3748772426352846 -0.20527772995840476
2591562000.0 -0.3910249687152922 -0.23217387006028664 -0.006584690839057241 0.09671131537020196 -0.006644267136116083 0.09662250939222868 -0.3784809097662227 -0.20104897551331724
2592625000.0 -0.39236051311912523 -0.2293144757404351 -0.0036981274043149585 0.09683392947340261 -0.0038596037502432357 0.09684715039822742 -0.3822926292835788 -0.19748267994316634
2593688000.0 -0.3937938500912125 -0.2264264782396869 -0.000816703107405105 0.096892829963975 -0.0010265792449565257 0.0970052942738314 -0.38634751611046225 -0.19491332614504786
2594750000.0 -0.39533593034270403 -0.2236854203248671 0.0019036591739028325 0.09677530253001847 0.0017705989084628294 0.09712489329779637 -0.39008162606186947 -0.1932772938251894
2595812000.0 -0.39665642615560154 -0.22083194437141726 0.0044889172655108245 0.09653637389318025 0.0046495144487469185 0.09709551039554971 -0.3931110298967104 -0.19218877081121133
2596875000.0 -0.3980560351035918 -0.2180852731243846 0.007139379433685043 0.09625776162300526 0.007522274449179019 0.0968787540948644 -0.3954791285094437 -0.19188448002024674
2597938000.0 -0.3991735365880452 -0.21532579816713965 0.009710001149659168 0.09595490041443666 0.010251348970056185 0.09660252605677391 -0.39690133408068595 -0.1913234422126072
2599000000.0 -0.40046835907308725 -0.21263993372056922 0.012365826441345717 0.09549583346086953 0.013103228273041648 0.09613636544465196 -0.3977023450849501 -0.19070678520843065
2600062000.0 -0.40163639605379864 -0.21020182944407564 0.014905400524376273 0.09512826160677196 0.015678355662609895 0.09560021259929696 -0.39752948632699026 -0.18960481375456725
2601125000.0 -0.4026758807529771 -0.20742604210169593 0.017338514707642996 0.0947949117957406 0.018278287783432993 0.09507686083483041 -0.39688909826081165 -0.1877310979585381
2602188000.0 -0.40372194613042656 -0.20477282557448698 0.019848269811566226 0.09432092021277343 0.020826982152893244 0.09437664951695712 -0.3958755359056985 -0.18548183228511583
2603250000.0 -0.4046291756802373 -0.201853999216225 0.02236583213004309 0.09376936907649665 0.023223556677496718 0.09366861450600818 -0.39470032096987945 -0.18226110126240988
2604312000.0 -0.4055186805562119 -0.19899205562228842 0.024779729307009585 0.09327113736633594 0.025638349378834253 0.09298494125719722 -0.3939827448816666 -0.17841119728980356
2605375000.0 -0.4062097084466097 -0.19624062791698368 0.027346460282518505 0.09265076082486338 0.0280218474548955 0.09222547388186428 -0.393166909409159 -0.1738886101241333
2606438000.0 -0.4070580728506066 -0.19323477051153093 0.029922776650749754 0.09213926269748669 0.03045713921414107 0.09152924652810839 -0.39323410815033993 -0.16892857373877598
2607500000.0 -0.40769644111917064 -0.19042023810893222 0.032370215914362524 0.09138930827851198 0.03283754529529072 0.09085257227285033 -0.3941206913029827 -0.16407585702860053
2608562000.0 -0.40822753119245103 -0.1873323197570074 0.03501247479036927 0.0904930801693748 0.035265416811777466 0.08998919664347453 -0.3955344697544824 -0.15870574508111554
2609625000.0 -0.40905854334588343 -0.18407070410259205 0.037689804806809765 0.0894378846928084 0.037812978184634784 0.0891595703687798 -0.3978710226811715 -0.1538979935661421
2610688000.0 -0.409600935407581 -0.18105353371617885 0.04016626747985452 0.08841988558149083 0.04034002341117484 0.08814876117277566 -0.4006796350823509 -0.14974383106401382
2611750000.0 -0.4102497938854569 -0.17788668775333036 0.04265796730086602 0.08714132538601747 0.04292736116764315 0.08701151756550037 -0.40408424142136545 -0.1461334652696862
2612812000.0 -0.4109329438919993 -0.17477630235261013 0.045218637212682045 0.08583448526545245 0.0454493879606096 0.08567268349467634 -0.4075283342026049 -0.14360841216615314
2613875000.0 -0.41150113711073555 -0.17154050954835706 0.04770076829375374 0.08433529544453301 0.04792971019594848 0.08427008862007142 -0.4112520232535813 -0.14186077194764038
2614938000.0 -0.41228749842407275 -0.1680657229002141 0.0500437435439702 0.08279762754025391 0.05033515502891677 0.08268676260452971 -0.4143388910548748 -0.14103453206314565
2616000000.0 -0.41283967893161017 -0.16476137350467673 0.052406825794970274 0.08125353456958781 0.05262006643664101 0.08110154950959629 -0.41635588431741377 -0.1403935305699999
2617062000.0 -0.41369545529905505 -0.16127124812724064 0.054666457799939 0.07954570605183275 0.05481299606960651 0.07938279139851583 -0.41796799986392014 -0.14034756147706948
2618125000.0 -0.41437663846240874 -0.15779266910108727 0.05692006999169614 0.07781242473014509 0.05694061885810298 0.0776584706405265 -0.41824902950519677 -0.14041328752729615
2619188000.0 -0.414939786673774 -0.1547258061534266 0.05887062249295459 0.07602562895971955 0.059046401125043085 0.07591138533619239 -0.41798085110651706 -0.13984952629065506
2620250000.0 -0.4156553870240721 -0.15128369704348066 0.06077385894752222 0.07429771418636298 0.060965809380116226 0.07419922868608733 -0.41679592090628914 -0.13865215740007983
2621312000.0 -0.41643511976948994 -0.1481928630650762 0.06274214559801701 0.07243167930416552 0.06295130940738569 0.07257049722660912 -0.4153284827237174 -0.1368952365054552
2622375000.0 -0.4171512782993126 -0.14509862224883216 0.06464642242778423 0.07072773380190357 0.06499554101143533 0.07082580462863872 -0.413842370810061 -0.13420927073973402
2623438000.0 -0.41802067201931176 -0.14199386950676052 0.06641604331441735 0.06896846428786844 0.06691765021815202 0.06909445828725673 -0.4123188294334482 -0.13095308931142996
2624500000.0 -0.4186946721805372 -0.13936042141492233 0.06823936263593533 0.0670625876660545 0.0688709120502894 0.06738111420480135 -0.4112181449782758 -0.1269969506861954
2625562000.0 -0.41951733849676387 -0.13630873636289825 0.07014630562415149 0.0653855890469595 0.07079483179372123 0.06551364620188782 -0.4105559312994813 -0.12263190654042136
2626625000.0 -0.42032562151941194 -0.1336878865687912 0.07184185793421903 0.06362045080761965 0.07267442835684908 0.06362603270568597 -0.4103852743197449 -0.11796762690838922
2627688000.0 -0.4209830609210602 -0.13085027260502896 0.07368912879228819 0.06195558946104385 0.07453914001030885 0.06160157492283472 -0.41140579024371116 -0.11346517738890366
2628750000.0 -0.4217768477734165 -0.1282370928337151 0.07553404955971679 0.06009553757642495 0.07627774034002487 0.059634023023171286 -0.41267531479277203 -0.1090541244559332
2629812000.0 -0.4224737827997452 -0.12578079274786705 0.07716910838605809 0.05822150091265604 0.07789834901474524 0.05744115302817567 -0.4145419148882983 -0.10485648024381981
2630875000.0 -0.42302891962194983 -0.1231867323928091 0.07885971363585768 0.05619196320947144 0.07934141296731771 0.0554254344806323 -0.41702874939884005 -0.10136425830294381
2631938000.0 -0.42355930169069284 -0.12060850356242091 0.08033420171560338 0.05411800611805169 0.08074341531229196 0.053148582713430585 -0.4199413003345937 -0.09888243349566447
2633000000.0 -0.42402972700541375 -0.11785838558023465 0.08187696562094775 0.05190478146563858 0.08205208567067127 0.0508999597218071 -0.42219687404865586 -0.09678625939953187
2634062000.0 -0.42442315688275567 -0.1155012548953702 0.08327424985591123 0.049540247390906816 0.08327896848702694 0.04867695929240561 -0.42446465006757167 -0.09542136808546148
2635125000.0 -0.4247112433349335 -0.11284108740126801 0.08466009542725297 0.04730983772258751 0.08442557436974543 0.04655269866879569 -0.4262653939621619 -0.09481414627194934
2636188000.0 -0.4250001257163101 -0.11008156042934897 0.08597356047884762 0.04481201529817751 0.08549987791965806 0.04423194816883239 -0.4270015848861041 -0.09431020815263699
2637250000.0 -0.4253101112327516 -0.10742918056564539 0.08706270247213653 0.04213958839283738 0.08666995082617444 0.04192044068137206 -0.42687599645843666 -0.09397616854176549
2638312000.0 -0.4255258814469002 -0.10461750310514498 0.08822682084321312 0.03948413027659041 0.08772058177580473 0.03958195006010336 -0.4256288144242547 -0.09295908536976309
2639375000.0 -0.42593326489286343 -0.10167601526756363 0.08919570991252353 0.03693195586708829 0.08882135004727042 0.037152577539036336 -0.423944219606698 -0.09186833322236317
2640438000.0 -0.4263611315262661 -0.09883186413915021 0.09010247684585952 0.03428370684302503 0.08992759206890277 0.03459476827107096 -0.4214172344236703 -0.08974829506434517
2641500000.0 -0.4268559882758206 -0.09585495964167927 0.09083007856262997 0.03158883756141017 0.09090658835820468 0.03198809448720378 -0.41853129419345486 -0.0865737627821807
2642562000.0 -0.42741942394558585 -0.09298630622920548 0.09156876288083171 0.028893534859451703 0.0920010704290641 0.029188492319519588 -0.4159215851598824 -0.08244788883897343
2643625000.0 -0.42789653658137033 -0.08991248490346772 0.09230753566091095 0.026192514277048756 0.09293296131426552 0.026372347416954708 -0.413665109238905 -0.07768279940519784
2644688000.0 -0.4285940503277698 -0.08689321383994325 0.09294109676576716 0.02355732983959861 0.09377431101764168 0.023488355689235157 -0.41189583725682144 -0.07234288535845243
2645750000.0 -0.42926603232820404 -0.08384550561550612 0.093612886798556 0.020991609723736433 0.09446408501436539 0.02066278009594535 -0.4111077757276665 -0.06657415542143923
2646812000.0 -0.42979266160380675 -0.08086093622062086 0.0941036189063059 0.018321299170823657 0.09499752542551847 0.01779198304599222 -0.4109059306254674 -0.060897169760269
2647875000.0 -0.4305889368289446 -0.07797006855561564 0.0947607583241341 0.015677881223544153 0.09549665323439466 0.015041947182079528 -0.41190448637690313 -0.055240191518487886
2648938000.0 -0.43123300015375776 -0.07515050758739539 0.09523108015267319 0.013197132304999684 0.09586298425133412 0.012360281140374062 -0.4135882807450842 -0.05022002996108331
2650000000.0 -0.43198149163946326 -0.07227354415790638 0.09580872688571145 0.010664777201956636 0.09612369107911456 0.009740512453333702 -0.4157428514915729 -0.04545118890573322
2651062000.0 -0.43263279303600666 -0.06947497496772259 0.09628846189266212 0.008153532200898863 0.09637190723011259 0.007287040585870721 -0.4190110552645999 -0.041741771684922525
2652125000.0 -0.4335733334863079 -0.06661929723219107 0.0967461089961067 0.005619122258698013 0.09659122074470501 0.004725236733110057 -0.42222687205592985 -0.03891864329659543
2653188000.0 -0.4343270945057976 -0.06405749748961065 0.0967986548646304 0.003007777769315994 0.09674550314197693 0.0022405717829743436 -0.42563286422195085 -0.036976860675592325
2654250000.0 -0.4351281598018551 -0.061257229619610935 0.0971476488184432 0.0003436369406958794 0.09692435710182808 -0.0002847936277525243 -0.4282098531312347 -0.03594223072390739
2655312000.0 -0.4361512203972749 -0.05870548062920107 0.0973076697522886 -0.0021136652250778407 0.09697941914716858 -0.002811827818524724 -0.43020091399764937 -0.035765472292465426
2656375000.0 -0.4371001488614423 -0.05632589510440313 0.097406958200302 -0.004866046468515885 0.09704722034633655 -0.00533787475018763 -0.43161491302187577 -0.03529137002008226
2657438000.0 -0.43813936897961836 -0.05362539481410619 0.09725500166383605 -0.007510040324843235 0.0970243879290345 -0.007997345910906693 -0.43183937661100535 -0.03502029161729145
2658500000.0 -0.43881454859284225 -0.0510260407008296 0.09713988611569836 -0.010259841685763549 0.09689891603221376 -0.010660982714122504 -0.43106303345483943 -0.034393185244192416
2659562000.0 -0.4397432006906058 -0.048315909785654976 0.09684092732314689 -0.013205023635108067 0.09664557546923673 -0.013437905454018365 -0.42985626130698296 -0.033105258592322856
2660625000.0 -0.44033011599249744 -0.04598796391450417 0.09659550404804336 -0.016041786306901576 0.09641361029040604 -0.016175751962660523 -0.4278685052534829 -0.030733709042737846
2661688000.0 -0.4410617483175509 -0.043322515763993166 0.09596737970234866 -0.018838549117837517 0.09600962068490497 -0.019049495551016524 -0.425797770426717 -0.02753573584183795
2662750000.0 -0.44154152323006457 -0.04086941654043558 0.09547210624142378 -0.021750268810971144 0.09544103204256978 -0.021894325582999648 -0.4234257400798606 -0.023338002697401068
2663812000.0 -0.4419051165350329 -0.03807887998169949 0.09479217980185459 -0.024557095013336052 0.09484331948993228 -0.02472280286820252 -0.4217217294862428 -0.01869120835423175
2664875000.0 -0.4422307649923205 -0.03548376165725598 0.09419989346674028 -0.02730578066942702 0.0941398663800001 -0.02764550150015299 -0.4208744403813553 -0.013783833486090644
2665938000.0 -0.4424850947959121 -0.03263938878310759 0.09326153639687793 -0.03005414131800084 0.09341210308505037 -0.03034853330928078 -0.4202731954124116 -0.008103032917382392
2667000000.0 -0.442811856595576 -0.02990239133436289 0.09254057281464928 -0.03275095159750357 0.09256919864661753 -0.03310246138761886 -0.42049810283756955 -0.0029276577773692846
2668062000.0 -0.44298029208413375 -0.02694531417374783 0.09161918084819612 -0.035403532189516244 0.09170047561876611 -0.03581789392732382 -0.42147871753542643 0.0019945038144961948
2669125000.0 -0.4430341254868715 -0.02400294666882066 0.09065860566490036 -0.03804569495343453 0.09074003142461053 -0.03847721332141845 -0.423097013058911 0.006538705756166612
2670188000.0 -0.4429282684772 -0.020940205306737254 0.08962378728870271 -0.040608346214405164 0.08969033327757796 -0.04118093885879103 -0.4250949526021088 0.010533148410381696
2671250000.0 -0.4430152870547591 -0.01787405585804456 0.08856207187290853 -0.04309019732069692 0.08853446165918359 -0.04362536444036476 -0.42725252511340617 0.013566914466586356
2672312000.0 -0.4429613185926239 -0.014823245054474007 0.08745282654219551 -0.045599296604801616 0.08737111808335972 -0.04612297459105856 -0.42948707156110705 0.015680796187230183
2673375000.0 -0.44286606980970533 -0.011717600312397276 0.08617870430441689 -0.04802143236655572 0.08607016821710349 -0.048488050613693226 -0.4315801695148014 0.017115046665799372
2674438000.0 -0.443209338689225 -0.008531412970049973 0.08494649567097298 -0.05039642177414598 0.0848024842685301 -0.05088445354887695 -0.433063391761004 0.017936389574712653
2675500000.0 -0.4428302935850137 -0.005402394030092746 0.08347096075073791 -0.05286923799536987 0.08332530875405511 -0.053233111663064436 -0.43385303080043397 0.018128252581002802
2676562000.0 -0.4430393275097034 -0.002386036557709342 0.08191886863047564 -0.055174541943323246 0.0818212279340406 -0.05546222066013351 -0.4335939894118087 0.018291460052409565
2677625000.0 -0.44270240454482357 0.0009544391584285268 0.08035997095503791 -0.057395395111061474 0.08021140663875054 -0.05776980246299141 -0.43242624753615694 0.018264848574238934
2678688000.0 -0.44284880327950304 0.004023747985272123 0.07876012352314617 -0.05973608164505156 0.07854120080043933 -0.060096940368148936 -0.4300202158238557 0.018949852834115145
2679750000.0 -0.44291342967665975 0.007126104947215516 0.07694598049770526 -0.06189313198882237 0.07684219435366899 -0.06227567559625056 -0.42742590191619806 0.020291049157520186
2680812000.0 -0.442732623218522 0.010268534187861071 0.07519181071089552 -0.06412361078341855 0.07500591165447165 -0.06454231377626904 -0.42424642642768834 0.02272301460475548
2681875000.0 -0.4426333188397916 0.013284474320126636 0.07331313248899658 -0.06651670655506926 0.07314634247592776 -0.0668546218609713 -0.42114936747183873 0.025869471596797197
2682938000.0 -0.44230387365086854 0.01637285258901093 0.07133408125664471 -0.06850911180071832 0.07122690208773648 -0.06900789780963777 -0.4180192618085439 0.029743675845982375
2684000000.0 -0.44219481039319736 0.019576357349287664 0.0692790789416641 -0.0707682991960214 0.06916165483908684 -0.0712535461724628 -0.4155463603828288 0.03453210547047066
2685062000.0 -0.44198650473557105 0.022599402452700597 0.06733073905093319 -0.07283784796689521 0.06705178096389405 -0.07338818331174557 -0.41403691627141703 0.03968334204980685
2686125000.0 -0.4415942848914292 0.025752737481850713 0.06530913040340959 -0.0749510854676849 0.06488583484235265 -0.07543122829638232 -0.41325807322299335 0.044661414489033456
2687188000.0 -0.44121813774724844 0.028516538430988173 0.06327218683312709 -0.07693679603851507 0.06272962882827704 -0.07741140199581056 -0.4132493582406068 0.049651979354701094
2688250000.0 -0.4406019332255805 0.03169874179590396 0.06104482342913314 -0.07896254422515306 0.060471147524369676 -0.07934062890665841 -0.41394065462936935 0.054005759835933524
2689312000.0 -0.440060530638424 0.034478153874729744 0.05891279312971897 -0.08091365230338632 0.058228919446349975 -0.08101759371174214 -0.41493503807780535 0.057798490547873206
2690375000.0 -0.43952748959141413 0.03742917696629837 0.056640441291047346 -0.08266417029658339 0.05610259651566956 -0.0827905550882728 -0.41660534849958836 0.06070840230469359
2691438000.0 -0.4387300924869031 0.04026869291738717 0.0542294444624141 -0.0844798099682086 0.05378574388419439 -0.0843106576763394 -0.4179205738730765 0.06281317011776409
2692500000.0 -0.437818098724685 0.04340171759332331 0.05199539414512007 -0.0861444516959772 0.05158410396897255 -0.08583074871801324 -0.418926806731997 0.06411840971764396
2693562000.0 -0.43685311915100494 0.04626006646641542 0.049517304926926235 -0.08769221305480628 0.04937203460400017 -0.08726450495711932 -0.4193148742182902 0.06433356542349486
2694625000.0 -0.4357313504947714 0.049290780747555454 0.04689562704386407 -0.08895081588534703 0.047040332008019554 -0.08872978384406018 -0.41891273441326865 0.06448919167271326
2695688000.0 -0.4344842200446708 0.052230727962668276 0.044422407375476085 -0.09018872055821675 0.04466249487505807 -0.09007027799422203 -0.4168713784031945 0.06393209963633928
2696750000.0 -0.43331552336506657 0.0552643491226532 0.04171980512974668 -0.09130628085395459 0.04226945319690259 -0.09136238035006589 -0.4146227136908591 0.06381928405679983
2697812000.0 -0.4319624673687005 0.058295040860342734 0.03907440705869354 -0.09228373011999524 0.039420687608716594 -0.09271304857657624 -0.4111909338979287 0.06388316295551202
2698875000.0 -0.43025450943538174 0.061249818975833495 0.03633730503978281 -0.09313012572899992 0.036667327262671974 -0.09385336471989382 -0.40665267992894494 0.06427189830417854
2699938000.0 -0.42890421956903063 0.06433275742317839 0.03357548966205243 -0.09397873887311987 0.033736119638104245 -0.0949270123442808 -0.40169099364197025 0.0659106970287702
2701000000.0 -0.42747600114935236 0.06707977303287664 0.03076139768062486 -0.09478076938920443 0.030677246466730274 -0.09586414578375928 -0.39633590591889845 0.06832960968130522
2702062000.0 -0.42588110168114235 0.0699843876797968 0.02798110653968483 -0.09553625893433287 0.027583946146392098 -0.09657235833288325 -0.39135602095198074 0.07189044082241673
2703125000.0 -0.4243506156716448 0.07279007844015306 0.025039389510141653 -0.09624005049525758 0.02440464905685335 -0.09721677479468045 -0.3860364805293833 0.075901327529657
2704188000.0 -0.42285930989882675 0.07565611663923265 0.022461691787889322 -0.09677007452545451 0.021334188379836704 -0.09769563185391276 -0.3825290487058125 0.08061579755239777
2705250000.0 -0.4215239755083971 0.07851535542048661 0.01946716235335327 -0.09734672921039367 0.018292050747446734 -0.09800871572770208 -0.3793807101164956 0.0858994310942585
2706312000.0 -0.4199564654268286 0.08116138811131837 0.016579916117084734 -0.09805100875190874 0.015418601373601952 -0.0982221580547045 -0.37748020604217847 0.09136297952097411
2707375000.0 -0.4186786323410022 0.08382004171925159 0.013775889123997149 -0.09867281067349191 0.012410736832396995 -0.09856230592022487 -0.3769422372435747 0.09672799140749938
2708438000.0 -0.41717214436515665 0.08664028321886277 0.01089443495494998 -0.09915537924286952 0.009670314781608617 -0.09876268042215731 -0.3768611671368875 0.10091409128363427
2709500000.0 -0.4158564447183553 0.08927299718197632 0.007896888177012956 -0.09962939994659363 0.007072398446366333 -0.09907819699225381 -0.3775692395534164 0.10485229909470015
2710562000.0 -0.41443291875416793 0.09187927790971026 0.0051557518655171684 -0.10022151624199921 0.004500628051948903 -0.09937196090648338 -0.379154292011841 0.10764234029299442
2711625000.0 -0.4128190564962831 0.09453509177361885 0.0022616476817190548 -0.10051012658765439 0.0018848614637944569 -0.0997432430308925 -0.38003637854589967 0.10963290012371275
2712688000.0 -0.41124209834982073 0.09735572669800721 -0.0008255759612164498 -0.10059696553448891 -0.0008383227909583992 -0.10009508117648215 -0.3811745945449829 0.11096453198442666
2713750000.0 -0.4095596263710567 0.09984419657894548 -0.0038331631554334063 -0.10087444453004545 -0.0036602384305853956 -0.1004148674687767 -0.3819349363656936 0.1116138390232989
2714812000.0 -0.40803977646716844 0.10227315811400815 -0.006886300976589305 -0.10073811254391805 -0.006395163149054365 -0.10061051630525113 -0.3813878441871855 0.11196293153364135
2715875000.0 -0.40631079721134994 0.10492431804973518 -0.009837514585718746 -0.10073120146727278 -0.009411805716843948 -0.10071424033084209 -0.38023351783472603 0.11203086406442629
2716938000.0 -0.4045986415684271 0.10713402494682583 -0.012892082985687215 -0.10042677365732817 -0.01245108540077336 -0.10071818480753347 -0.3781161943797519 0.11186698157616108
2718000000.0 -0.4028556830633776 0.10945221020774341 -0.01583812486997878 -0.09989334927095658 -0.015684834978152772 -0.1004238740077005 -0.3751595530926653 0.11204285206902068
2719062000.0 -0.40115403107912123 0.11186126569316902 -0.018850381063266752 -0.09923063238857806 -0.01880723066900332 -0.10005812089758793 -0.37152510369458897 0.11300942561743743
2720125000.0 -0.39937245920751047 0.11422076267660863 -0.021699008683898083 -0.09843876023622566 -0.02203934267242095 -0.09919169415157718 -0.3672301037823377 0.11490058928620253
2721188000.0 -0.39746756091338836 0.1163921238622473 -0.02447836455575156 -0.09783450058444546 -0.025197333146748643 -0.09846190083327451 -0.363061779242419 0.11724491604922846
2722250000.0 -0.39578826343435436 0.11852656437007501 -0.027317295614268062 -0.09672261558010113 -0.028257050869095166 -0.09725973115782256 -0.3585080222549769 0.12019913572592913
2723312000.0 -0.39393519268745847 0.1209079232025261 -0.030019972022447786 -0.09569902590457605 -0.031137788162708013 -0.09605620109553038 -0.355050218495962 0.12456546878345987
2724375000.0 -0.3923296137462466 0.12322517066522663 -0.032717730062621145 -0.09472493340489312 -0.033832256572236784 -0.09477403919382915 -0.3522285574623632 0.12890573105365002
2725438000.0 -0.390446633144996 0.12546953428876148 -0.03538785628562702 -0.09360272734423793 -0.0363536094895056 -0.09349106436953859 -0.3496005077966718 0.13320710093451837
2726500000.0 -0.38845164291765827 0.12786006541420836 -0.03802451162401572 -0.09260592823218144 -0.03883438316108897 -0.09231455758793873 -0.34882435567928116 0.13728940227815253
2727562000.0 -0.3865617644531644 0.13014641039489588 -0.04059230469300762 -0.09156924748406017 -0.041269983026245946 -0.09117554287504759 -0.3489614272491932 0.14126152377633125
2728625000.0 -0.3846006371501613 0.13249663773827974 -0.043136188567204393 -0.09067493864624077 -0.04367781368321055 -0.09003931021978805 -0.34948735759622984 0.14457754974436438
2729688000.0 -0.3826414791649249 0.13459522463137683 -0.04570430660653132 -0.08951265745549025 -0.04604546059000261 -0.08899186633530669 -0.35048473358990573 0.1472355541536801
2730750000.0 -0.38064863792902864 0.1369178718872212 -0.048277080176074516 -0.08839185678585136 -0.04858620172600682 -0.08788689794780967 -0.3521968286964645 0.14793166635761174
2731812000.0 -0.37872136178897586 0.13897915400961422 -0.0509791442182123 -0.08719088988822625 -0.05117455717683787 -0.08674515143735238 -0.35360121646644094 0.1489437431937874
2732875000.0 -0.37692837129113094 0.1408616968789426 -0.053623090677354955 -0.08577042516969748 -0.05378419524243339 -0.08558605069624169 -0.3547516662347675 0.14898027242534784
2733938000.0 -0.3750552246974633 0.1428467042968116 -0.05614694359811855 -0.08441518933192434 -0.056456379135375045 -0.08420565243368205 -0.3552022749905915 0.1478655098908064
2735000000.0 -0.373345978599033 0.14488992946554854 -0.05875860007119378 -0.0828542082884588 -0.059160986677924444 -0.0826184425844348 -0.3552981611411024 0.1469610619525366
2736062000.0 -0.37160922411034447 0.14659399275226964 -0.061417197326642275 -0.08110363010872937 -0.06188179625585836 -0.08080903484343586 -0.35436806631360596 0.14568255887008763
2737125000.0 -0.3699726475570709 0.14845241545484483 -0.06416218610268065 -0.07924127755893301 -0.06439435326030019 -0.07898507655303322 -0.3526674473336425 0.14472123771391357
2738188000.0 -0.36833313795754413 0.14996309585059564 -0.06651572073726573 -0.07728979029398875 -0.06685143949574254 -0.07693829560231512 -0.35007801180537446 0.14388342687273253
2739250000.0 -0.3666609313620833 0.151657186164831 -0.0689668330293594 -0.07517247263119457 -0.06919631898412398 -0.07479989286527772 -0.3470633547534084 0.14380123839113843
2740312000.0 -0.36509419287649364 0.15300308507465163 -0.07125193041298433 -0.07286188395732913 -0.07135071315914557 -0.0725400170448585 -0.34357336593394106 0.1444853443993939
2741375000.0 -0.3632765489399613 0.15478676732560942 -0.07335105865939893 -0.07050266396750113 -0.07337896971421404 -0.07033061937413128 -0.3398861380843137 0.14586254202826385
2742438000.0 -0.36158317348032726 0.1560734746994432 -0.07538213536171526 -0.06836592572364532 -0.07541876496723866 -0.0680772494260619 -0.3367858596557123 0.14801063806041023
2743500000.0 -0.35967822909826197 0.1576607392979665 -0.07717381851623863 -0.06581561474483606 -0.07729305261510931 -0.0658185927726683 -0.3339159854515959 0.15069287938135142
2744562000.0 -0.3580214498704326 0.15888941337109397 -0.07888879837209783 -0.06366233203765652 -0.07909769806841246 -0.06358678271660403 -0.33174738073800225 0.15365877381595167
2745625000.0 -0.3560049226756733 0.16004256073385736 -0.08056063782308664 -0.06138414232127759 -0.08090181603349775 -0.06142622785216852 -0.33048247360458033 0.15649864213458745
2746688000.0 -0.3541589276139666 0.16132310713447737 -0.08234246408020654 -0.05916902784462209 -0.08281163592622608 -0.059180567088395315 -0.33017600730725744 0.15920790955909972
2747750000.0 -0.35238730347274483 0.16242737051183423 -0.08410126836459537 -0.056846088774095825 -0.08457893981336956 -0.05691563612565148 -0.3304120748310117 0.16145424597298808
2748812000.0 -0.35056370188440605 0.16335292829117348 -0.08570725127329461 -0.054578863217314526 -0.08647320162207282 -0.05455239363805165 -0.3311103567719921 0.1629558894363955
2749875000.0 -0.34875549761476615 0.16444568790834546 -0.08730298543622782 -0.05228902086297139 -0.08813815368638978 -0.05208198483970883 -0.33203336250693805 0.16353788949673065
2750938000.0 -0.3469217225067491 0.16525196340195764 -0.08875286975820496 -0.04983134203907056 -0.08969793670764642 -0.04940075950103313 -0.3328646697569101 0.16347353321616356
2752000000.0 -0.3450351431587614 0.16627323347525114 -0.09040636058760507 -0.047406035361530714 -0.09120046782740474 -0.04679102466784876 -0.3336098186273423 0.16268211424383558
2753062000.0 -0.3433407339865939 0.16713673836359827 -0.09194684176636134 -0.0448845238067963 -0.09243494328787331 -0.04395173471627782 -0.33336800672469236 0.16131233832964578
2754125000.0 -0.3415052656647442 0.1680763205731956 -0.09326423719288846 -0.04203260189262025 -0.09369090920632701 -0.04110073658618181 -0.3325781588491308 0.15971162533530986
2755188000.0 -0.33981753932381603 0.16902260911409323 -0.09453798229330972 -0.03926185953484317 -0.09470601138438936 -0.03830442929924038 -0.3310501403023257 0.15784835905087283
2756250000.0 -0.33803041384173393 0.16984484757820503 -0.09566885589284192 -0.03620000607647154 -0.09559959732023608 -0.03535076043270261 -0.32861725429825084 0.15627470890710973
2757312000.0 -0.3365026469676019 0.1708307823695257 -0.09666446371989747 -0.03324091517098777 -0.09638883262281772 -0.03248170483749039 -0.32542883345584395 0.15507811267353033
2758375000.0 -0.33484329571203286 0.1716321745943976 -0.09758901205958433 -0.03000076981284966 -0.09718234565998358 -0.029602554101033768 -0.32163632027778644 0.15449071021508054
2759438000.0 -0.33347455033546 0.17254994998958081 -0.09842540648573309 -0.026973545899425085 -0.09802628183897982 -0.026715341940598193 -0.317685450449037 0.15456793697358123
2760500000.0 -0.331985397182034 0.17341087886709466 -0.09893272925874985 -0.023877176710964693 -0.09875899135833344 -0.023931091770258518 -0.3135280528174056 0.15551057537658625
2761562000.0 -0.33060239470533564 0.17424684748146405 -0.09959526548674408 -0.020787749661581582 -0.09949359375475778 -0.021002494326125304 -0.3097086957143883 0.15721071514782223
2762625000.0 -0.32919053162632533 0.17505885034294533 -0.10002434191342462 -0.01755278699008051 -0.10013963343528165 -0.017931064626655373 -0.3064619108444822 0.15940640063368786
2763688000.0 -0.328083166639585 0.17567209344929355 -0.10039786187422399 -0.014715437108806337 -0.10072357932142108 -0.01493579900651131 -0.3037615769337805 0.1622590840084996
2764750000.0 -0.3268710273637779 0.17644409841710912 -0.10066495604858765 -0.011683545200921578 -0.1012486101513655 -0.011745081026919986 -0.30217862539892376 0.16529662668952824
2765812000.0 -0.32580448714209526 0.1769654999458994 -0.1010165872163136 -0.008859756742434232 -0.10171357553759364 -0.008638360926756758 -0.30148707177944495 0.16813396889619642
2766875000.0 -0.3247105851175637 0.1777250301434714 -0.10127240825952662 -0.005988956946109648 -0.10202937669861234 -0.005449313101304065 -0.30155522183978395 0.17063913407300418
2767938000.0 -0.32369650395906235 0.1783649405843307 -0.1015271767392788 -0.0031566021715189936 -0.1021845621483928 -0.0023321221330491883 -0.30225309503513054 0.17283377241487372
2769000000.0 -0.3226058440164436 0.1788000608419391 -0.10172861453009216 -0.00025493065858340564 -0.10222705361212531 0.0007330443848826937 -0.30347836715783033 0.17410526618123046
2770062000.0 -0.32147140045810224 0.17913173649115677 -0.1017596899986329 0.002677799175865601 -0.10209977803817545 0.0036626359520147947 -0.3049431826904854 0.17447940728170636
2771125000.0 -0.3204892845503037 0.1795248656032559 -0.10187668100238495 0.005665198800242937 -0.10191472056362046 0.006658059438839447 -0.3060411332260916 0.17461379299758864
2772188000.0 -0.31948430943230427 0.17972876097784676 -0.10189713366272865 0.00852712598953325 -0.10159617531349209 0.009388873048547257 -0.30674818828752104 0.17354026582564247
2773250000.0 -0.3182156729657656 0.17993473942111549 -0.10182577404214604 0.011550507906869999 -0.10123366935439261 0.0122544935386733 -0.30674923156991185 0.1724940074842043
2774312000.0 -0.3173405531471566 0.18018279652266858 -0.10131907436921495 0.014636384757728887 -0.10094304918640996 0.0150467602052931 -0.306061083590412 0.17079922724236238
2775375000.0 -0.3160391008020002 0.1805459233104785 -0.10089445519400536 0.017639486346006365 -0.10038694273855536 0.01796873144306059 -0.30420958791564573 0.16982103031998005
2776438000.0 -0.31496839154099193 0.1806640640948673 -0.10022866729894128 0.020705883776696826 -0.09980319465404805 0.020780273985612593 -0.30183391648362673 0.16836723827262373
2777500000.0 -0.3139484126027745 0.1808760238819929 -0.09941931903564323 0.023792885077131384 -0.09914817621288304 0.023792072350868644 -0.29844030494179147 0.16792716080780712
2778562000.0 -0.31280119800025197 0.18094261520131413 -0.09856715552294157 0.02674788758073934 -0.09847542890816254 0.02683021429057671 -0.2950219388461624 0.16819376934830135
2779625000.0 -0.31162423556638663 0.18114130389237512 -0.0973822274073748 0.029768225650011124 -0.09747718335312039 0.029858226649752996 -0.29085260480986114 0.16878601673826113
2780688000.0 -0.31085875736543395 0.18139974271226011 -0.09622137361172282 0.03269326960585484 -0.09644905769691492 0.033005984286719754 -0.28732181203012574 0.1705497890055477
2781750000.0 -0.3096359549743907 0.1817118181368531 -0.09492007618327614 0.03560855753079414 -0.09527996895967723 0.03609702400672875 -0.2835474958661602 0.17285905800877133
2782812000.0 -0.30857552669633315 0.1821521930337596 -0.09362437404314719 0.03855332315588273 -0.09389761978923368 0.039014733100102006 -0.28072895923107216 0.17576073030819933
2783875000.0 -0.30749527286842365 0.1824599327325036 -0.09223877301345988 0.041298373011529124 -0.09247318874292668 0.04187239101932539 -0.278694431013556 0.17908659718834924
2784938000.0 -0.3064255483048755 0.18292989808582824 -0.09070216705054905 0.04416585222002789 -0.09084431338080967 0.04473232398600067 -0.2773824598005124 0.1826005146476653
2786000000.0 -0.3052455747990778 0.18352552680742393 -0.08941319021485496 0.04677961525026455 -0.08927372863430966 0.04735463898025601 -0.2773198504974927 0.18603896788472005
2787062000.0 -0.3042398589242096 0.18388932011135553 -0.08777627083400814 0.04936511759734121 -0.08769035233761055 0.04993924728106955 -0.27843759194198403 0.18916181569569954
2788125000.0 -0.3034365552316725 0.1844774855029513 -0.08632558272526414 0.05184009232998234 -0.08601557111684834 0.05237231071579424 -0.279456593303338 0.19112965144875266
2789188000.0 -0.30254050238359037 0.18505317287519027 -0.08481336103460786 0.054321425291617424 -0.08435464462930391 0.05481994974322603 -0.28155720333723605 0.19306653264667156
2790250000.0 -0.3017448451245203 0.1855313549620946 -0.0831677884625697 0.056616924828452445 -0.08285332863145031 0.057128705127900165 -0.2834308617669072 0.19383964568639134
2791312000.0 -0.3011216670882505 0.18629405157759757 -0.08155227227410168 0.05912607246085448 -0.08127041230795565 0.05937067525394951 -0.2853596262303425 0.19382553536095054
2792375000.0 -0.30043608584661313 0.18684855570828715 -0.07981552715354572 0.06140985121311986 -0.07966164566829019 0.061704992314396724 -0.2866795023393635 0.19304648920918774
2793438000.0 -0.29959980000830105 0.18774590522433748 -0.07812148426186269 0.06372758956161964 -0.07790050650227642 0.06414106090144306 -0.2875915581701244 0.1921490098810735
2794500000.0 -0.2990918986338648 0.18854775509804259 -0.07620808007665597 0.06594177027654911 -0.07600273400594829 0.06641382989587875 -0.28759608754792465 0.1908069679879007
2795562000.0 -0.2984082872725236 0.1893446773696809 -0.07421150046769193 0.06827468575219679 -0.07409279441500904 0.06882166216806708 -0.28659086299238723 0.1898500889730904
2796625000.0 -0.29775423835255954 0.19033179332358025 -0.07230093851244083 0.07062848730648374 -0.0719749677467466 0.07119579359547698 -0.2852913088776744 0.1889590499525457
2797688000.0 -0.29714967483735144 0.19093830212834026 -0.06997229848580608 0.07278314849826796 -0.06962553716029786 0.07336295106157018 -0.28294764781064374 0.18859633683142593
2798750000.0 -0.2964337784115819 0.1916543323966311 -0.06771807219648864 0.0750269825183017 -0.06722805477441396 0.07549386168748376 -0.28040715341101585 0.18883030746203333
2799812000.0 -0.2957749793507005 0.1923098879837357 -0.06523886338172559 0.07708187249894805 -0.06464645489525361 0.0773902731771063 -0.27786732712741224 0.18976016754459196
2800875000.0 -0.2949981430698555 0.1929910359074003 -0.06268183646589796 0.0791302479788816 -0.062058975747683265 0.07928414391889582 -0.2750493692315116 0.1914371678616467
2801938000.0 -0.2944113078844284 0.19382955809795197 -0.0601170133683592 0.08092361720898666 -0.059460502306796954 0.08085078239740116 -0.2727898778314422 0.19366715485247654
2803000000.0 -0.2937468937493368 0.19437167621286391 -0.05744468845941094 0.08260837240624166 -0.05690266559757819 0.08240815489416903 -0.27095042492110116 0.19634246613128942
2804062000.0 -0.2929875025274198 0.19512161508809273 -0.05459783169063969 0.08426619641584367 -0.054349145727907985 0.083793811816944 -0.2700165148520358 0.1991425586094062
2805125000.0 -0.2924228589513266 0.1958940068191996 -0.051837314117282644 0.0856656995829554 -0.051990233672613406 0.08517187544593859 -0.26953056549628707 0.20239360940095427
2806188000.0 -0.29187757103620043 0.19658138771978298 -0.04921098170104618 0.08691071992163692 -0.04956364060686771 0.08652682742898199 -0.27037490548026466 0.20496112059412935
2807250000.0 -0.29111509848433315 0.19748394097972183 -0.04654786918107366 0.08803890374447211 -0.04710401234075333 0.08785756639608185 -0.27147503935329087 0.20744705131225843
2808312000.0 -0.29032493459741227 0.19862014206674206 -0.043944753022950186 0.08911446367233894 -0.04454529084170432 0.08915891542263397 -0.2729088485684986 0.2089866627608055
2809375000.0 -0.2896873748141093 0.19953020406593575 -0.041249133345638705 0.08999035368170306 -0.041985026160640086 0.09053955576278054 -0.27505824289651065 0.2098961938611695
2810438000.0 -0.28888452177668766 0.20049093249970196 -0.03884072685437717 0.09075557334778328 -0.03930455882116017 0.09176417976381177 -0.27630269959309633 0.20960822263440484
2811500000.0 -0.28793750609248436 0.20149105313175214 -0.03622801494663308 0.09159971714269544 -0.036458998664912486 0.09283947682284302 -0.2775544847413658 0.20913236871380186
2812562000.0 -0.28728624902917616 0.2026727533889843 -0.033762999539890946 0.09238505087364174 -0.03353802487334487 0.09385060942403663 -0.2782690398494389 0.20758372356407187
2813625000.0 -0.2861579288587574 0.20383199261900875 -0.031245324554512795 0.09329580638677683 -0.030508852503604883 0.09455919698551507 -0.277892919173382 0.2057482666966071
2814688000.0 -0.2854251720261381 0.20488608158412464 -0.028666433366052724 0.09401598161696093 -0.027449764206469156 0.09506752743579944 -0.27647653827603524 0.20394333631584768
2815750000.0 -0.28455031663835956 0.20586496248099442 -0.02587401542621595 0.09467742033251826 -0.024468039119031268 0.0954321376427464 -0.27415095405147305 0.2024363041797089
2816812000.0 -0.28367245695141685 0.20700195176100705 -0.02297661940140017 0.09542909833952613 -0.02150363172899908 0.0956125471562254 -0.27132523573628364 0.20136198492085994
2817875000.0 -0.28271386975729035 0.20809332713612996 -0.020150605824993537 0.09588633510348289 -0.018641007013083015 0.09561305222457456 -0.267897273183658 0.20123541494169184
2818938000.0 -0.28203823638528636 0.20936950866192042 -0.017166719182962975 0.09646526942707742 -0.015780901546279893 0.09579237653418955 -0.2641277151056107 0.2014718419451612
2820000000.0 -0.28125429417657116 0.21045111594507782 -0.014062428502326313 0.09693162412158285 -0.013103905233688455 0.09583033323767143 -0.2603506903305142 0.20253300047406808
2821062000.0 -0.28045892331170935 0.21176288314426386 -0.011053963542745173 0.09726570281729559 -0.010533524199323996 0.09598312155381311 -0.2567740468695736 0.20452596212235483
2822125000.0 -0.27972076077680674 0.212790680855968 -0.007837409708458799 0.09737385165372296 -0.007927208552728783 0.0961559979232531 -0.2541682618292675 0.20733616710054392
2823188000.0 -0.2789577022148336 0.2142928269703823 -0.00471723839760546 0.09735508963556226 -0.005275291340880318 0.09644131386274556 -0.2522410053257237 0.21048251446767166
2824250000.0 -0.2779452935257299 0.21559744869484812 -0.0016659195171698058 0.09716914640108004 -0.0026665036459833508 0.09676681285928222 -0.250979518169852 0.21371047318525127
2825312000.0 -0.2772006855712215 0.21694406890392048 0.0013696251509048524 0.09691412026451657 0.0001618776538822121 0.09699565558303819 -0.25062289562220613 0.21684884371909166
2826375000.0 -0.27616317187418593 0.21815095095828985 0.003999285115210088 0.0964876243949732 0.0031509414102935764 0.097147966307595 -0.251042736687075 0.2199451930072422
2827438000.0 -0.2753045352011978 0.21957055820008292 0.006857138042534792 0.09627507525166061 0.006101238568613736 0.09713723163272477 -0.25184821204980806 0.22258669845564263
2828500000.0 -0.27445544237003183 0.22079046902205068 0.009646025912770773 0.09583106892636609 0.009218958854025664 0.09705100745257302 -0.2530937882742966 0.22456004867119775
2829562000.0 -0.27355403620049396 0.2218306591516275 0.012069924134787113 0.09526636368469925 0.01218545319644464 0.096698554658181 -0.2542776843470357 0.22581223250422805
2830625000.0 -0.2724708925447579 0.2229699848035114 0.014683275826132249 0.09462832819306988 0.015230353179162283 0.09612536990661331 -0.2553476205677418 0.22619163339334164
2831688000.0 -0.271834636370554 0.22408158149851623 0.017002555875000044 0.09412478889461078 0.018207105573387082 0.09524207414126054 -0.2552218783265341 0.22612488000875144
2832750000.0 -0.27107669737946977 0.22516148445095263 0.019370044503277804 0.09351706725167022 0.0210007159505874 0.09433524535728285 -0.25569947132894383 0.2254073384739848
2833812000.0 -0.27040033870061125 0.2261231193674764 0.021847467860726152 0.09291894924944981 0.0235720801258851 0.09327349261882067 -0.2543368024322485 0.22436783089966617
2834875000.0 -0.2696376828088292 0.22713735662590145 0.02429502227236664 0.09221367455540225 0.026023926038394957 0.09218129787255215 -0.2523003474869506 0.22303351190419057
2835938000.0 -0.26885217315655446 0.22824382105816238 0.026834926428149546 0.09147807255560972 0.028273278910566718 0.09096281110461273 -0.24940863050481052 0.22203433719434415
2837000000.0 -0.26802629910348374 0.22924327330843342 0.029288933293464704 0.0906192011230824 0.030376623869158348 0.0896560635353546 -0.24584317960826857 0.2219394246004901
2838062000.0 -0.2673043215041831 0.23040599369092676 0.031831086201832365 0.08979007522285058 0.03254052391936484 0.08849660757739919 -0.24182013710654313 0.22183433368004005
2839125000.0 -0.26660023015583506 0.23171792090766424 0.034522814317044646 0.08850578398923174 0.03471927021719846 0.0874655443130111 -0.23756465691224363 0.2229069260013503
2840188000.0 -0.2657593592027103 0.23251534493745085 0.03705065935665297 0.08750678038201044 0.03696198919622817 0.08645302032684503 -0.23383461698203126 0.22462596846812935
2841250000.0 -0.26502692901092045 0.23353965422049755 0.039507996503784344 0.08618423608555724 0.03926643917690308 0.08539308694769057 -0.23043308560653727 0.22702413501119717
2842312000.0 -0.2641738541617528 0.2347030350374452 0.04199614555643406 0.08484859213424562 0.041575530181484674 0.0845005821596311 -0.22794266299957386 0.22979788625303071
2843375000.0 -0.2634307451476247 0.23584177446510368 0.044697207024407375 0.0834704086878235 0.04421829139328163 0.08333713374461668 -0.22609576368967113 0.23365707320776224
2844438000.0 -0.2626829109136459 0.23679809818183795 0.04712803650827727 0.08188225980702817 0.04674938824327526 0.08214190583290272 -0.2250936662384922 0.23708277566031502
2845500000.0 -0.26186769596093395 0.23778930805224144 0.049332178824006395 0.08028748332180394 0.04928637782694721 0.0807142732365547 -0.22500360770148922 0.24000269127697194
2846562000.0 -0.2613112600260135 0.23880393280681625 0.05173822664052686 0.07875276794054267 0.051845424553371766 0.07917814101424132 -0.22560722510386463 0.2428610603499723
2847625000.0 -0.2605643228254284 0.23984562373276908 0.053967018180782 0.07703999485877776 0.05431949924869376 0.07752938759364031 -0.22701186253314026 0.2456499978327702
2848688000.0 -0.2600672525462368 0.24072383083793797 0.05609073677100865 0.0753555997609868 0.05666570689875467 0.0758304904517865 -0.22860881262383823 0.24755031954833182
2849750000.0 -0.2593619271782245 0.24167755889823667 0.05814667785279509 0.07365942719366199 0.058893975240973236 0.07391195692016106 -0.2297607405992144 0.24838629785699504
2850812000.0 -0.2588628339856811 0.24267200373891631 0.060245159970797324 0.0717269311504599 0.060954262423570826 0.07184138100928501 -0.23131044165444706 0.24923638578240317
2851875000.0 -0.25788882027528925 0.24368061714260544 0.06207984267817517 0.0699895772825491 0.06286768234933876 0.06984634315749576 -0.23231256047955834 0.24885710861897142
2852938000.0 -0.2574599883225181 0.24464247998950148 0.06398494763670803 0.06818080942340723 0.06469705063065734 0.06782940424210934 -0.2327003224076695 0.24792885507605913
2854000000.0 -0.2567627150560319 0.24565548276982083 0.0658863782202329 0.06633459489891157 0.06635887850761067 0.06592484400961829 -0.23202592468465197 0.2470513671004494
2855062000.0 -0.2560739769006365 0.24659696031304046 0.06751875683851033 0.06456182288521252 0.06801850057434192 0.06403140367435418 -0.2310174395894393 0.24613750050050914
2856125000.0 -0.2553411895506444 0.24734259138111203 0.06928383820868912 0.06253553730528297 0.06963834745546611 0.06202766281481434 -0.228974914513711 0.2454480193171748
2857188000.0 -0.25464127029279027 0.24829431607264962 0.07097907486951485 0.060513415327244 0.07130392909668207 0.060083131442712226 -0.22655830031568444 0.2449571472643786
2858250000.0 -0.25372925419348835 0.24903751612126238 0.07260434218212078 0.058508460510634866 0.07288376679546676 0.05809795730430118 -0.22411845402908273 0.24531272594434225
2859312000.0 -0.2530125223848851 0.2497430084903536 0.07445336363761285 0.05631508359289985 0.07454690976786038 0.05608282003618586 -0.22159975881658203 0.24587216217427593
2860375000.0 -0.25212146946059966 0.2506138807067878 0.0759429666300848 0.05413583285689081 0.07621135630467793 0.05396954396638337 -0.21887280724525274 0.2474766725733204
2861438000.0 -0.25145048189359476 0.2512151901503806 0.07749933807605058 0.05182844993351419 0.07781082902127709 0.05176071837938117 -0.21688129575124737 0.24897430621486857
2862500000.0 -0.250643949260746 0.2519996837032142 0.07909045619145794 0.049780607925667485 0.07931107470312908 0.04940197339381202 -0.2152825722737547 0.25096565150926237
2863562000.0 -0.24989846281693975 0.25264324236054303 0.08039883863467559 0.047238972486303696 0.08077811742916513 0.04694016638808277 -0.21441685272005404 0.25317778849664363
2864625000.0 -0.24902419965324465 0.2534285836269137 0.08202081149808589 0.044948430943811006 0.08210842998274269 0.04446622413181302 -0.21438387271225037 0.25512478891648177
2865688000.0 -0.24819266153228775 0.25421601996199633 0.08325832183428591 0.04255996645553047 0.08337243696043861 0.04196019466245177 -0.2145972237014657 0.2568488516477376
2866750000.0 -0.24751930414593115 0.2550333427657709 0.0843569562287475 0.039984324230053735 0.08444343730252017 0.03948045420948708 -0.2153860516521284 0.25827730557853107
2867812000.0 -0.24641540474595197 0.25581304550533635 0.08542148521646757 0.03738473799578611 0.08542584062082073 0.036986604357120575 -0.216620367123075 0.2588816388650918
2868875000.0 -0.24570278447915872 0.2564531570011404 0.0860797599753671 0.034915291341257884 0.08625774289151758 0.03456351728826517 -0.21762869832729506 0.25884661332206355
2869938000.0 -0.24475930634315515 0.2571143926248009 0.08712091345609031 0.03243348598315474 0.08705529527258384 0.032077593949558184 -0.21865478337157573 0.25812120245600867
2871000000.0 -0.2438361482238132 0.25799941797208065 0.08773495576905742 0.029744480908046125 0.08778762301142123 0.029583842406159275 -0.21914055545065309 0.25685428720298004
2872062000.0 -0.2429815307766584 0.2586159594046143 0.08832524347876558 0.02705507905789509 0.08843597038308315 0.027079741951000363 -0.21905865436220137 0.255079695785963
2873125000.0 -0.241999647317902 0.25946371305545207 0.08885136606346683 0.024444475885388173 0.08908943855869006 0.02452515617553628 -0.21816657579558385 0.2531985708450484
2874188000.0 -0.24107968257837906 0.26008092399188304 0.08945280035686225 0.021856241838320054 0.08964580184666134 0.021935468086164266 -0.21661054757618348 0.25126545029270786
2875250000.0 -0.24020863590072242 0.26072910509483954 0.08992324765328409 0.019227201217243327 0.0901535839539887 0.019268147697316225 -0.2143173339017781 0.24967840925149806
2876312000.0 -0.2393996395382625 0.26140599988511953 0.09031732334094209 0.016643109065759998 0.09063518779581672 0.016466573812244777 -0.21164561210250063 0.24851089871860665
2877375000.0 -0.23868906222877764 0.2621312314749805 0.09057144423975184 0.014095571831814991 0.0910674794242843 0.013703303449295655 -0.20876117095880387 0.24792655330962896
2878438000.0 -0.23787160707010843 0.26262053199303625 0.09086895906931279 0.011341205027862922 0.09129690451920361 0.01089161841021999 -0.20588880233605913 0.24789662367955081
2879500000.0 -0.2370138651273244 0.26322572978565556 0.09119979063615319 0.008734118690955849 0.09143038184694569 0.008155179036120593 -0.2031298227716828 0.24868255315071391
2880562000.0 -0.23628871464349593 0.2638125154119351 0.09132491005520435 0.006160719721073831 0.09161814237285394 0.005372991394743239 -0.20073261212627516 0.25001962011562745
2881625000.0 -0.23528951810773294 0.2644012887623077 0.09137370994012405 0.003430085701271612 0.0915735294182114 0.0026946915192878067 -0.19889245277544304 0.25185562218931395
2882688000.0 -0.23464091625683997 0.26493333081425335 0.09144237321312368 0.0007164173709071368 0.09157739759000254 1.3740948554937182e-05 -0.19773162763632868 0.2538110899903918
2883750000.0 -0.23402880755014113 0.26537881193409524 0.0915064183684224 -0.0020202701908087696 0.09153018692454407 -0.0025621742892705376 -0.19723476697804526 0.2558873018834078
2884812000.0 -0.23291602196199226 0.2658162494489666 0.09153994097892669 -0.004748403962188449 0.09139288849869705 -0.005223277406754883 -0.19760293052858813 0.25758373326488126
2885875000.0 -0.2321813653263881 0.266031846474108 0.09137886379291386 -0.007411013940000387 0.09121084313709789 -0.00772196419519081 -0.19853946376933918 0.25906471823493105
2886938000.0 -0.23146290807229308 0.26630297237383055 0.09104118075554786 -0.010114034155910346 0.09089280761896473 -0.010283033194771847 -0.19948935079686989 0.2597553432581176
2888000000.0 -0.23083147908057794 0.26681630059533096 0.09064662541774991 -0.012593464528987184 0.09062946514185005 -0.012910632060674684 -0.20066416743796686 0.25980862013001754
2889062000.0 -0.22979266570666135 0.26709563272530357 0.0900775163212047 -0.015106720832619854 0.09018379668195615 -0.015447850015712129 -0.20155081258668975 0.25925167877390387
2890125000.0 -0.22912796449398443 0.2674489706565648 0.08952275839449766 -0.01770700738237463 0.0895608226590403 -0.018039910969841692 -0.20173470294138876 0.2581892268863099
2891188000.0 -0.22832223790024916 0.2679144290454767 0.08876768021989773 -0.020189153050275285 0.08889785778726988 -0.020523866102823817 -0.2016495668540938 0.25663589300817846
2892250000.0 -0.22761002808947087 0.2683179306619431 0.08796199291062715 -0.022580350093369204 0.08803324479794818 -0.023100584376917463 -0.20054284826972263 0.25443205679640357
2893312000.0 -0.22675494143111422 0.26887304777790727 0.08688532646985869 -0.025019539281797645 0.08707853177200332 -0.0256197915255696 -0.19916818670809316 0.25259303028697266
2894375000.0 -0.2259657414760203 0.26949003203728233 0.08597712538847874 -0.027458749334489378 0.08597844344423182 -0.02811284760042043 -0.19658929217678478 0.25115302496318004
2895438000.0 -0.22511324558932175 0.26993915464130847 0.08486189594521669 -0.030044308675870466 0.08470022450265341 -0.030524384999397695 -0.19372135948611688 0.25017524229399624
2896500000.0 -0.2241382970971927 0.2704996938601966 0.08359164991997602 -0.032421899006756356 0.08352356942413115 -0.032948347351645806 -0.1903597137197542 0.2496052753420868
2897562000.0 -0.22354153672275304 0.2711586555183729 0.08231993463568957 -0.03469379423088395 0.08225155413619455 -0.035297257307541303 -0.18666652460130384 0.2494962820367667
2898625000.0 -0.2226044008223549 0.2717549000050622 0.08113963541160885 -0.03709199662976409 0.08097054007569308 -0.03748633976955783 -0.1834133949244151 0.2509544184541372
2899688000.0 -0.2221405981688318 0.27217804106778803 0.07991635262378828 -0.03951008649021656 0.07975031182695196 -0.03977509580680155 -0.18041854772058882 0.2528405091688915
2900750000.0 -0.22122860477628478 0.27292183662418545 0.0786977066962462 -0.04178563347622441 0.07834700653644085 -0.041988960550566265 -0.1777765258312365 0.25537762642582174
2901812000.0 -0.22065261414086682 0.27353582380335856 0.07720019429376064 -0.04413329081435013 0.0770575337285976 -0.044244618907763766 -0.176365822007574 0.258499370330196
2902875000.0 -0.2199950637510898 0.2743880928755318 0.07577128549254676 -0.046415146113743234 0.07566104657054977 -0.04653650926736764 -0.17566684372158642 0.26169581905809186
2903938000.0 -0.21933435238346627 0.2752456245002644 0.07439708396235079 -0.04859483475374123 0.07431527713738303 -0.04882988026447791 -0.17571283029349336 0.26515451297997383
2905000000.0 -0.2188565819094089 0.27606497357269566 0.07291408150418907 -0.05075672445007347 0.0728834977512824 -0.05099373497753819 -0.17699929302422693 0.26826380735375577
2906062000.0 -0.2182649937675332 0.27671998336121606 0.07132124811929691 -0.052888205237390726 0.07137809991542926 -0.05313995863895776 -0.17853767035428467 0.27115451848199623
2907125000.0 -0.21773777147301354 0.27773291880146905 0.06970562792927312 -0.054937659270049816 0.06979492643554569 -0.05525278748340256 -0.18074437170529925 0.2730407308686606
2908188000.0 -0.21713038176990548 0.2787071181977182 0.06794988068971476 -0.056845513905922046 0.06802322174120956 -0.057246908295701 -0.1830843709032705 0.27447935121726535
2909250000.0 -0.21670323951831733 0.27958802564414903 0.066339493607433 -0.05876251014910909 0.06618509112321062 -0.05911207656158327 -0.1854964074518125 0.2752584821306803
2910312000.0 -0.21630782544152646 0.2806491237235756 0.06449286721530033 -0.06044455409117211 0.0643636116620682 -0.06095332839201166 -0.18739861570892488 0.2748965872374138
2911375000.0 -0.21589774651202934 0.2815435770898379 0.06273443240774719 -0.06219578694210951 0.062388712374312684 -0.06264688896793212 -0.18853289220775032 0.2742255724467024
2912438000.0 -0.2156869382658501 0.2824520428356793 0.06088332822331989 -0.0638211179410206 0.06039541299610142 -0.06424901118307975 -0.18904254742293308 0.27343397179792206
2913500000.0 -0.21505388269847808 0.2833894706954376 0.058806876944058256 -0.06535182736577708 0.058462537653383134 -0.0656440468606182 -0.18856068412378263 0.2723151605747212
2914562000.0 -0.2146830565499235 0.28450472370271696 0.05676509556054844 -0.06680289237881959 0.05635005668357576 -0.06699469578803141 -0.18736735875302454 0.2716685015079883
2915625000.0 -0.2145780349465148 0.28529765115170336 0.054660808780249745 -0.06818142222399416 0.05435636028341577 -0.06842259148451549 -0.18558321085951088 0.2711970576485193
2916688000.0 -0.2144766517380918 0.2865318780912888 0.05254144157501612 -0.06943471678011519 0.052261831109269165 -0.06967254333948078 -0.18293029262338836 0.2716879456316126
2917750000.0 -0.2138433455675206 0.28741425136971904 0.050444392820752616 -0.07088609474035175 0.05015506172835464 -0.07103371941434003 -0.1806037389975591 0.27260522135949544
2918812000.0 -0.21366556219532265 0.2886016305820099 0.04821860811357461 -0.07207569257308392 0.04804237748000232 -0.0723792498677023 -0.17831321598215577 0.27438414772075703
2919875000.0 -0.21340889402662488 0.28984698724323626 0.04606580632046365 -0.0733752277965848 0.04591572917489537 -0.07370561077928402 -0.17622916476861972 0.276876539924698
2920938000.0 -0.21290378425314643 0.2909409423377219 0.04385810245795172 -0.07450792864067152 0.04362900328708188 -0.07494040762397652 -0.17463054832748534 0.27994758736859504
2922000000.0 -0.21246457386415188 0.292316656265401 0.04151268903539298 -0.07598316261197717 0.04137075954794631 -0.07625230717844685 -0.1737577687922549 0.28319516904088016
2923062000.0 -0.2119890250597343 0.2936182017229689 0.03941984047413281 -0.07699916570583083 0.038986999559790875 -0.07734956518140673 -0.17356968533312436 0.28656692516928683
2924125000.0 -0.21143472820703027 0.2949779690724204 0.0370450733554015 -0.07803602338852558 0.03661005233676737 -0.07842871404475243 -0.174129222343127 0.29004263585142986
2925188000.0 -0.21104455315685253 0.29625103787942003 0.03463168726433246 -0.07911368925188075 0.03418577334122676 -0.07931458817174299 -0.1753955231130189 0.29296018124083945
2926250000.0 -0.21071726935947208 0.2976846737798262 0.032240354787692466 -0.07994481701802506 0.031750703076440547 -0.0801494845492568 -0.17711954814532332 0.29544891117932837
2927312000.0 -0.21014479877812156 0.2992199904078447 0.029869059290130437 -0.08080381694307112 0.02932468558971855 -0.08080803956874821 -0.1792989226820492 0.29712850105214855
2928375000.0 -0.20975106535367213 0.30073075214807116 0.02756449105474322 -0.08149165173244804 0.027028309243791918 -0.0813117019299997 -0.18114298388696812 0.2981694803349599
2929438000.0 -0.209113887800873 0.3021889625164666 0.02500381507680865 -0.08196406458217247 0.024643807071704243 -0.08185106232515728 -0.18312120431275897 0.2982582099146555
2930500000.0 -0.20866192401886285 0.3036538785624237 0.02259138258336272 -0.08241194965362096 0.022424826628953266 -0.08222729255271088 -0.18440159986540167 0.297909866088569
2931562000.0 -0.2081673309287695 0.3054272221412251 0.02021809233236534 -0.08276848557986291 0.020165177856163456 -0.08256441826506691 -0.1849193095042372 0.2970064720419391
2932625000.0 -0.20777881455875952 0.30712505882743507 0.017864006937170163 -0.08291442179076962 0.01793859547360935 -0.0828965053066856 -0.18463782271175963 0.29582816010651775
2933688000.0 -0.20744670078932606 0.30884374580021895 0.015280051088224816 -0.08309746441168114 0.015578189579485755 -0.08325382472542524 -0.1837159365405954 0.2946653302732574
2934750000.0 -0.20676598119270062 0.3106415192594628 0.013014214808472297 -0.08312048674230565 0.013214793045777707 -0.08353703016150778 -0.18181012757774356 0.2938938143663561
2935812000.0 -0.20630302430303213 0.31236558345757953 0.010624302388654253 -0.08330093230432266 0.010806811322240364 -0.08373060031225243 -0.17927390933547285 0.2935719314572046
2936875000.0 -0.2054901552093683 0.314124260345081 0.008288481461191646 -0.08315544246914014 0.00823492743035859 -0.08391583885591437 -0.17633759608695476 0.2940667835232975
2937938000.0 -0.20504768305475782 0.3160189809627479 0.005986126888484004 -0.08312687487715748 0.005755461375648141 -0.08387097354994132 -0.17341702747273266 0.29526644313505274
2939000000.0 -0.20430910090953436 0.3176621654358456 0.003619688865366993 -0.08313200441340561 0.0031475382157402513 -0.08390311386799021 -0.1704868203995336 0.2973544711224781
2940062000.0 -0.20362093985369126 0.3195041569869958 0.0012586419378772733 -0.08319414644146364 0.0005754860377289345 -0.08375682312557638 -0.16818989906698786 0.30040059481378073
2941125000.0 -0.2029070879176881 0.32141594024884185 -0.001000072317886588 -0.08318481292803356 -0.0020101909869207515 -0.08343936374307105 -0.16607503445202706 0.3036224512298889
2942188000.0 -0.20231136192360968 0.32317963823806317 -0.0033638298914899795 -0.08303757084617243 -0.004458631726286492 -0.08319928808043327 -0.16514133456706342 0.30735982458390065
2943250000.0 -0.20145358875763686 0.3249103395717633 -0.005902934454258091 -0.08285309454248761 -0.006735142050624565 -0.0827169213003104 -0.16491892774196257 0.3109939178201206
2944312000.0 -0.2008189598860376 0.3267954624756355 -0.008025675005134018 -0.08276704673446629 -0.008949141521149687 -0.08237169249314015 -0.16529056627718897 0.31447057070533774
2945375000.0 -0.20003379551914038 0.328685857113687 -0.01044757325634536 -0.08250639005494437 -0.011146399563878317 -0.08190962336280175 -0.16651938348407086 0.31729940268379814
2946438000.0 -0.1989875442201997 0.3306107054115953 -0.01282530205742646 -0.08217814390127269 -0.013270775842964003 -0.08150032899695848 -0.16775207200140918 0.3196096485625611
2947500000.0 -0.198313403430489 0.3324158688586258 -0.015137844499740323 -0.08170325860874227 -0.015273138426031669 -0.08106404678520704 -0.16936873865680827 0.3207435124414715
2948562000.0 -0.19742377451910573 0.3343336554683626 -0.01739216656567627 -0.08110863111319924 -0.01727169951156858 -0.0805814987205631 -0.1705839421817368 0.3211128962528279
2949625000.0 -0.1965092669013865 0.33627652826871873 -0.019627751691748897 -0.08044476773669952 -0.01937458288042819 -0.08012814412555708 -0.17127920437125993 0.3208370642582851
2950688000.0 -0.19552948394625347 0.3380039431280898 -0.021784897354351188 -0.07960837283808572 -0.021397780637432598 -0.0795652245272251 -0.17121534137477187 0.3197258997903297
2951750000.0 -0.1946098505069907 0.33984847754116626 -0.02385881354236412 -0.07873129317471267 -0.023509743774154598 -0.07884305644578186 -0.17029304913571228 0.3184611634360764
2952812000.0 -0.19363063520259946 0.3416348704253725 -0.025848097155354154 -0.07764663121535534 -0.025631982379056326 -0.07805905430645532 -0.16859097013574723 0.3166112887321432
2953875000.0 -0.19238073882772727 0.3433271661886939 -0.027840414795173293 -0.07652407456570864 -0.027740080273118622 -0.07699233749546835 -0.16541497195296595 0.31524868187083194
2954938000.0 -0.19119036358849506 0.34507942000276065 -0.029766197422494506 -0.07531153213944977 -0.02989193625489844 -0.07588046028895219 -0.16195284226034296 0.31392508480527903
2956000000.0 -0.19008547857258482 0.34671483811508635 -0.0316337268329497 -0.07409653261284616 -0.03215486550552286 -0.07465750488611701 -0.1572785706075459 0.31371137880940375
2957062000.0 -0.188905629778734 0.3483384284417258 -0.03349814780427684 -0.07285980588621692 -0.034181533641522134 -0.07325051700967794 -0.15284120370295268 0.31374087221658353
2958125000.0 -0.18763976453536566 0.35009655232756237 -0.03535431258621995 -0.07158033306818402 -0.03626801458875843 -0.0719267784305188 -0.14801724439326783 0.31525845134739533
2959188000.0 -0.18652009824218146 0.35182319285211416 -0.03719497874481749 -0.07034465065449881 -0.03810526162861451 -0.07042789040563574 -0.14368849603365244 0.31715759183713016
2960250000.0 -0.1850713334521614 0.3533711456770868 -0.03904981330768076 -0.06911654350976776 -0.04001533353096903 -0.06896021932945642 -0.13987423477769925 0.3199463078724018
2961312000.0 -0.18360248129097803 0.35503916034185806 -0.04095070153470557 -0.06788946455164167 -0.041739641449130505 -0.06763705076648036 -0.13667500788469225 0.32372213125521737
2962375000.0 -0.18211876256919418 0.35669248222100364 -0.04275306846937247 -0.06663061809497683 -0.0434074541721759 -0.06614935979799 -0.13426566768983703 0.32755902348201904
2963438000.0 -0.1808431289922842 0.3583693867432657 -0.04459981734431866 -0.0653808817339428 -0.04505309326009836 -0.06478788200644897 -0.13320009727522383 0.3319912596919399
2964500000.0 -0.1792945436729648 0.35998849293106594 -0.046397466023834835 -0.06402542997461388 -0.04673651048319567 -0.06345070437086274 -0.13231799714935208 0.33589099530453653
2965562000.0 -0.17763750086317137 0.3617742135560058 -0.048188366781966196 -0.0627107205762842 -0.048341852213076436 -0.062138947999324456 -0.13283169026445346 0.33969146112051585
2966625000.0 -0.17587764094906372 0.36333572361036137 -0.049852410121547515 -0.061262219335968995 -0.04990534693607965 -0.06075673808292926 -0.1332931887772079 0.3429481975677291
2967688000.0 -0.1741530258260414 0.36504481893684526 -0.05152856143908473 -0.05987092989515457 -0.0515016851473796 -0.05944412401074068 -0.1346284140994924 0.3453282836125623
2968750000.0 -0.1724311130961355 0.36671772035095324 -0.05306765262220235 -0.05841955250182887 -0.05302955735297286 -0.05821957463788079 -0.13590468582123347 0.3470235946971112
2969812000.0 -0.17041961834297106 0.3682513719763217 -0.05462415653629001 -0.056849008046022595 -0.05465225052664856 -0.05670480913136846 -0.13640013981165705 0.3481326843835632
2970875000.0 -0.16858873325103596 0.3699569513927295 -0.0561402490828543 -0.05529142784615042 -0.05612756517250304 -0.05518387923894358 -0.13683054291391758 0.34804957637492606
2971938000.0 -0.16659263537911745 0.37148229971189106 -0.057518866927002595 -0.053603460009383444 -0.05763172119398864 -0.05365835371528544 -0.13589685042089056 0.34840302756690505
2973000000.0 -0.16461698625385518 0.3731001127752854 -0.05884497088850645 -0.051935060901596504 -0.0590125450303781 -0.05202688721957572 -0.13456007990564034 0.3479123017493631
2974062000.0 -0.1625345678149277 0.37474657254594756 -0.060082893387634034 -0.050221147165897 -0.06036464301585661 -0.05023929095949393 -0.13231763559884954 0.34725765660973007
2975125000.0 -0.16041725802084722 0.37631170926099555 -0.06128032585338561 -0.04841411639404046 -0.06153580949229583 -0.04839540008972494 -0.1291526471637422 0.3470496065577801
2976188000.0 -0.158186030041609 0.3776938202766126 -0.062389375774524684 -0.046559061737186706 -0.06268124491513721 -0.046539959115888825 -0.12563612782947045 0.3472567570631944
2977250000.0 -0.15587201789639243 0.3792435377413299 -0.0634457162396002 -0.044740036697377306 -0.06370715462484679 -0.044593918324268136 -0.12205371666540786 0.34766566461144083
2978312000.0 -0.15396859598988735 0.38074334069939636 -0.0644539399498858 -0.04287980258566047 -0.06478083844419233 -0.042673778133745975 -0.11756598304129207 0.34880348754934
2979375000.0 -0.15156772635084936 0.38212359892276593 -0.06538905261849036 -0.04099398594571681 -0.06573619359808726 -0.040735109435659285 -0.11358469653578626 0.35073807362278525
2980438000.0 -0.14919889981664236 0.38348136096250607 -0.0663276593645608 -0.03911650025462798 -0.06666622918458445 -0.03879108340056616 -0.11026294290507083 0.3528635063545635
2981500000.0 -0.14697129245140536 0.38479399742906095 -0.06727951941810187 -0.03725812628202796 -0.06750464344061873 -0.036970443991172344 -0.10722539787768925 0.35552544969645966
2982562000.0 -0.14460901134419105 0.38626992849901887 -0.06815649804869937 -0.03539710886556908 -0.06839193069329713 -0.03502001344332584 -0.10460662400584676 0.35855051083266637
2983625000.0 -0.14229946429997212 0.38734784239544373 -0.06901635750293958 -0.03349410909832971 -0.06921371452752503 -0.03310416690689106 -0.10334955809312042 0.3612700127446324
2984688000.0 -0.1397059002493712 0.3885579837558191 -0.06985714099616029 -0.0315850765149937 -0.07003482910311083 -0.031201794236642433 -0.1021938376993387 0.3639209766254267
2985750000.0 -0.13733258172648655 0.3897710130197908 -0.07054917037146154 -0.029665895020128064 -0.07075075292914781 -0.029380633502138338 -0.10160110507039172 0.3664265630801861
2986812000.0 -0.13483106480725457 0.3908680330312533 -0.07132208809854487 -0.027726472849264636 -0.07145063861558805 -0.027420146149414643 -0.10157427632977847 0.3680590042522298
2987875000.0 -0.1323174565463918 0.39212505093343314 -0.07200203175180693 -0.02578785812899941 -0.0721034720000228 -0.02557605595262459 -0.10184034343848258 0.3692215396937723
2988938000.0 -0.12968743014526662 0.3931315861715618 -0.07256527730029681 -0.02379932690093674 -0.0725727573100984 -0.023504043361884892 -0.10178945182983094 0.3697229215276942
2990000000.0 -0.1272720387688419 0.3943117291113431 -0.07308542432147144 -0.021741252100226496 -0.07312691821849036 -0.021544430539219697 -0.10126920631945596 0.36969186627012646
2991062000.0 -0.12468342330209131 0.39536601591231707 -0.07354361224731694 -0.019784556908821593 -0.07356356470832437 -0.01948828536582899 -0.10052419844729321 0.3690980831349097
2992125000.0 -0.12217877753890014 0.39619461618794766 -0.07392399512842716 -0.017725828635058914 -0.07386945644976549 -0.017528309573537793 -0.09907929537390324 0.36833847067562064
2993188000.0 -0.1194711071255953 0.3972227319753698 -0.0742739820154587 -0.015680551043762037 -0.07432374901140087 -0.015455443651465112 -0.09704140643130163 0.36728614816688837
2994250000.0 -0.11711148780335745 0.3981718141999772 -0.07455835684490116 -0.013663671750410859 -0.07459861369008407 -0.013527672212840694 -0.09417276454604856 0.36626786024322583
2995312000.0 -0.11445205712062782 0.39907824910376516 -0.07477434799749764 -0.011638816584557862 -0.07496612869938764 -0.011408230139782462 -0.09098499006644757 0.3655135310027831
2996375000.0 -0.11184632935822045 0.3998273608787776 -0.07493525354071019 -0.009589283586737564 -0.07514174619843107 -0.009345811363915782 -0.08726564972058411 0.3652824847945404
2997438000.0 -0.10923499888924845 0.40081548739191797 -0.0750722969326003 -0.007575393394648444 -0.07537840879083046 -0.007263897722721559 -0.08357084869676876 0.36554733749073315
2998500000.0 -0.10649465762332726 0.4014450018079619 -0.07514903311318533 -0.005515518090402675 -0.07539662150080284 -0.005156428677710652 -0.0798779229815208 0.36637106321980406
2999562000.0 -0.10371792926563102 0.40227638764106716 -0.07527545032900775 -0.0034822781035553046 -0.07551745064266455 -0.0031198755236169083 -0.07647663642488284 0.36766032316203257
3000625000.0 -0.10092605392181174 0.40302481906384247 -0.07537892874918843 -0.0014236983599626855 -0.07542453405558366 -0.0008626808706219924 -0.07355915491538234 0.3689425341060929
3001688000.0 -0.09788728813108791 0.40379378867387855 -0.07540329648352916 0.0005840588378205566 -0.07533311313200262 0.0012952855677744602 -0.07111999549802343 0.370962728431026
3002750000.0 -0.09534931817775824 0.40451686682371135 -0.07536720447039158 0.002651736782029275 -0.07525649347617945 0.0032249451460609527 -0.06905898224144143 0.3725407087650668
3003812000.0 -0.09229686306535058 0.4051442063932752 -0.07535814154511401 0.004653547817904774 -0.07509571366669653 0.005281844311835169 -0.06761226559343325 0.374481006260745
3004875000.0 -0.08955701196974865 0.4059166385234905 -0.07521523399918055 0.006724774342468396 -0.07489369257784292 0.007147147080340486 -0.06665220525902434 0.375514810736321
3005938000.0 -0.08673807451855688 0.4068808761473552 -0.07498675302988243 0.008730310245429508 -0.07467529147293508 0.00912198978508968 -0.06588774236629301 0.3760799150517156
3007000000.0 -0.08448045042428522 0.407524899237816 -0.07466621842768388 0.010655073058418767 -0.07442618244323464 0.010855789978512805 -0.06533842332448878 0.3761030474539217
3008062000.0 -0.08151152412197633 0.40803931064546933 -0.0742541489699071 0.012680176647949716 -0.07423151507608174 0.012697666215364096 -0.06445699826496205 0.3754058583517173
3009125000.0 -0.0790040063188655 0.40875666545448824 -0.07377221390981023 0.01459007103119996 -0.07387610145999413 0.014506294826573325 -0.06326676980800101 0.3740973848305255
3010188000.0 -0.07651626983226496 0.4093407382641989 -0.07321998323438283 0.016548146917769107 -0.07347316575393475 0.016472911773518995 -0.061341259984281 0.3723124650065213
3011250000.0 -0.0739112566751992 0.40993007001951454 -0.07267302119029422 0.01837260842430168 -0.07307642201910461 0.018458567215422196 -0.05942385213401631 0.3704973774271932
3012312000.0 -0.07124852224205389 0.4105681920262272 -0.07200482079239624 0.020271978466587702 -0.07253349487559566 0.0205169389118697 -0.056393156292010235 0.3684316289727735
3013375000.0 -0.06862554618113006 0.41115910235629455 -0.07131016496410843 0.02208003702205009 -0.07184153584825446 0.02249162429249561 -0.05285497372402041 0.36653858213706164
3014438000.0 -0.0660607292489293 0.41184478646716677 -0.07064849772188563 0.023924021745148877 -0.07110376331593118 0.024630740111488376 -0.04881868123383273 0.3653374124788473
3015500000.0 -0.06350736769460151 0.41254436381692594 -0.06995862665192454 0.02575627056105938 -0.07027705996095913 0.02661859241589924 -0.04461341142265629 0.3645152103562196
3016562000.0 -0.061013153652023006 0.4131774983774129 -0.0692015935489571 0.027611928800069845 -0.06938952687443038 0.028648733290764176 -0.039957264095814064 0.36422293484702883
3017625000.0 -0.05850442143208739 0.4137662001854682 -0.0684989379995489 0.029463087950424828 -0.06838841621832512 0.030502527977730707 -0.03591133488722016 0.3648174524129752
3018688000.0 -0.05604413243628 0.4144508632040038 -0.06773199374890505 0.031315300133664944 -0.06730817339335775 0.03235143694445243 -0.03198936439988622 0.3660876438123469
3019750000.0 -0.053546746768401994 0.4150438016929451 -0.06685114598140016 0.03326781376275033 -0.0664639603396944 0.03414740348056187 -0.028739624127408856 0.368101844940633
3020812000.0 -0.05137692671818787 0.41525272645155126 -0.06600864468989079 0.03522554379540925 -0.06544811383126364 0.035910522329941824 -0.025813227101182622 0.37049811513294
3021875000.0 -0.04884309289811649 0.41573718197275994 -0.06506756610743568 0.037234374029446134 -0.06434619975208106 0.03762147421998318 -0.02354804122567574 0.3729775797846984
3022938000.0 -0.04672242112988329 0.41609652332128383 -0.06408983787832792 0.03922861844781113 -0.06335118282432825 0.03937856997797053 -0.022156730512523263 0.3760494965243967
3024000000.0 -0.04442820015711849 0.4163864717797245 -0.06307024261720293 0.041190624113493654 -0.062474367054539966 0.041109487929197955 -0.02181951020896293 0.3780673055248984
3025062000.0 -0.04189548999594794 0.4163005687309243 -0.06191557010900482 0.04306995638391053 -0.061466423671971276 0.04282124182274606 -0.0214339785529277 0.38029860106517577
3026125000.0 -0.03993757987544722 0.4167295592744057 -0.06068327636318481 0.04489353843098787 -0.06054195543621788 0.04471267800016661 -0.021601047054554918 0.38153708595768093
3027188000.0 -0.03775989545139773 0.41672199353031764 -0.059448702952598825 0.046598619030933486 -0.05940743062976353 0.04638875603794131 -0.02203427322158001 0.3820792444290535
3028250000.0 -0.03527737128089243 0.41692178776042976 -0.05811751842032175 0.048257350991316325 -0.05823587222353178 0.048124536484924006 -0.0221236891673144 0.38214012755527826
3029312000.0 -0.03322088874973419 0.4169022981582238 -0.056559010542035805 0.04977180678298916 -0.056895828920284816 0.049840946806416465 -0.021467382334597742 0.381024779367212
3030375000.0 -0.03107438903702375 0.41694270813446593 -0.05506131739853913 0.05117135318546978 -0.05535831407698554 0.05146595729612626 -0.020426901476934867 0.37927600389402916
3031438000.0 -0.028959742896842614 0.4170896761381392 -0.05337503131659227 0.05253922869491382 -0.05377857528015727 0.05305508959163787 -0.01895277935874414 0.3777902437790395
3032500000.0 -0.026655109143850296 0.4171374967309759 -0.051719987335113356 0.05386306078722796 -0.05186928898490286 0.05447857449387406 -0.016271199908739254 0.3765057582719762
3033562000.0 -0.024746255630624592 0.4170978345893377 -0.049931764840924334 0.055146543432150946 -0.04993979913374122 0.05592202236752712 -0.012616967399482435 0.37478536302697346
3034625000.0 -0.022671930680655785 0.41731864770044086 -0.048225621611801474 0.05629983728236156 -0.048045119095770424 0.05702638371571557 -0.009433913931101944 0.37316228486051006
3035688000.0 -0.02066494039685119 0.417402091423715 -0.046454255816043365 0.05751229057986853 -0.04609630215803103 0.05816360308892794 -0.005227277740275654 0.37276604737150565
3036750000.0 -0.01882153111832486 0.41728580098144297 -0.04465551334552393 0.058637687084312586 -0.04418827203063898 0.05920765275826258 -0.0012220510446108602 0.3724339934314928
3037812000.0 -0.017092191657401928 0.41734067779008066 -0.04284321038680018 0.05974975491968833 -0.042191019816238684 0.06021965882026994 0.0028902426742569358 0.37318821516982414
3038875000.0 -0.015096215147033257 0.417428179047698 -0.04109036392306427 0.060883814890548435 -0.04044748500144768 0.061203412284000995 0.006792932462037723 0.3744859401669481
3039938000.0 -0.013297939637356164 0.41744795886760205 -0.039295439331934495 0.06194788362462869 -0.03869082972371436 0.0621581623885514 0.009857790416588436 0.37641772290265857
3041000000.0 -0.011601227210907382 0.4173424881864796 -0.037513594657074115 0.0630128531140473 -0.036993501704784666 0.06307843423397429 0.01250804165177212 0.3786119534863552
3042062000.0 -0.009957376114460079 0.4174348351886462 -0.035703123395768435 0.06407636334055021 -0.03532862164514345 0.06408814642975354 0.014243448496524747 0.3811004642866141
3043125000.0 -0.008019412610701777 0.41743456923249156 -0.033858713181901264 0.06514353580873744 -0.0336445576507119 0.06516475162366094 0.015415208131502633 0.383431158455785
3044188000.0 -0.006363412571625683 0.41756009456872073 -0.03202003708339448 0.06613602215953837 -0.03183560886186898 0.0661986844964865 0.015853900048845702 0.3856715292740097
3045250000.0 -0.004659948399464233 0.41758643346701374 -0.03019173194268575 0.06708743491302507 -0.030035076413132775 0.06726412452642203 0.015855275847615154 0.38722351607208727
3046312000.0 -0.0029292174635705357 0.41791338682111345 -0.028316504587130725 0.06797709091245947 -0.02818785891330101 0.06819243701903692 0.015320262390620589 0.3882035399522178
3047375000.0 -0.001033322843427039 0.41797987401969594 -0.02639354473555044 0.0688630528335274 -0.026149944810936104 0.06915723012703247 0.014567359787588616 0.38840326986047985
3048438000.0 0.000702812371304457 0.4180772440458679 -0.024447808730880177 0.06966961280813234 -0.02411088195045818 0.06991613335746293 0.01412179411114826 0.38782593557131145
3049500000.0 0.0021422534377849942 0.4184050893393492 -0.02244880588618116 0.07036965013707788 -0.0220613245263489 0.07061493680870286 0.014289795429853844 0.3864128324480846
3050562000.0 0.003938856350632216 0.41842689189721805 -0.020399089787402673 0.07093214435867118 -0.019997114815747584 0.07112022716801847 0.015189529619160156 0.3847737997625303
3051625000.0 0.005797834060583886 0.41843994084697406 -0.018364421257371304 0.07140883220374104 -0.017893887859448798 0.07150835731664769 0.016619368508141535 0.3830559665610601
3052688000.0 0.007276613963876835 0.4186796598802822 -0.016267344947407253 0.07175876600032277 -0.015827114043499662 0.07184825635928682 0.018633736240539156 0.38115611049411563
3053750000.0 0.009017842747055731 0.4185241740179311 -0.014125308666615136 0.07203223898502635 -0.013792345088936958 0.07189089978589443 0.021397786866405255 0.3794160015426393
3054812000.0 0.010544320430938135 0.41889135285728846 -0.012021256941366828 0.07214513167386341 -0.011879167756719426 0.07205937500918379 0.02450252470736416 0.3782028871376659
3055875000.0 0.012318760198962534 0.4189814500546456 -0.009873091260575291 0.07225589104430401 -0.00975689577669356 0.07217586120277739 0.027912124827476997 0.3774523825394128
3056938000.0 0.01402280578598219 0.4189160191964765 -0.007798699506791038 0.07227513299209772 -0.007764236820476457 0.07224746484446831 0.03136821143765951 0.37759353288223657
3058000000.0 0.01591169945597621 0.4190416732536594 -0.005717916999511194 0.0722623566895128 -0.005616768184674659 0.07236554450204764 0.034824984872623546 0.37813006715429043
3059062000.0 0.017635971405689135 0.4191073369815673 -0.0036738440900508126 0.07222229502846236 -0.0036486123044278196 0.07247526173241164 0.037507321630665905 0.3790902879256417
3060125000.0 0.01948324273160379 0.4193272200947555 -0.001634352019790775 0.07214136354798366 -0.0015047434851579197 0.07249566725204142 0.03995066309563037 0.38052632585766316
3061188000.0 0.021171441660392382 0.41954400042286527 0.0004045317907430163 0.07205844140597907 0.0005929238429021646 0.07258647280157055 0.04208391963147621 0.3821934750367338
3062250000.0 0.023338537140190033 0.41967469883258257 0.00236575338637632 0.07200393300672872 0.0027387802822849048 0.07254570744204214 0.04324308793508171 0.38361599869920515
3063312000.0 0.025182185071481372 0.41969686344087276 0.004331517861103723 0.0719283489305629 0.004877165899976038 0.07234609013652679 0.04390002176317328 0.38503511673672214
3064375000.0 0.027204594736683487 0.41970737590376156 0.006334198785650401 0.07174336916059011 0.006949152659111538 0.07220006604275865 0.04389424182476176 0.3861435329432997
3065438000.0 0.029173548545237463 0.41989571394450403 0.008318884761660978 0.07154248763360313 0.00915405904310899 0.07179172922252784 0.0437991138849739 0.38624972999267254
3066500000.0 0.030846389391367524 0.41996239375484246 0.01036033721758186 0.07131765486270042 0.01108291313393562 0.07134861690131362 0.043614227936063156 0.38577728477354356
3067562000.0 0.032884390471836944 0.4200403202518602 0.012363414589608324 0.07102225101859527 0.013068445595606758 0.07089096614435618 0.043431345200775774 0.38439016905042045
3068625000.0 0.03482617401369724 0.42004125116885244 0.014308694700547128 0.07058515796131706 0.015006391994673575 0.07033291638014202 0.04360087141343635 0.38248164060514017
3069688000.0 0.036400448836838024 0.4200662261296469 0.016302458417087287 0.07013268654301166 0.016908552636713047 0.069744517845652 0.044573189071043094 0.3799707934117232
3070750000.0 0.03847647973775376 0.41994606053678196 0.018279908492699923 0.06952568267404491 0.018747997107298395 0.06909755719766006 0.04613844342699582 0.3774848714311502
3071812000.0 0.0401877399437117 0.41983641047733 0.020143973813960787 0.06881568839209742 0.020452732673656788 0.06852251423110105 0.04835849275709458 0.37436904906885937
3072875000.0 0.042576809769701476 0.41976051098713313 0.022104027028064934 0.06802140949772534 0.022298486317971013 0.06779189851275935 0.05142591907296164 0.37208632013734516
3073938000.0 0.04466156072281051 0.4195243231590914 0.02392295522560674 0.06710451691792414 0.024049272756877037 0.06709172992725189 0.055241733464411386 0.37009796920705545
3075000000.0 0.046756865129948935 0.4197215769597396 0.025718541743662837 0.06615188366968287 0.025781640703371692 0.06612072553571527 0.05924105819742512 0.3691532984368876
3076062000.0 0.048757686464306525 0.4196415090729546 0.027518948768930174 0.06512704171524178 0.0275374882530991 0.06533672187816188 0.06367931184897346 0.36858005575304775
3077125000.0 0.05115551438809545 0.41956459925404976 0.02917815440196446 0.06411134131533756 0.029348644037601592 0.06431481790371363 0.06800230674314445 0.3690809249286746
3078188000.0 0.053230361802862024 0.41960305221818767 0.030804326136627518 0.06306029762133103 0.03105971674612168 0.06333548570984365 0.07209557445926174 0.3705544563783158
3079250000.0 0.05557425907624195 0.4193488962561119 0.032429006492220046 0.061991155779901275 0.032900091221439026 0.062366212607101915 0.07545374912546678 0.3727069768591615
3080312000.0 0.05814241638498231 0.4192142643297095 0.03397942415422277 0.06090405450531163 0.034550972440212914 0.06102427656355104 0.07876096381470013 0.3750003401336455
3081375000.0 0.06038190661508742 0.4191431962056106 0.03561678132277377 0.059959493865464064 0.036226694143121414 0.05994617049703134 0.08084234151858039 0.37808022981126993
3082438000.0 0.06256078432198367 0.4188972136364707 0.0370659614250138 0.05883145033881973 0.037788610094495176 0.058723670634865624 0.08230012899761839 0.3802383453168231
3083500000.0 0.0649125916831168 0.4189897475712881 0.03867054643918849 0.0577896231392548 0.039312946378780536 0.057501586492407795 0.08307297755566927 0.382949933804787
3084562000.0 0.06753008528079633 0.4187336548509425 0.040144954172309844 0.056645355982706605 0.04072246957409683 0.056324819073455136 0.083562498978796 0.38454834840234586
3085625000.0 0.06979625534329206 0.4188962233823973 0.0416502933531502 0.05553456455347163 0.04215819003083862 0.05525538831575572 0.08349675801384501 0.38563888280511927
3086688000.0 0.07217384427786841 0.41849874878792215 0.04309501058898219 0.05433928673451569 0.043459737583879464 0.054037384799030565 0.08357038087350561 0.386197412442238
3087750000.0 0.07455007758618434 0.4184645857220996 0.04454751948902387 0.053116947686695476 0.04473096804945814 0.05285869447470548 0.08381765256598275 0.38566225927073033
3088812000.0 0.07686739257896044 0.41853124820104376 0.04588244690248583 0.05181478832401941 0.046100906622003016 0.0516197062298987 0.08428711038008947 0.38452508382784484
3089875000.0 0.07939864893109604 0.4184243073938718 0.04720111046582574 0.05042063013754254 0.04735502883313052 0.0502381514870318 0.0859027339950781 0.3826440823954353
3090938000.0 0.08186716637821195 0.41851605173260653 0.04841662652871301 0.04900897598633734 0.04858191222003827 0.04883216905597694 0.087359946124008 0.38076891065124646
3092000000.0 0.0843633311400592 0.4184994298149365 0.04957535762712059 0.0475520787261466 0.049805849105175444 0.04745206705822256 0.08993702553672983 0.3786629324617576
3093062000.0 0.08689687127192373 0.4186102439208525 0.050657790935078904 0.04605001858979989 0.05099695236184896 0.045881950857522724 0.09320125921395542 0.3767020426595644
3094125000.0 0.08927177770941207 0.41889886547679656 0.05165999244008477 0.044506279962287905 0.05202992001455055 0.044294310107771837 0.09734473121803155 0.3749561858638301
3095188000.0 0.09196113988049945 0.4192457015995672 0.052640648274772196 0.042956612234229995 0.053072491685218944 0.042713448583691714 0.10168217545941728 0.3742087902918639
3096250000.0 0.09436283759602133 0.41930885931724693 0.05357177304624713 0.041404116636599625 0.05398892262894559 0.041109656132211285 0.1056672389137092 0.3740796087698634
3097312000.0 0.09678301681637413 0.4196468153725244 0.05446588354280895 0.03988296201408041 0.054863639333542095 0.03953165387756147 0.10997425422036164 0.3746051736138394
3098375000.0 0.09918544064442225 0.42034407818499314 0.05532412364518413 0.038270097577624285 0.055629507753043816 0.03802886722799089 0.11375082392898127 0.3760817212190567
3099438000.0 0.10147955424602356 0.42024839308926215 0.0561138049009506 0.036716957061091876 0.05643498457561117 0.03645208414511099 0.1172424622391286 0.37783906486172003
3100500000.0 0.1038820850902882 0.4208214516942648 0.056989261577069385 0.0351799236695442 0.057168005013899216 0.03488767196392409 0.12030749756076019 0.3804843030295013
3101562000.0 0.10643494665208855 0.42088990977094515 0.05778542145594055 0.033619933241384604 0.05786543254610104 0.03339293556177994 0.12215988899547328 0.38285856457910233
3102625000.0 0.10907679763854802 0.4209695518945198 0.058567919678882016 0.032061952243385865 0.05860739184426133 0.03171280411128776 0.12367723604115502 0.3850001057603254
3103688000.0 0.11148700564669814 0.42096693122771545 0.05932600330573502 0.03048975015418178 0.05941819790740638 0.030283457108006753 0.12420660837485582 0.3871325833610286
3104750000.0 0.1140290975457619 0.42088281892105806 0.06002798517749699 0.028867035619095253 0.06013054005804276 0.02867912494494604 0.1244521817172117 0.38846073755348426
3105812000.0 0.11676711017663408 0.42107157086923996 0.060806322682827804 0.027298209141273573 0.06093213162161318 0.027075881716101594 0.12484569670786372 0.38889908760538366
3106875000.0 0.11954709856218157 0.42076894355949396 0.06144008283631068 0.02562460727248109 0.06169949941247133 0.025490431146904545 0.12476697552176513 0.38924657484562375
3107938000.0 0.12214977513911868 0.4206096925553197 0.062042808468129595 0.023972290591209366 0.06228378163212715 0.023719364225193915 0.1245234078044818 0.3883100710819172
3109000000.0 0.12503161355693 0.42039521430001664 0.06266357214066409 0.022208091221844816 0.06295234966684113 0.02185683090629818 0.1252410940854942 0.38672530331318206
3110062000.0 0.12787738668774495 0.42010651370733215 0.0631315696211919 0.020476094398030206 0.06343997376061337 0.0201475869553371 0.12643402590378608 0.38484867445303433
3111125000.0 0.13042726002121394 0.41980907233258385 0.06358110987353595 0.018690390952364737 0.06381799825333179 0.01822771428707322 0.128395884024795 0.38239565922100477
3112188000.0 0.1332588286931133 0.4199104214213002 0.06395047432948474 0.016901311977892363 0.06403165609858638 0.016492592153696018 0.1310067716946448 0.3804099708627019
3113250000.0 0.13621531429815067 0.4197160459335338 0.06427229252202782 0.015106056075412924 0.0643087046929328 0.014706194758259133 0.13434146501775165 0.3785738457147865
3114312000.0 0.13911282136631958 0.4193771819507408 0.0644984589787704 0.013324955481139064 0.06447669675484671 0.012991237691208852 0.1379229104582513 0.3771723285148251
3115375000.0 0.142029988189889 0.4191342720728809 0.06470983882105526 0.011529850597841989 0.06454372196417195 0.01129199489353845 0.14186666579716828 0.37628178748669017
3116438000.0 0.1448349686160798 0.4193224482059465 0.06481062286930449 0.009790689918944688 0.06462562390692278 0.009591402058496042 0.14588828701142553 0.376038013196981
3117500000.0 0.1477983502569967 0.41883663951830963 0.06481828037864468 0.008025927687331971 0.06483875632694325 0.007887180892732321 0.14972782651206223 0.3762289459720134
3118562000.0 0.1506309286748298 0.4187642715480774 0.06487957933477279 0.006382423315334303 0.06498349549718556 0.006313098074782534 0.15323108821113623 0.37711257594143516
3119625000.0 0.15330107708960836 0.41865949568807764 0.06489197936753315 0.004708119836430286 0.06508162464817649 0.004700971210692263 0.1566272045652213 0.37823863361659393
3120688000.0 0.15628832893521755 0.4182962091245627 0.06492660444263595 0.003074246266265296 0.06527879707455056 0.002990313972202987 0.15931073001954743 0.3794124839350935
3121750000.0 0.15917528554149432 0.41816303726366466 0.06490660449146077 0.0014599181803826237 0.06541884135702994 0.0012347590785210028 0.1610539593715329 0.38046716756433197
3122812000.0 0.16193753659017912 0.417985751483686 0.06486579791645178 -0.00014301411545989646 0.06545274634564785 -0.0005018058165484987 0.1626045943684692 0.38140252675940683
3123875000.0 0.16484564572537058 0.41760271301954655 0.06488327643442982 -0.0017218722932500988 0.06536380648498616 -0.0022181527513704014 0.1634377300141952 0.38201960706181326
3124938000.0 0.1679228989981265 0.4175751825911612 0.06484772690834052 -0.003328589593765354 0.06522733158420026 -0.003976887336877714 0.16395998985901417 0.3816921804295241
3126000000.0 0.17074019166068413 0.4176558976024381 0.06473456383191015 -0.004931833782656939 0.06500838304590162 -0.00579067969155998 0.16434993301726028 0.38065388619656865
3127062000.0 0.17353414863490382 0.4174279378864559 0.06458322348926428 -0.006575454457183678 0.06468844389153101 -0.007415418885743184 0.16483746678479794 0.3788499707157331
3128125000.0 0.1764131286340662 0.4173286645148787 0.06448511744021414 -0.008231154923000155 0.06425045038394878 -0.009099662307816437 0.16590241390192928 0.3766920694037981
3129188000.0 0.1792372194285234 0.4171003100698791 0.06431595792417066 -0.009997552674071167 0.0638948087151834 -0.010735186602596028 0.1677881730245091 0.37368800820342474
3130250000.0 0.18178488119896885 0.41692277378053705 0.06402109881574046 -0.011657755707396016 0.06350003974542578 -0.012240826538796178 0.16964235508730363 0.37110438530782663
3131312000.0 0.18444120346277404 0.41623299083293663 0.06361999803755436 -0.013434182342769078 0.06301738871967058 -0.013852215041364616 0.1724790449855771 0.3683142994521397
3132375000.0 0.18709234345693657 0.41583997049270716 0.06310143838449012 -0.015149075859354353 0.06265590358155408 -0.015303427764624058 0.17555918010074892 0.3654535714567119
3133438000.0 0.18953796951242957 0.4149106105669739 0.06260304632582908 -0.016894454073224343 0.0621408845655266 -0.016788085266474018 0.1794199260687776 0.36318474846330745
3134500000.0 0.19200259278069226 0.4139542647036174 0.061955676644187344 -0.018589728312860092 0.06168955142419199 -0.018391799871174622 0.18367255023904724 0.36137917155598476
3135562000.0 0.19459992818762428 0.41312581264965254 0.06125195182190129 -0.020239105223643326 0.0612730444221134 -0.020015977666659888 0.18815460382627297 0.3600634892473316
3136625000.0 0.19702986104662162 0.4119196012580222 0.060500873664618635 -0.02190136867510506 0.06081607085677184 -0.021563399575159303 0.19260224311308916 0.35950717879387334
3137688000.0 0.19965398886642638 0.41070350978292075 0.05976188595297312 -0.02340126494465874 0.06015122595781597 -0.023253049899538768 0.19667559269689008 0.35958087881605466
3138750000.0 0.20221642934530623 0.40971571806198487 0.05899385004119462 -0.024927210364696646 0.059588850837826085 -0.025039453619097787 0.20084070804168985 0.3600075529073114
3139812000.0 0.204752484607752 0.40831017223145194 0.058255665953095295 -0.026355790011512437 0.05885146620892292 -0.02667536591619705 0.20400082932331545 0.36074232096898456
3140875000.0 0.20760093704264823 0.4070774412015281 0.057530973657345 -0.027695756073013035 0.05816107999625069 -0.028312850524952346 0.20657850798368765 0.361931708556183
3141938000.0 0.21053454133257246 0.40597262246730914 0.056792593130959426 -0.029070382316587245 0.05724101284725754 -0.029859249153128823 0.20845294115745924 0.36227370446841295
3143000000.0 0.21297412568293755 0.4044991908681126 0.056110847051181204 -0.030362101715738454 0.05646726789803693 -0.031331385973802285 0.21019050619548313 0.36314857609379186
3144062000.0 0.21577462566777708 0.40336658051891233 0.0553987925717177 -0.03165150526181085 0.055310095262444264 -0.03268028166967542 0.21081308818545647 0.3626965602932235
3145125000.0 0.2186536928298295 0.40204280585506974 0.054708882603122594 -0.03295607499515381 0.05435887681479369 -0.034001431781244686 0.21130549507886656 0.3614352068467137
3146188000.0 0.22114023108238584 0.40077598119066965 0.05394241048925329 -0.03420648839464126 0.05346730242270656 -0.0351733921634344 0.2118557714917184 0.3594874229697834
3147250000.0 0.22361135817715644 0.3995866781576422 0.0531136435726367 -0.035576199555769565 0.05252652329252921 -0.036274292395446835 0.21250298180141722 0.3566256906876132
3148312000.0 0.22627781154453136 0.39819562832960176 0.0522888089350016 -0.03691695827055061 0.05147451307971574 -0.037441262196800495 0.2140378478001231 0.35345488545219084
3149375000.0 0.22891932124520417 0.39637325209684743 0.05135509974351136 -0.03824229854227856 0.05057543704628656 -0.038565247412139854 0.216105516292766 0.3498127681649869
3150438000.0 0.23143441587913843 0.39492903998365936 0.05035986440973268 -0.03965886625230469 0.04976044036702503 -0.03966587181853151 0.21888790083574816 0.3463631549561231
3151500000.0 0.23391401140204576 0.39326075995741466 0.04929436956238138 -0.04101532787976436 0.048766328564353575 -0.04092304127416714 0.22206212075652626 0.3429598793751432
3152562000.0 0.23649658003718643 0.3915588544187312 0.04810136896722532 -0.042324159079029054 0.04771107422760687 -0.04221347826112472 0.22567399578434771 0.3400622062106023
3153625000.0 0.23915644507940362 0.3896999973364283 0.04688434927046351 -0.04363833154624508 0.046644843873045634 -0.04345101797746478 0.2300826447028486 0.33779052291098016
3154688000.0 0.24165188227587261 0.38829271824025907 0.04559037240605665 -0.04491778973312472 0.04558129055800668 -0.04475049782699355 0.23427758691918305 0.3361896671862599
3155750000.0 0.24418831948315378 0.38630868400917195 0.04423331436345077 -0.04609959197789508 0.04433449340915677 -0.046034180648943324 0.23864275552484465 0.33515474342571494
3156812000.0 0.2463928569833234 0.3848482283572579 0.042899311401886124 -0.04731157514317206 0.0430469182296035 -0.047383669031128756 0.24310465395151631 0.33491279231108534
3157875000.0 0.24904228599604936 0.38286099701267184 0.041588890020233235 -0.04839848539516492 0.041702638031324235 -0.04861932226570543 0.24675944186893942 0.33528900419806934
3158938000.0 0.2514480010100827 0.3812452088365259 0.04023894696612999 -0.04951045538657142 0.04035032176192294 -0.0497772831767179 0.2502253894338017 0.33573447269818296
3160000000.0 0.2537797753977448 0.37964901457246125 0.03889225790346013 -0.050437151690537266 0.0390507463156942 -0.05084093046363756 0.25281810751606393 0.3362989602019276
3161062000.0 0.25626297210430427 0.3776116394275365 0.03762592009887213 -0.05139607608794267 0.03752135622418786 -0.051912092784838854 0.25487429126784134 0.33698272846792643
3162125000.0 0.2580678379469148 0.37620571792499863 0.03634407253743469 -0.05230970347917533 0.036203901512282144 -0.05277087707720997 0.2563374355956444 0.33771335410232295
3163188000.0 0.2601188945177206 0.37383188041859927 0.035126382784897166 -0.053238920662774705 0.03491242965475146 -0.05362285398572617 0.2569516122838738 0.3378333494546596
3164250000.0 0.2621864334077246 0.372026278971624 0.03385246041760712 -0.054066862953658534 0.03355555025395576 -0.05454571348432676 0.2571905494859999 0.33744095054511675
3165312000.0 0.2640978500782017 0.3695218192087982 0.032567668897486454 -0.05490501614930632 0.032252231217778954 -0.0552803621447962 0.25747290047780624 0.3360116228639206
3166375000.0 0.26612985318201043 0.3673454123763643 0.031363189802678534 -0.05573532235840735 0.030983156882238638 -0.056053039068285 0.2570751571533946 0.33424234113513
3167438000.0 0.26798456876432425 0.36500884009583273 0.03005738240414664 -0.05648328722437227 0.02968455879449085 -0.056790847283557544 0.2573295354263786 0.3313337947570184
3168500000.0 0.2701036729101797 0.3624417505044147 0.02865356829832519 -0.057302537633418825 0.028236819931365092 -0.05754967011811855 0.25799923256820007 0.32760552597155457
3169562000.0 0.27206190919817 0.3604244008563853 0.02726880260061215 -0.058044601380466715 0.02681050517933766 -0.058310487489162635 0.2592941439925689 0.32390597092473433
3170625000.0 0.2740890867026628 0.35790810992862354 0.02581606182624416 -0.05874604706515806 0.025349168449507145 -0.058987419947771486 0.2615190065039319 0.31989865037984916
3171688000.0 0.2763878853292017 0.3554823065202411 0.024248852717401823 -0.05940981369991934 0.023814021214494746 -0.05961923469883003 0.2642030464964902 0.3162773674047922
3172750000.0 0.27870336838944987 0.35307606909032424 0.022668616638820707 -0.060041993798134005 0.022235356967464925 -0.060280527708344946 0.26726482289845716 0.3132120579113475
3173812000.0 0.2808017864873263 0.351145987611003 0.020985138803332606 -0.06064902053710026 0.020573182169759247 -0.06072479977349182 0.27078378856767077 0.31066956750762403
3174875000.0 0.2828620270563261 0.34910873212968546 0.019250025814419328 -0.061286414576907006 0.018861523705253087 -0.061286706404759736 0.27416596442719265 0.3086255697116974
3175938000.0 0.2849598502134719 0.34695179503398793 0.017498533001119063 -0.061760252762155216 0.017154235628972496 -0.06176227930968588 0.2775747883684908 0.30727515025857316
3177000000.0 0.28713874116128 0.3448419753764466 0.015704203686233008 -0.06227618210223549 0.015451446862127266 -0.062233961071231 0.2806677058528465 0.30633841367644565
3178062000.0 0.2888854288143987 0.3427113844285715 0.013967441736108947 -0.06268702482272662 0.013798377233120449 -0.06264169201851488 0.2830966544509981 0.30583763281849763
3179125000.0 0.290864203154796 0.34060130188564325 0.01220328313315575 -0.06313521805042548 0.012113476620848985 -0.06297702240036805 0.2849202621785094 0.30489224253480196
3180188000.0 0.2927819538240955 0.33837431858989236 0.01045017506150782 -0.06348323528745904 0.010414788885527184 -0.06343306738464169 0.2862388663705443 0.30424689827003476
3181250000.0 0.2948096195235381 0.3364108327701532 0.00874765094643272 -0.06375797668894194 0.008617784456073009 -0.06381722504926152 0.287226162336359 0.3038221930248614
3182312000.0 0.2967357040646601 0.3341264736335658 0.0070694544214380825 -0.06408469281568314 0.006954308157631844 -0.06421190189904934 0.287464414757087 0.3024188973481434
3183375000.0 0.29854686999210467 0.33178456206299756 0.005443741744228619 -0.06428171704375983 0.005329220544479457 -0.06458069952409876 0.2876636226743846 0.30090359900775776
3184438000.0 0.3005885159932347 0.3295640109849319 0.003751398336028823 -0.06450289229152108 0.003551502931639626 -0.06489619215238482 0.28743720253858396 0.2985707082773728
3185500000.0 0.3025551607762394 0.3271702436651168 0.002179755565022499 -0.0646825754321063 0.0018932668715620886 -0.06501318108965974 0.2870371959208095 0.2957588025753611
3186562000.0 0.3044378343165805 0.3250628652917547 0.0005313527712843634 -0.06479621280220899 0.00017812120609241464 -0.06520135112544445 0.2866202191411673 0.2922379913915669
3187625000.0 0.3063377868433258 0.32301403631428083 -0.0010377720043630164 -0.06489911476851548 -0.0015253836233679215 -0.0652366457111853 0.28705204531911965 0.287993130959306
3188688000.0 0.3080764818140326 0.3208718414994638 -0.0027031999043448025 -0.06501391199397692 -0.003206460096704279 -0.06529570934522923 0.28833525411408467 0.28356194709207355
3189750000.0 0.30959966128890776 0.3187841492571235 -0.0042552277060949545 -0.06499443309112393 -0.004867560829628904 -0.06523124316124386 0.2900885430577861 0.27936209748049473
3190812000.0 0.3113971949101596 0.3168188756517838 -0.005926090351215104 -0.06504419943508966 -0.0064553697802817245 -0.06511679572064413 0.2929073594746777 0.2750470216451297
3191875000.0 0.3128930970748547 0.3148162943873088 -0.0075905089490031505 -0.06500713510429458 -0.0081986506826742 -0.06488049410017692 0.296150894095248 0.27137856307496844
3192938000.0 0.3143491718890932 0.3125554243341691 -0.009297817345989832 -0.06485862646525878 -0.009730602270993014 -0.06465691387626961 0.2996473807861333 0.26845093303651074
3194000000.0 0.3157446866138104 0.31044926473647405 -0.011023915878316082 -0.06470459945808368 -0.011443942625482678 -0.06451886945062622 0.30352799988811474 0.266363098321266
3195062000.0 0.31705714565116194 0.30846907813060664 -0.012808390544009075 -0.06435996410042419 -0.013141737457858882 -0.06419340139892829 0.30722494139646633 0.2647160831045565
3196125000.0 0.3187190820060769 0.30641877415055063 -0.014624798091496923 -0.06405644523010981 -0.0148464198985277 -0.06395519988131435 0.31051699942155464 0.2639170577307196
3197188000.0 0.31998708965936595 0.30441372389359883 -0.016449237635468534 -0.06362506685904089 -0.01662549273902216 -0.06356344114439966 0.3130489148213603 0.2632951903088551
3198250000.0 0.32149830480774205 0.3023030421296938 -0.018243320667697002 -0.06317724941819716 -0.018356550600714824 -0.06322352688114351 0.3155203005473543 0.26328486219354474
3199312000.0 0.32310997723461465 0.29996661566436883 -0.02003426909788864 -0.06266591202405845 -0.020206520473816863 -0.06283023799160985 0.31682703718928784 0.26289390953107133
3200375000.0 0.3244169528494979 0.298036866819069 -0.02186090298478082 -0.06221066535017385 -0.022014761521598897 -0.06237282816759345 0.3180396211186528 0.26220801095447477
3201438000.0 0.3262890607955421 0.29607647410872806 -0.023558310964514852 -0.06162856537822681 -0.023860160593857004 -0.06174487713828784 0.3184297404284266 0.2616269049652459
3202500000.0 0.327551126337214 0.29447299844988467 -0.025262107707206286 -0.061083253803002696 -0.025696290474581433 -0.061202603441729585 0.3181873496047257 0.26061116847828053
3203562000.0 0.32950975700069296 0.2924154936156138 -0.02685341482657975 -0.06054195032153633 -0.027353395767242637 -0.060619126072358136 0.31818034350171576 0.2587970610453519
3204625000.0 0.3313204449722496 0.29094448843608783 -0.028463707988441854 -0.059911052296494606 -0.029031310336340037 -0.0598594329304836 0.3176590947006842 0.2564579168987645
3205688000.0 0.33268322899902814 0.2892877987255666 -0.030016007152927453 -0.05927012265887762 -0.030581737455622093 -0.05912773685969449 0.3170020567681385 0.25325029022185314
3206750000.0 0.33424071647109055 0.2878165832164037 -0.03151534744977431 -0.05855826464320655 -0.0321720543611452 -0.05834508664175468 0.3168777355176371 0.24926666602912487
3207812000.0 0.33566740455065974 0.2860798591794888 -0.03305429145188295 -0.05784266290030827 -0.03368222602768575 -0.05755793209395084 0.31746874852868195 0.24494415910428646
3208875000.0 0.3369069549668941 0.2849119904765724 -0.03458749410047649 -0.05708984101918503 -0.03502022741210221 -0.05679997597439708 0.3188124035925263 0.24035188263547896
3209938000.0 0.33799615951728734 0.2832297618731821 -0.03615912224695898 -0.056256364934534654 -0.036428254770199404 -0.05601870933575083 0.32127855079493217 0.2358534021515779
3211000000.0 0.339266435309443 0.2818887564485151 -0.03768103374698279 -0.05537704265583235 -0.03794807821933741 -0.05513528473783507 0.32420764899230803 0.23192448495252993
3212062000.0 0.34018107527930025 0.28050029582971364 -0.03918107725867329 -0.05442314595457916 -0.03937090422728646 -0.05416048316036772 0.3277423719898015 0.22868664417948023
3213125000.0 0.3413057891971576 0.27892671918622974 -0.04067765036319311 -0.05340496383325217 -0.04079101561853189 -0.05314989059786279 0.3318125278547431 0.22656674984189015
3214188000.0 0.3421803567257176 0.27733567083546734 -0.04215370756095939 -0.0523647830837099 -0.04220555507990894 -0.05226778533168915 0.33566989701076677 0.22490037244671057
3215250000.0 0.34297530690724354 0.27570733471344994 -0.043625324398115825 -0.05118132656148542 -0.04371756883838475 -0.0510348080161304 0.3394701904337124 0.2244555087078951
3216312000.0 0.3443335940127943 0.27404890243080465 -0.04506546512304441 -0.049947149906090775 -0.04519193954346109 -0.04992412646967448 0.3426733196338558 0.2247696271085343
3217375000.0 0.34531329012275813 0.27238932015258605 -0.04643049716888459 -0.04869687879369735 -0.046611477003883676 -0.04863273405260639 0.34456745638046876 0.2255415005531277
3218438000.0 0.34633969686306293 0.27066197114121876 -0.047742385317412914 -0.04733359963362495 -0.04804755449328271 -0.04731401440249581 0.34607006211548674 0.22617887038159734
3219500000.0 0.34744871296011554 0.2690650707845691 -0.04909385336136707 -0.04596849851004684 -0.04949250185654006 -0.045833529494466105 0.3468692979339147 0.2268907497536483
3220562000.0 0.34849579652747775 0.2673828087532705 -0.050369691129822584 -0.04453881833216644 -0.05078917278968658 -0.0443919265177497 0.346750682900381 0.22772266583718165
3221625000.0 0.349251362246543 0.2658211652219809 -0.05162632362880705 -0.04312445928717372 -0.052009686068347084 -0.04296319305127434 0.3460861570905827 0.22718554372488625
3222688000.0 0.35012979665861543 0.26413175919324283 -0.052862932303762274 -0.04172793300977881 -0.053185312514992644 -0.041482806147935467 0.3451740743318044 0.2264294690564486
3223750000.0 0.3511168440664869 0.2627103014951282 -0.054041393947671844 -0.040288539903045005 -0.05437804578508972 -0.04006774453527006 0.34389672663037524 0.22531050150893342
3224812000.0 0.35204918445186595 0.26107420080568156 -0.055215653734562026 -0.03882668251338255 -0.0553992227092877 -0.03856950597932107 0.3430038026092186 0.2228357481179333
3225875000.0 0.35296003250055985 0.25922531459116627 -0.056352495570278396 -0.03734492092803899 -0.05651553967086495 -0.036991781420561795 0.3422819373881724 0.22030981460873586
3226938000.0 0.3542608131596857 0.2576164518886279 -0.057375604784840585 -0.0358871876232663 -0.057544480912047356 -0.03554558462486831 0.3415704425072677 0.21700406005971004
3228000000.0 0.3550760944380602 0.25619080106002035 -0.05837651941184565 -0.03437163326122569 -0.05850624983531195 -0.03406619893948756 0.34202175475962954 0.21331334235793817
3229062000.0 0.3562828775436185 0.25436533777179704 -0.05931941198750488 -0.03279376608955623 -0.05946289844935076 -0.03251931182969068 0.3426398185192392 0.20921658532845275
3230125000.0 0.35717303864028027 0.2527454446338822 -0.06018823133777601 -0.031164308819288958 -0.06036951072053695 -0.03092621272147806 0.34415092409296266 0.2060496455921323
3231188000.0 0.35838572981713657 0.25089393874398386 -0.06102742020245764 -0.029511831948345512 -0.06128523772211431 -0.029304367289580937 0.346410627918007 0.20278383677733453
3232250000.0 0.35971208214804534 0.24909897605605075 -0.06191114240776134 -0.027861064287434265 -0.06211756509818532 -0.02765224465257024 0.3487481887629191 0.19984889943358428
3233312000.0 0.36058182507810443 0.24754940579397966 -0.06265075123824876 -0.026099993330479007 -0.06285369469770433 -0.025859992215693305 0.35210385597732485 0.197704838343126
3234375000.0 0.3619950051077123 0.24582930472516684 -0.06342377067703242 -0.024298905200760335 -0.06359998582087349 -0.0240373214531634 0.3552432737485717 0.19637252778461783
3235438000.0 0.3632858747358303 0.24414473946678472 -0.06410288634664452 -0.022494967388704448 -0.06414224570365815 -0.022280444173050664 0.35759408564408335 0.19612016205879204
3236500000.0 0.36434962763995216 0.2427222968445009 -0.06475285449062122 -0.020662498319613445 -0.06485193637507355 -0.020397700362263117 0.35964062372687416 0.19621233255836362
3237562000.0 0.3656774521730962 0.24100637936666958 -0.06541333473827761 -0.01877792300235635 -0.06536400878701998 -0.01856145987168384 0.3608699467460052 0.1967208747020134
3238625000.0 0.36659618206806077 0.23973945145249667 -0.06598267699640314 -0.016914600762370623 -0.0658975727200946 -0.01669087696484356 0.36110261856196646 0.1970807304597228
3239688000.0 0.3674957587980347 0.23806833216126524 -0.06643937252895793 -0.014958650576427281 -0.06649057545982455 -0.014922677653785878 0.36061486022099226 0.19731568771792005
3240750000.0 0.3685463439379229 0.23647995261924717 -0.06681642263195521 -0.013171250282110877 -0.06686555422250191 -0.013026560208884664 0.35954068387544735 0.19697660571141057
3241812000.0 0.36969805562637426 0.23493889170279858 -0.06720597170515358 -0.011193363330635942 -0.0673354751971443 -0.011152441021492022 0.35786726014084425 0.19612161888890642
3242875000.0 0.3704686892052856 0.23365564478623904 -0.06743148181304287 -0.009290655603136216 -0.06767931650098856 -0.009278093448307158 0.3559920136445511 0.1948313046127969
3243938000.0 0.3714612507219345 0.23201105849225745 -0.06770780070464254 -0.007425988133613853 -0.06799113967119745 -0.007328028207932462 0.3544900075348463 0.19213279480553938
3245000000.0 0.3720590400858422 0.23007777435855606 -0.06786402283945188 -0.005554157278325737 -0.06822902112534913 -0.005436353676182202 0.35266273835251305 0.18892936448780762
3246062000.0 0.3727928500614215 0.2284220905993464 -0.0680143146226064 -0.00369919437458771 -0.06830323449474332 -0.0034886312632297634 0.3516910885699935 0.18550572373883403
3247125000.0 0.3734253053049792 0.22648787317124128 -0.06807367560043426 -0.001871817124933112 -0.0684665021329147 -0.0015766277325013844 0.3508233167232648 0.18111551452757524
3248188000.0 0.37434561876412403 0.22448102428433317 -0.06811906649864564 -4.7209399874032684e-05 -0.06843689876404871 0.0003798899527848873 0.3512533484342674 0.1766336906349283
3249250000.0 0.3752691304154685 0.22249001925017176 -0.06816254500820713 0.0017382882552670128 -0.06846395547956384 0.002299514275036089 0.3526899164455751 0.1718817411671943
3250312000.0 0.37589363745095306 0.22042561672310204 -0.0681041213555729 0.00353863580543525 -0.06831077784739263 0.004175030971054649 0.35464853592464013 0.1669770243394334
3251375000.0 0.3769689672053934 0.21842414723146966 -0.06804678772952526 0.0053566276297981105 -0.06814618995468634 0.005974715411327839 0.35708773409959915 0.16327135913961813
3252438000.0 0.3777602202948454 0.21617001405108172 -0.06795420558410079 0.007219203962819281 -0.06798365798004946 0.007834510016945557 0.3607733605240977 0.15964864737768292
3253500000.0 0.37896437596276233 0.21392787811318892 -0.0678128254058865 0.009070812071862104 -0.06766889089420414 0.00967877355425588 0.3641250925560984 0.15705485304884767
3254562000.0 0.3797871152465977 0.21174636319048787 -0.06761931834212778 0.010922609735659441 -0.06741217781406084 0.011510681251895012 0.3674425393421776 0.15519554227628196
3255625000.0 0.3807418315545266 0.20924987417319854 -0.067334522609942 0.012862172251493803 -0.06717180955806781 0.013399959924950562 0.3703714393798311 0.15415555175631038
3256688000.0 0.38223600214485576 0.20732319951119207 -0.06705203925528173 0.01484126973328549 -0.06686112755541385 0.015128986621900606 0.37263273597769125 0.15347678055031308
3257750000.0 0.3831904368060534 0.20470640387287078 -0.06674462262424857 0.016756612512267812 -0.06661212663201285 0.017082683640853174 0.374826513642412 0.15279775453897765
3258812000.0 0.3845989612468627 0.20239852934207467 -0.06631844792814086 0.018764389554147207 -0.0661979561560103 0.01888919019243195 0.37486608414939904 0.15260987245761837
3259875000.0 0.38600710715583725 0.19983940354736723 -0.06589176581196678 0.020702351207920022 -0.0657920261301296 0.020795984081808168 0.37527351049105645 0.15184057440017468
3260938000.0 0.3872090004484148 0.19733167295589366 -0.0653581896153897 0.02262208328323733 -0.06529824297365354 0.022755857549703346 0.37508520277411583 0.15074084059729356
3262000000.0 0.38873886259042156 0.19483640256160178 -0.06468592992169983 0.024533491382595807 -0.06469732159104778 0.02456842335643508 0.37361140996024234 0.148843429042744
3263062000.0 0.3901345589733477 0.19184307841414994 -0.06396942445075253 0.026369094108914342 -0.06403909446308195 0.026548388994021815 0.3729367802035396 0.14597834474419835
3264125000.0 0.39158201233068146 0.18941586174114708 -0.06318406176776942 0.028126753502718697 -0.06334843244484754 0.028373161756222558 0.37172569501382335 0.14295223798967518
3265188000.0 0.3934368457858462 0.18723245958341025 -0.06245590344772746 0.02986249488129365 -0.06260646731402736 0.03012389107625874 0.3711793498857456 0.13944235436269714
3266250000.0 0.394864629208775 0.18453286441378824 -0.061644455899634173 0.031459220345765475 -0.06184064690352139 0.03184187025377959 0.3709048179634274 0.13534737916718173
3267312000.0 0.3963468458624528 0.1821270088339015 -0.06079525438111153 0.03305784689293322 -0.0609261299184701 0.0335954586959398 0.3712019373731611 0.13106132079819277
3268375000.0 0.39789978717530516 0.17950675149195666 -0.059907260060287064 0.03462091212974544 -0.05993139545328766 0.03516594116451886 0.37244510849206286 0.12610390655708306
3269438000.0 0.3994678050340746 0.1772129490593911 -0.05900419567106293 0.036184733757299636 -0.05901198495897286 0.03680455002702518 0.3747697215209502 0.12161748729923968
3270500000.0 0.4009291476550569 0.17469828788490666 -0.05811923153804372 0.03773752311504791 -0.058012386708657805 0.03826330849728504 0.3771887836109786 0.11710779081658802
3271562000.0 0.4023263486767044 0.17227733554873975 -0.05722224961574138 0.03929495772352553 -0.05690026664774888 0.039836242421956006 0.3805293028071383 0.11373712216817694
3272625000.0 0.4036331307568716 0.16959646880099638 -0.05625081948355937 0.040807744139039225 -0.05598063696477694 0.0413319318315017 0.3843819269805065 0.11075743819442625
3273688000.0 0.40500396376660086 0.16703855445084417 -0.05533550906799413 0.04240572793896806 -0.05497215740964876 0.04287642133659578 0.3882972515200124 0.10888549561726305
3274750000.0 0.40625053670776495 0.16462279094572194 -0.05432765001691355 0.04395629364017234 -0.05394605445115162 0.04435619228599007 0.3916826512722013 0.10745036456760533
3275812000.0 0.4073024062996452 0.16204525203299905 -0.053200998339298824 0.045529753213878546 -0.05283637950800563 0.04594288141736825 0.39489076891718805 0.10690661810280702
3276875000.0 0.4085420509796778 0.15919673405351023 -0.05197927251718633 0.047097621020853284 -0.05159925970930626 0.04734182169498899 0.3972237904913396 0.10669409225552577
3277938000.0 0.4097851809368402 0.15647453671254957 -0.05074145256462838 0.04864858729245147 -0.05048535057513704 0.04894898483401852 0.3988304284636783 0.10676450456710128
3279000000.0 0.4108093720763441 0.15349610049742768 -0.04945814302419956 0.0502123857564854 -0.049194216402988336 0.05039186856122658 0.39934922222268326 0.10693491443887398
3280062000.0 0.41180878178424846 0.1506110237407596 -0.04809203457328825 0.05170282908369102 -0.047837370391230025 0.051923051529603886 0.3990955302288567 0.10647546685325748
3281125000.0 0.4131668613976007 0.14768054797217972 -0.04667853502743351 0.053123155641690976 -0.04652453106131822 0.053268923523544134 0.3983991821887559 0.1053059124367972
3282188000.0 0.4143967278875196 0.14480232549387304 -0.04521911632560042 0.05450112003014338 -0.04506245436110244 0.05471420210851276 0.3974108103180698 0.10348264693298603
3283250000.0 0.41552025294472406 0.14192643484078013 -0.04374658901842051 0.05574449788714741 -0.04357223824116814 0.055908143816959 0.39626027557463944 0.10112202956052235
3284312000.0 0.41669435488626944 0.13876779046452425 -0.042208143915507174 0.05697083391916122 -0.04204661732891178 0.05712008528568042 0.3954720027156892 0.0979675027548163
3285375000.0 0.41808832873544 0.13593322913946526 -0.04066663164680984 0.05809095021075901 -0.040518121114790466 0.058318816440937234 0.39474972357434257 0.0943924133084207
3286438000.0 0.4194740561614186 0.13315220697659688 -0.03910510955836831 0.0591048507690112 -0.03895201320445473 0.0593230716344648 0.39479496323941826 0.09052508286731627
3287500000.0 0.42049481173258574 0.13039104235128804 -0.037521295185645176 0.06008432573789385 -0.03739016164960647 0.060438942363040975 0.3951892278048197 0.08627945144354512
3288562000.0 0.4215818572662587 0.12712869563266777 -0.035859504250564514 0.061032952066480156 -0.035839495446014294 0.06128372694782549 0.3961072046952727 0.08249812731658826
3289625000.0 0.42267948048717324 0.12435309667506789 -0.03422347778324963 0.06193693523566483 -0.03404667226398407 0.06221480671231794 0.3977153303669451 0.07890466622070248
3290688000.0 0.42404690201895456 0.12135753607198908 -0.032541696021325006 0.06277469667895044 -0.03233607407930741 0.06309219432015804 0.39927260051638674 0.07562327576529451
3291750000.0 0.4251535699254282 0.11832014252457553 -0.030769116455686956 0.06364246754851585 -0.030612440880265147 0.06402807555370335 0.4011862134135775 0.07281807183823921
3292812000.0 0.42621860886307145 0.1153216954188241 -0.02897525557364067 0.06448767837058589 -0.02874107451075261 0.06473729245808889 0.4028250593817261 0.07062268447822412
3293875000.0 0.42735474015873764 0.11256577325687245 -0.027194401631955183 0.06530479134735144 -0.02689090108136709 0.06564688148974404 0.40449855375099586 0.0691148580280805
3294938000.0 0.4284718225721986 0.10957639833915295 -0.02532893127173996 0.0660753373054258 -0.024961921527373743 0.06637334788749881 0.40564326929605504 0.06794965475199323
3296000000.0 0.42950626664394287 0.10667127386473345 -0.023392470946983147 0.06683589273305202 -0.022978145768890196 0.06708949224897955 0.40581311398490244 0.06709613266514967
3297062000.0 0.43074904473130354 0.10406644106606593 -0.021428625784360535 0.067591180062077 -0.021046175584672037 0.06780765935704004 0.40558270481370895 0.0658771837231064
3298125000.0 0.43146010884654246 0.1012094109854033 -0.019431301738680386 0.0682807848404876 -0.01914974092125843 0.0684702490820243 0.40406664766340505 0.06481562266478713
3299188000.0 0.4326690889479842 0.09878365042623051 -0.017457012214786613 0.06890639332842954 -0.017218532205021234 0.06910059707885101 0.4024397188782885 0.06333545841220971
3300250000.0 0.433553657238452 0.09610309438744735 -0.015487748634155706 0.06950795732297842 -0.015205967058424346 0.0697062544891256 0.40040970203887566 0.06133939384335545
3301312000.0 0.434503510089689 0.09336638857244227 -0.013483233650888939 0.07005995891392355 -0.013217691775204803 0.07021582689356834 0.3976984131819265 0.05846501782904985
3302375000.0 0.4352472327726478 0.0907616984697023 -0.011502537574448704 0.07055867319492029 -0.011199452422143744 0.07072032283943532 0.3958798153878014 0.05497056343753478
3303438000.0 0.4359650532030226 0.08825291194400477 -0.009599229453839921 0.07096010613146835 -0.009325300402141027 0.07114169902426078 0.39367301408732625 0.05076060141395757
3304500000.0 0.4366875204810792 0.08559448343561232 -0.0076790921551552855 0.07130484206706131 -0.007403330933736727 0.07132290294299848 0.39237636984003355 0.046060915539222834
3305562000.0 0.43723113166363337 0.08308502390019148 -0.0057854050902180565 0.07158105325966027 -0.005385680754484188 0.07180610265419733 0.39264622270113525 0.0408816548407573
3306625000.0 0.43775673949643745 0.08052169622215759 -0.003906779808358552 0.07181848550550338 -0.003598672485749113 0.07204140062511376 0.3928464129860651 0.036351595976828965
3307688000.0 0.4383356345295087 0.07779216462065781 -0.0021316235863971904 0.0718919704625305 -0.001719422781326664 0.07210705495560485 0.39315724960893295 0.03193031247929757
3308750000.0 0.4390401320730901 0.07519139764171762 -0.00020956688992417936 0.07192346183741365 0.00018094556188506035 0.072115504946917 0.39477538879628943 0.027009149479126256
3309812000.0 0.43934243225372666 0.0723062050686408 0.001669052787238195 0.07193861877520946 0.0021209079723382195 0.07210308810363285 0.3972810799100466 0.023316540535804318
3310875000.0 0.4397093414856742 0.06977928219378737 0.003601319354109007 0.07187356005222134 0.003950333072430349 0.07187851120915308 0.3995343189348485 0.020141684400831323
3311938000.0 0.4402915409949589 0.06694692385021662 0.005570110936782275 0.07168570827385648 0.0058607570126594025 0.07179988383151407 0.4009188763548131 0.01774519561153517
3313000000.0 0.44051035654814963 0.06436008397360019 0.00757027029753925 0.07148128186127616 0.007883105635945598 0.07147939335779449 0.40224546596907085 0.01593457921318549
3314062000.0 0.44070847448452183 0.06151359833562191 0.00950526330766133 0.07126764198791372 0.009826177969693655 0.07119069757209537 0.4030338812910679 0.01505660076570739
3315125000.0 0.4412726449360192 0.0588731571115909 0.011573289807630064 0.07087496479620062 0.011833113398971105 0.07090361549990594 0.4028908780335381 0.014122254257858199
3316188000.0 0.44098657742081215 0.05613135874186443 0.013597561580497852 0.07053402684088875 0.013842694192478492 0.07043894049863661 0.4013060361940305 0.013215493771846318
3317250000.0 0.44101015567179824 0.05341760065256599 0.015719080989045803 0.07006483805236627 0.01600596036602251 0.07003941804564838 0.39919223525721687 0.011947944788542797
3318312000.0 0.4414794804543195 0.05065152785996417 0.017827364107586056 0.06957206246174288 0.018153024986035247 0.0695073412493303 0.3957768979636927 0.010158295644822748
3319375000.0 0.4412772410108236 0.04792537745034874 0.0199323164215731 0.06895164711617646 0.020210142749824266 0.06908260939221222 0.39214042982568703 0.008210069210409282
3320438000.0 0.4412477797489591 0.045000234972758804 0.02193049696282888 0.06832832383420977 0.022343491210498074 0.06846010955404945 0.3882004364854215 0.005121833514142182
3321500000.0 0.4411782381633802 0.04276948076997674 0.023910566326719288 0.06760578898192082 0.024306974055573156 0.06773184996294118 0.38346163860908583 0.0015898931324686751
3322562000.0 0.441173727483988 0.03995060965669253 0.025938060566346958 0.06696259441723212 0.026378554436081468 0.0671279015459351 0.3804915454984295 -0.003621808282757407
3323625000.0 0.44107861816876864 0.037189482236269326 0.02788905755303326 0.06623505568448701 0.0283582346291121 0.06635422289106097 0.37758246495771497 -0.009262685149465386
3324688000.0 0.44093728805491955 0.03474070942286551 0.0297168018799358 0.06554277757200148 0.030215252214930443 0.06557900476903986 0.3760822199322193 -0.014983621954791072
3325750000.0 0.4404612947410253 0.03217748387932195 0.031569954861095116 0.06477839740606027 0.03197385251715296 0.06475039755429103 0.37583308337813504 -0.021456796439649418
3326812000.0 0.4401408783060361 0.029871631720148027 0.033313187046654695 0.06400962100875085 0.03389891967060694 0.06399608782147337 0.3764726710006684 -0.02759138845064751
3327875000.0 0.43972561744722727 0.027204451641768018 0.03505905349407799 0.06330021315776653 0.03561510540629247 0.06319704802566846 0.37847236156511654 -0.03340638986385997
3328938000.0 0.43940040476477693 0.024483103200052998 0.036714073119519165 0.06257251728677277 0.03726837085567759 0.06235003508803095 0.38143373190771285 -0.03804417663564313
3330000000.0 0.43876466988414453 0.021918620433389734 0.03830895499182484 0.061764736905548574 0.038803610389766895 0.061303287639717055 0.38481654186209696 -0.04146202285071025
3331062000.0 0.43794716970268577 0.019558893245774776 0.04000070105096156 0.06081023570195739 0.04041596161561493 0.06048160861549754 0.38815159528601023 -0.04458717208099309
3332125000.0 0.43733820477439556 0.016816912376304706 0.041632286842084705 0.0599060561106999 0.0419648487691103 0.05958856267772905 0.3914154457820001 -0.046690513362006976
3333188000.0 0.436288997148208 0.014232599628318039 0.04324906212765966 0.05884244564317052 0.04348195949478679 0.05861157841123929 0.39446160877361625 -0.046936145398759864
3334250000.0 0.4357432441564803 0.011464593953213798 0.04494412785972632 0.05777031566963804 0.04522906398889358 0.057544246126355184 0.3967222497357788 -0.04736032070547689
3335312000.0 0.434877235441615 0.008685941748691098 0.04659715332462806 0.0565344702919828 0.04678558142338632 0.05635161166379429 0.39764760752965284 -0.04664633210162773
3336375000.0 0.43407719086532537 0.006067678507433744 0.048222519700891725 0.055243005301196024 0.04835209805621932 0.05514466274811739 0.39750435397166 -0.045865491473632364
3337438000.0 0.43312444989543303 0.0033873500145961584 0.049807131332808216 0.053876596094602956 0.04990477965067648 0.053707530189110585 0.39571582241407016 -0.04523900595065016
3338500000.0 0.4323014719724377 0.0003526059627049832 0.051320621328304526 0.05241867791295372 0.051485476416281366 0.05232097225420492 0.3931421868204406 -0.04499882135407015
3339562000.0 0.43145744984026557 -0.0021026250674370576 0.05281137398060156 0.05093236729389439 0.053074429375693934 0.050807646971428366 0.38959842466599354 -0.045816995787818206
3340625000.0 0.43060262173961444 -0.004835167464799997 0.05423153611431322 0.04935218050714727 0.054581577811174266 0.04913545643021105 0.38524528692974186 -0.047625314078566156
3341688000.0 0.42992223385117173 -0.0077436256461527134 0.0555749312504531 0.04772898888441071 0.05595929563373544 0.047510229022069944 0.38102586934771504 -0.05051018059207473
3342750000.0 0.42891123796143077 -0.010457481154431047 0.056834763364243146 0.046167375099110446 0.05725275398305831 0.04594852785486912 0.3771102570083521 -0.05403853307446475
3343812000.0 0.42780117866734196 -0.013448800338539785 0.05808841297692845 0.04454158445369494 0.05850832081189833 0.0443729673887722 0.37404073598380866 -0.05877045870314369
3344875000.0 0.4268597467291831 -0.016216163149276923 0.059343388251593486 0.042962627574799156 0.05973343881630159 0.04284140287141101 0.37205479041330164 -0.06391517830155999
3345938000.0 0.42562894533666173 -0.019152651265556906 0.060456345500053826 0.0413517340538144 0.06078509695940508 0.04121054417445403 0.37105926993790816 -0.06917783135227983
3347000000.0 0.4247921902767221 -0.022102219590463663 0.061600814749995486 0.03979146795541139 0.06195995474930457 0.03968177294734221 0.37107448339394905 -0.0741424592363758
3348062000.0 0.4237668381032877 -0.025149161510941567 0.0627300844282825 0.038249655538273426 0.06312620208424057 0.03811596876071766 0.3720730541587938 -0.07874798723371737
3349125000.0 0.4228688095429895 -0.027813004551365195 0.06386476111343192 0.03669859681376225 0.06419012389416022 0.036542987071538656 0.3736479187954685 -0.0821764982051792
3350188000.0 0.4216636815648393 -0.030654620718870058 0.06494106601325941 0.03514202844961298 0.06529333019395152 0.03497102854301329 0.3757124685851997 -0.08477074101135912
3351250000.0 0.42089677379484974 -0.033545914357575146 0.06606672483305234 0.03347619824719359 0.06644784332647614 0.03316508458458172 0.3778104516759226 -0.08598627996683626
3352312000.0 0.41979591336099586 -0.03614786508131948 0.06713809502315467 0.03179638554245642 0.06742206502532716 0.03142210027139355 0.3795417511535853 -0.08616587618506556
3353375000.0 0.4187963596057855 -0.038994441226631496 0.0681036862266126 0.030033107873376288 0.06840289857267644 0.029667703060930806 0.38066789892315694 -0.08528054310195854
3354438000.0 0.4177875992199202 -0.041832907305163376 0.0690199013175621 0.028183712738066757 0.0693584265726798 0.027705013430762704 0.3800508462062765 -0.08383103243999085
3355500000.0 0.41644855100571704 -0.04462017295595236 0.06982576283986389 0.02621502660141336 0.0701636155296742 0.02572476866418374 0.37856399499635346 -0.08201725279134509
3356562000.0 0.415275297905983 -0.04724757170765741 0.07059153343977757 0.02421958799861855 0.07087575320493888 0.02380217328992467 0.3759696873629791 -0.0802402637815228
3357625000.0 0.41404982348015723 -0.04962704144062606 0.07124932395221537 0.022183009290806 0.07148219977519783 0.021832979863021386 0.3714265965428915 -0.07840956215038773
3358688000.0 0.41281735067507125 -0.052299426494847555 0.07187150200928197 0.020126345309501897 0.0719729516392243 0.019842555756545283 0.366590494010597 -0.07776782233672534
3359750000.0 0.4112839825423868 -0.05501788255646034 0.07241190464929252 0.017971026185403118 0.07241743105318353 0.017689739463169287 0.36083312573774584 -0.07802753945922872
3360812000.0 0.41000144460033205 -0.05763618203550385 0.07291043529317902 0.015990878400068596 0.07289206836212327 0.01567754728856383 0.35507229753249847 -0.07938657181031362
3361875000.0 0.408553502596723 -0.06039121315592808 0.07330443210311428 0.013883501863869888 0.0733639102774766 0.01377984026522412 0.3490017382296703 -0.08192790675036674
3362938000.0 0.40713946642709703 -0.06297699164979238 0.07373861393858946 0.011854080919298555 0.07386001340273186 0.01170410946411201 0.34365453131795276 -0.08583700629994422
3364000000.0 0.4056017771921794 -0.06565742180819607 0.07407064321782583 0.009824792728902831 0.0741894737560507 0.009664644289694662 0.339411481176714 -0.09036083277778487
3365062000.0 0.40418921195277047 -0.06838001437824197 0.07437884267847877 0.00783504347156072 0.07467678957035297 0.007764879147488303 0.33676790453052746 -0.09542275886867002
3366125000.0 0.40274780450941705 -0.07104371091112756 0.07472470232862449 0.005868795668538325 0.07502470366129686 0.005723191125477807 0.33486170185642106 -0.10039949027354488
3367188000.0 0.40140265129106295 -0.07391199378175863 0.07489830778514174 0.003866535781137523 0.07522573194680304 0.003636864469052518 0.3345660436784522 -0.1050188969606419
3368250000.0 0.40014756200054485 -0.07642377838332975 0.07513352830618761 0.0018029032858548949 0.07556445045000225 0.001559584697372788 0.33474927272866495 -0.10991690611418233
3369312000.0 0.3988007759754822 -0.07920927381052041 0.0753070577866411 -0.00030076432913352146 0.07576807918983425 -0.0007230880019221175 0.3359242213945513 -0.11305901364901677
3370375000.0 0.39730452361015467 -0.08187620482476067 0.07544225989391545 -0.0024263808375776675 0.07578989629292729 -0.003023392390636258 0.33765031497978415 -0.11569160425412879
3371438000.0 0.39611150556931124 -0.08454783072856853 0.07553860121092879 -0.004479410819163597 0.07568527832483296 -0.005027512112188128 0.3398792942689866 -0.1175464743775682
3372500000.0 0.3949108097179511 -0.08697993955146173 0.07564356328741943 -0.00666138003355594 0.0756471086715641 -0.007075122027942805 0.3407062345260224 -0.11768394331573373
3373562000.0 0.3934085125140581 -0.08949307692908343 0.075464932152671 -0.00881654586855435 0.0756434843123756 -0.009303167556311689 0.340101962319312 -0.11774909349668258
3374625000.0 0.39224505795249237 -0.0918374269576636 0.0754005607207763 -0.011015695873749645 0.07529831428022131 -0.01140901522876502 0.3396730595878502 -0.11639331412980793
3375688000.0 0.391001808715721 -0.09452375555267449 0.0751160466274194 -0.013096519583315386 0.07502025441363024 -0.01360702149282119 0.3373844588952684 -0.11409128048479038
3376750000.0 0.3898327028243974 -0.09699210329031605 0.07485528512026231 -0.0152651738992003 0.07463987715168642 -0.015602355886747207 0.3335665710057338 -0.11262891778144765
3377812000.0 0.38852423697248994 -0.09934165433135449 0.07438620644575011 -0.017423620818035414 0.07438310845643552 -0.01773650848123472 0.32837290657485946 -0.1115532117376698
3378875000.0 0.3874514119653716 -0.10166854277776882 0.07391060889173849 -0.019572968829021993 0.07376469289002392 -0.019889661014060644 0.3228031408575897 -0.11051991509752354
3379938000.0 0.38644247472066057 -0.1040499588199609 0.07338915725275474 -0.021728639322561916 0.07334352908018534 -0.021976285612889238 0.3156477330116735 -0.11098593123067066
3381000000.0 0.3854269026268166 -0.1061124443168532 0.07286529291931501 -0.02384139675534953 0.07289260442326073 -0.024160512993482722 0.3093314118798705 -0.11342795144470402
3382062000.0 0.38436931634057253 -0.10839964360398843 0.07216239752875275 -0.026047885426714778 0.07217158535007759 -0.026308229322958523 0.30371546327929494 -0.1158609600114691
3383125000.0 0.3834586793785512 -0.11057348532374944 0.07150569628389901 -0.0281779410456871 0.07153652750759963 -0.02840080316249657 0.29821516993828207 -0.1193089174235362
3384188000.0 0.38246033106013144 -0.11249440427140837 0.07079951965312982 -0.03033909253413961 0.07086596611732962 -0.030606042128278242 0.29476849393231797 -0.1246246155309093
3385250000.0 0.3813072822466006 -0.11438218551264318 0.07001489903409416 -0.0324948593091232 0.07000978620859195 -0.03275473610020275 0.29136401141333723 -0.13003023903183825
3386312000.0 0.38035860544434086 -0.1159722401008882 0.06923265909651632 -0.03454616889817442 0.06917576833756807 -0.034973320395079936 0.2905538925010053 -0.13517279835821602
3387375000.0 0.37954700174055467 -0.11813156498813114 0.06834880592166036 -0.03673419859420194 0.06828741291144087 -0.03711261555654698 0.2914799269297406 -0.1403610408906487
3388438000.0 0.37845772901530544 -0.11959889632404182 0.067479989072793 -0.03875956026121109 0.06728710470708205 -0.0391654845558763 0.2933484334398575 -0.14490950679141143
3389500000.0 0.377536718090793 -0.12121340988826218 0.06644709163544064 -0.04078734469630791 0.06633845972938152 -0.041216310798587834 0.2962845470364411 -0.14835939481869945
3390562000.0 0.3763586373599236 -0.12308486775503381 0.06543361465048855 -0.042771999846687704 0.0651878978698362 -0.0431471808161924 0.2998320402822179 -0.15141189994547888
3391625000.0 0.37504867070538406 -0.12459825053074314 0.0643486055150942 -0.0447004677698958 0.0642327288168272 -0.04502359289531393 0.3031218778596415 -0.15236394197091976
3392688000.0 0.3739407736525321 -0.12634855091774394 0.06317348509039951 -0.04664111663443015 0.06305038193851203 -0.04683354430687447 0.3065089401142053 -0.1525137988839409
3393750000.0 0.3727853433156791 -0.1280312478170907 0.06196490469288899 -0.048485954741952296 0.06191059691707072 -0.04877755709035036 0.30797525406815446 -0.1522033526590136
3394812000.0 0.37165395486620256 -0.12979844204261082 0.06077968299234036 -0.05031467032462599 0.06073757971542184 -0.05061084001002048 0.30992255845526795 -0.15070998974551475
3395875000.0 0.37059320021693826 -0.13128552754539977 0.059528713040897685 -0.052144701910149346 0.05944502894264109 -0.052448840420279745 0.30903033474852876 -0.14811820800426476
3396938000.0 0.3694724274070478 -0.13300416607743734 0.05816925179653376 -0.05390954310976208 0.058050259188420446 -0.05429774902679983 0.30749337907772406 -0.14664687636613394
3398000000.0 0.3684788309640506 -0.1345279924782167 0.0567663055918348 -0.05567148637010678 0.05670818609172048 -0.056006318833750554 0.30528023717115854 -0.14566407270096404
3399062000.0 0.3674577901645438 -0.13612962423584282 0.05534682198881639 -0.05741461392035248 0.055120535461739284 -0.057760891787820276 0.3016467743854438 -0.1447329567329421
3400125000.0 0.3661566638851199 -0.13769890562538767 0.05382383558139557 -0.059152605424857126 0.053582253462140614 -0.05955462456214665 0.2974853497205338 -0.144053257599276
3401188000.0 0.3649962431179238 -0.13908155902702823 0.052201980809338584 -0.060757434331195466 0.05188614835881292 -0.061142348298402344 0.29287639978654006 -0.14522807711139335
3402250000.0 0.36360467009126973 -0.1404741497053446 0.05043676262918987 -0.06239265620952026 0.050062448630941773 -0.0627328138752121 0.2887681890639857 -0.14746116683950103
3403312000.0 0.3625486423559642 -0.1417490499912057 0.04850575838050412 -0.06399196957197407 0.0482401330154497 -0.06426271109591226 0.28506192833682903 -0.15050821432202502
3404375000.0 0.36153615457722854 -0.14329566343475325 0.046655615110492044 -0.06550897920119811 0.046293820824722914 -0.06571037409036568 0.28226146684722186 -0.15402212271638996
3405438000.0 0.3601978093193829 -0.14460689590062784 0.044630191828282414 -0.06693396477637455 0.044229312250714005 -0.06705283652651318 0.28057177699342545 -0.15806146256729073
3406500000.0 0.35877141644963106 -0.1461713572332406 0.04248948019071453 -0.06831959129146566 0.042295382901042775 -0.0683458036874625 0.2798777235232706 -0.16176969898331045
3407562000.0 0.35778512988941347 -0.1472375249069838 0.040426110551659476 -0.06965209956543617 0.040126610471223144 -0.0697355258949017 0.2805364877933025 -0.16568680301302485
3408625000.0 0.35637314135973436 -0.1489499424768311 0.03830834200314707 -0.07088362795306159 0.03806302699556471 -0.07083536134207224 0.28188008173785384 -0.1683192534310255
3409688000.0 0.355420978385117 -0.1503092929765784 0.03620270477420921 -0.07199477018750633 0.03601224354372683 -0.07209624255122665 0.2838089036617478 -0.17010328611915698
3410750000.0 0.3542873696038121 -0.15160122658688782 0.03411937845314074 -0.0730536870967757 0.033969402393437174 -0.07319348192452263 0.28625196836704775 -0.17064532789833795
3411812000.0 0.35334382049210167 -0.15284362437671414 0.032051410707427896 -0.07400445600006268 0.03196261326941598 -0.07428617733546472 0.28816553581467746 -0.1705822535462412
3412875000.0 0.3524313311916782 -0.15414547133615245 0.029928510750648857 -0.0750582574918093 0.02992730619254532 -0.07532841120943562 0.28945790242780683 -0.1692257955650728
3413938000.0 0.3512238075060422 -0.15536265960321016 0.027842365600231497 -0.0759011863755564 0.02770531223252665 -0.076456059826494 0.2895850256229385 -0.1672211089410181
3415000000.0 0.3503826964132194 -0.15654517200566292 0.025722204206101943 -0.07686922979973845 0.025568636290009245 -0.07731746082919175 0.28911666415353443 -0.1651387300149543
3416062000.0 0.3491340609331682 -0.1575808033061672 0.02356507119498746 -0.07773054715385484 0.02325299556083929 -0.0783125601377787 0.2877516219885893 -0.1629749786039958
3417125000.0 0.3482681897911792 -0.15837972575374942 0.021389039977611417 -0.07854465355618816 0.02098051453251499 -0.0790835889910817 0.2849921877422163 -0.16102693204059232
3418188000.0 0.347043118313758 -0.15943454875295665 0.019163707787400723 -0.07931968267446284 0.018603918718117115 -0.07971227267207598 0.2817093112595297 -0.1599161844479867
3419250000.0 0.34582043544935015 -0.1605392688763171 0.016902606027574197 -0.08004260416146283 0.01631657693873768 -0.08038817608633173 0.2779005166552182 -0.1596607723061723
3420312000.0 0.3444077905531516 -0.16153433758425625 0.01456965169656308 -0.0806388892930618 0.013911735051674886 -0.08081973406349957 0.2737179256918147 -0.15996280806798435
3421375000.0 0.3432850288231367 -0.16261123907829114 0.012260182921418292 -0.08121458300916398 0.011509807394335509 -0.0812375482760667 0.26988122705357126 -0.16113902863852445
3422438000.0 0.3417347580319837 -0.16363885113615417 0.009875118005758333 -0.08163059817434108 0.009313262149609404 -0.08156946534714399 0.26648370046180986 -0.16351423899294265
3423500000.0 0.3404829521279967 -0.16474032640314804 0.007470565326152078 -0.08193445512261822 0.007042015369568933 -0.08162068217762165 0.2636616930646179 -0.16636208045173614
3424562000.0 0.3392137167623811 -0.1660181253753461 0.004995321069363389 -0.08208547286109211 0.004789196194888049 -0.08191812241765176 0.2615643905905386 -0.1695920114626393
3425625000.0 0.33777134661538866 -0.16727061341084337 0.002594937509605778 -0.08216371577638294 0.002462186070271564 -0.08195549562953004 0.2605885028513331 -0.17270350335717602
3426688000.0 0.3362245016990633 -0.16856030281652487 0.0001486889157583901 -0.08211704177857944 0.00019069982094830083 -0.08219377638676839 0.2604920094278616 -0.17576983131104443
3427750000.0 0.3349293485120591 -0.16974482297551702 -0.0022912041748932043 -0.08203858526234742 -0.002140982655039855 -0.08215924775404142 0.2610648578949181 -0.17803731015059926
3428812000.0 0.33328878350363855 -0.17111733249342753 -0.004651856299444028 -0.08178523390803821 -0.004599407779178397 -0.08209335147796695 0.26161696119414096 -0.17935346689193357
3429875000.0 0.33186397216490476 -0.1725120253282829 -0.007019576712454923 -0.08156733158910213 -0.007190750172279301 -0.08199205036678381 0.2629334984859377 -0.1800931916787931
3430938000.0 0.330270483683776 -0.17384277556289396 -0.009410982656874817 -0.08124101747487152 -0.009646050829612954 -0.08176712950789605 0.26374096505559713 -0.17964289701165656
3432000000.0 0.32899643628259856 -0.17541079016869454 -0.011805488512976399 -0.08083378317784738 -0.012273083517200009 -0.08149241683256603 0.26398681705356875 -0.17846315310886474
3433062000.0 0.3272380908820532 -0.17679737757602934 -0.01420514382250461 -0.08046398491626068 -0.014746468446156345 -0.08105274605756 0.26318246437366966 -0.1773028045650527
3434125000.0 0.3257575759824669 -0.1781134932909649 -0.016519619241000084 -0.08002070820845955 -0.0173073351654474 -0.08048746217577739 0.26184275532951884 -0.17528308315836472
3435188000.0 0.3242361715773765 -0.1796626230106678 -0.01892778516062092 -0.07953135481359667 -0.019756820631992 -0.07979404303258238 0.25902666530916013 -0.1737244765994089
3436250000.0 0.32267267278549905 -0.181039227173808 -0.021281628863543827 -0.07900825289660271 -0.02210304162732042 -0.07908915478942448 0.2559063092703147 -0.17245428684700734
3437312000.0 0.32073013891286367 -0.1827292979063786 -0.02367365436216927 -0.0783815676951384 -0.024550450716790132 -0.07824106374538133 0.25151671492304406 -0.1715744410222845
3438375000.0 0.31919850391571897 -0.18445810194032752 -0.026056335101744814 -0.07774601551703472 -0.026850675869652618 -0.07746265857383106 0.2470925798656602 -0.1720901545053315
3439438000.0 0.31762965553814404 -0.1860933935244649 -0.028428071795239013 -0.07704793084367187 -0.0290325768840572 -0.0766381593969943 0.24235094818935363 -0.17334814894412678
3440500000.0 0.3158060764891061 -0.187815969330334 -0.030743921004729523 -0.07625534058964344 -0.031216417133433396 -0.07578788683634571 0.238063920534378 -0.17571373183565953
3441562000.0 0.31409211224568356 -0.18969823683030906 -0.033091066494448595 -0.07546175278089283 -0.03342914886875359 -0.07490815059581314 0.23416468859182532 -0.17917828112952575
3442625000.0 0.31234249037925094 -0.19132524149344746 -0.03539022507771795 -0.07453842414569405 -0.03557243607121922 -0.07423813321508702 0.23199029314308872 -0.1834256824601551
3443688000.0 0.31064452580309193 -0.1932128643704742 -0.03763876612266578 -0.07348259694353809 -0.037739153891366284 -0.07331792290435352 0.22988080779161515 -0.18810136036392514
3444750000.0 0.30876965782245547 -0.19502263287172042 -0.03986150399970174 -0.07239939455843751 -0.039932787564127 -0.07238761634530474 0.2294519200443075 -0.19293032049378744
3445812000.0 0.30707389234932575 -0.19674068627209698 -0.04205328957341765 -0.07128169224781235 -0.04209500935971208 -0.0713014627063295 0.23018331407517575 -0.19757682244611086
3446875000.0 0.3054217469150324 -0.19842640047394558 -0.04409441421371948 -0.0699838111484051 -0.04425997441120382 -0.07024635368778517 0.23181723560353068 -0.20134457072466236
3447938000.0 0.3037105515092253 -0.20009623205724028 -0.04619766847991008 -0.06868966869958157 -0.04638857492831937 -0.06903454831579862 0.23433842866816096 -0.204624500812939
3449000000.0 0.3017303099875452 -0.20178218295621572 -0.04820000522110604 -0.06727102424166805 -0.048500736604806555 -0.06767948244176486 0.2370858720811225 -0.20644825729654415
3450062000.0 0.2999487860144753 -0.20365137363067123 -0.0500205709533938 -0.0658677524553959 -0.050614367213105235 -0.06608328877629509 0.23953540955577826 -0.20714588109956852
3451125000.0 0.2982427223761518 -0.205117269061593 -0.051921705054013154 -0.06430708100676466 -0.05261178525995173 -0.064451630821556 0.24159131533491238 -0.2068772415407027
3452188000.0 0.29628552779429124 -0.20698767348438152 -0.053681612076356355 -0.06271340370949839 -0.054375473732474845 -0.06269665025305927 0.2427437438057584 -0.20561195194183596
3453250000.0 0.29424500881526894 -0.2085125591873126 -0.05543573167019281 -0.06106101019569262 -0.05618449564323814 -0.06097873688095682 0.24267039698217668 -0.20388576487581384
3454312000.0 0.2924326015321819 -0.21040544425144636 -0.05708300277684935 -0.05936433174581644 -0.05789820151661481 -0.059198867553757896 0.24128775000909097 -0.2022563942019296
3455375000.0 0.29047594111988856 -0.21226867169107183 -0.0588209370999186 -0.05770487366586265 -0.05954598160870492 -0.05730647729657564 0.23929247759847047 -0.20062725637505613
3456438000.0 0.2884708296570208 -0.21391474667644964 -0.060421487031747066 -0.05585399408150195 -0.06106559264427103 -0.05550068228042963 0.23574224749412037 -0.19984673626190444
3457500000.0 0.2862553428383006 -0.21581811652005548 -0.062077412870424564 -0.054056124664254815 -0.06253837068167876 -0.05363864105462344 0.2322571025359554 -0.19986514224845836
3458562000.0 0.28437522102281665 -0.2175710775838458 -0.06368874603943274 -0.05221481884731049 -0.06405772707943687 -0.05184066365655371 0.22815161370590023 -0.20077948805218807
3459625000.0 0.2824280426463338 -0.2196192977616953 -0.06526532869420006 -0.05034874542663598 -0.06552465404823438 -0.04998214081379911 0.2242611087764415 -0.20265276740387977
3460688000.0 0.28026396462004066 -0.22156897579696663 -0.0667915275815487 -0.048370837426417373 -0.06698911265874305 -0.04811258872389825 0.2207110001883767 -0.2056545609589292
3461750000.0 0.27853718707158526 -0.22326577676113019 -0.06835130421968638 -0.04643027605049409 -0.06849507663595877 -0.04613872368209598 0.2179788287713337 -0.2094398499515012
3462812000.0 0.2764617025465632 -0.22476390387972547 -0.0697552714592975 -0.04440475062676943 -0.06987763164618782 -0.04414972967631606 0.21612920553072706 -0.21368934716946836
3463875000.0 0.2744912120547567 -0.22658487979687336 -0.07112351662318177 -0.042316687146872554 -0.07125133178087224 -0.04192935984635131 0.21579362273622407 -0.21844653950097662
3464938000.0 0.2727241490027174 -0.22855808318351709 -0.07248275880216071 -0.04019477160660154 -0.07264494657852709 -0.03986942682460567 0.21651599853970768 -0.22283512122715676
3466000000.0 0.2709351636906632 -0.23011423985373666 -0.07365906628885535 -0.03798329729526901 -0.07396543802247114 -0.0377136359174166 0.21832871648580454 -0.22661720864949286
3467062000.0 0.2689221573254051 -0.23163233739710504 -0.07471241397884489 -0.035709594452880154 -0.0750131371968228 -0.03551376216368961 0.22086148531642158 -0.22946607020921914
3468125000.0 0.26714356757735364 -0.23348255958314573 -0.07573621340411141 -0.03348332362890279 -0.07602721902948734 -0.03338408242708182 0.2238508391464633 -0.23106110972809665
3469188000.0 0.265110806035982 -0.23515899303017854 -0.07653819481305663 -0.03123644655264745 -0.07682188210593377 -0.031159375847802328 0.22665745808343765 -0.23127021587900964
3470250000.0 0.26322982297488307 -0.23691944482970284 -0.0772769075489241 -0.02898355614927074 -0.07757536858255631 -0.02897508588856741 0.22898226015438508 -0.23027011529192346
3471312000.0 0.2613582691625273 -0.2385877437349634 -0.07787781534476104 -0.02675519437946886 -0.07818429722180958 -0.026700585907183317 0.2303549185648476 -0.2280105212502774
3472375000.0 0.2592998743765737 -0.24026386419053755 -0.07835724153934574 -0.02451986023494495 -0.07872879846998941 -0.02439525920446051 0.23043895549334145 -0.2248319341699183
3473438000.0 0.2574610145953479 -0.24186298099060513 -0.07884865833601644 -0.02232183958302832 -0.07931530435234853 -0.022151905537209474 0.22923293549810905 -0.2218238067897228
3474500000.0 0.2558085495858395 -0.24332039343520578 -0.07928847409104436 -0.020079514301064732 -0.07967696134961158 -0.01981953697444527 0.2264215778163055 -0.21853761541539032
3475562000.0 0.25353838247851723 -0.24506222234573183 -0.07963772665451953 -0.01788817201852364 -0.08014148637694489 -0.017472879789199636 0.2228429214817493 -0.21569004769295874
3476625000.0 0.25165359623660216 -0.24652926540693457 -0.08001773376423042 -0.015641643912531224 -0.08057558195888152 -0.015159958101356844 0.21805233672724514 -0.21416047121641016
3477688000.0 0.2499016845385442 -0.2478335434478101 -0.08035745643194885 -0.01341139504189661 -0.08086624190651198 -0.01281289117544989 0.2129183576147834 -0.21355367737938022
3478750000.0 0.24796009934892002 -0.24910485286379488 -0.08071498944203061 -0.011095534410098702 -0.08122523144148042 -0.010461114046074187 0.20786170234374537 -0.21420906372537366
3479812000.0 0.24606640809646843 -0.25040701523581194 -0.08099123267041337 -0.00884148054040304 -0.08136188103830042 -0.008190659896870399 0.20271063474619958 -0.21622290540358946
3480875000.0 0.2441223864762905 -0.25169767005857935 -0.0812645316861706 -0.006423426045095073 -0.08148238987140062 -0.005795157976720926 0.1983945386304726 -0.2195199359839709
3481938000.0 0.24228009623027436 -0.2528260329837007 -0.0814263823683529 -0.0040685905140073675 -0.08155619786012482 -0.0034861433369159597 0.19502438500249258 -0.22384093980916314
3483000000.0 0.24038388762942076 -0.25395249990528657 -0.08156071081432854 -0.0016242270535014598 -0.08151314126853484 -0.0011501644869112491 0.19297884269446314 -0.2283906976387505
3484062000.0 0.23831688002217227 -0.25523611997536455 -0.08158093650189242 0.0007354277782195275 -0.08144867828756203 0.0012148787960620116 0.19196132561169948 -0.23346882871974767
3485125000.0 0.23642855085751935 -0.25608592146473924 -0.08159654486932462 0.003161092845570755 -0.0814070666114044 0.003588048892545321 0.19319810405679516 -0.23825484345016548
3486188000.0 0.2344364895922017 -0.2571255529519978 -0.0814832519399518 0.0054427742311041446 -0.08130841480095838 0.00581264647071478 0.19418993020362404 -0.24139809824094743
3487250000.0 0.23232534580420194 -0.2582505356958368 -0.08124399865384101 0.00776024416352193 -0.08106093456898224 0.00798645432696694 0.19654741251062066 -0.2437440836467088
3488312000.0 0.2302588156937323 -0.259166662647201 -0.0809951959155178 0.010015652855731035 -0.08096097589461644 0.010162640317053778 0.1989438037176602 -0.24430213315485708
3489375000.0 0.2283328134499245 -0.2600688719881351 -0.08056720872236563 0.012199023068326122 -0.08073863125090715 0.012378688134736608 0.20087104010957182 -0.24378113433583695
3490438000.0 0.22641246644380716 -0.2606611437411017 -0.0800937146570919 0.01431497287383103 -0.08016429046193076 0.014406527213596707 0.20256863257042193 -0.24110237820376018
3491500000.0 0.22455204913823554 -0.2614662349652973 -0.07945354801468789 0.01645361007805388 -0.0798216743585839 0.016664264189744957 0.20162393899334138 -0.23703066325740643
3492562000.0 0.22247598642379107 -0.26233938615444496 -0.07880606695704934 0.018612710414076195 -0.07913091271065845 0.01881547040584406 0.19982023836157617 -0.23320773182797944
3493625000.0 0.2206298739274409 -0.2626856951729841 -0.07806178510624986 0.020630086967695544 -0.07845018786398573 0.020944313835493132 0.196837252698334 -0.22823426281528633
3494688000.0 0.2187139472194102 -0.263423744847548 -0.07725870415003269 0.022816452922230564 -0.07752153958778522 0.023109813182136844 0.19130459057254456 -0.22501323338482895
3495750000.0 0.2165948889613627 -0.2637514543367482 -0.07638489398595477 0.024842756487388422 -0.07665572497702602 0.025323698344918828 0.1857787316441248 -0.220884077345594
3496812000.0 0.21474211170575086 -0.2642301715657078 -0.07552156215184827 0.02697599300863972 -0.07573815546475905 0.027429877660329862 0.17868840129119734 -0.2190558381529609
3497875000.0 0.2125722189749908 -0.26447453657785525 -0.07448340895184838 0.029009356901387524 -0.07455296067002662 0.029477874337401004 0.17090213171309598 -0.21826496459286265
3498938000.0 0.21074039621590482 -0.2646220823499899 -0.07362566826186875 0.03105362924527712 -0.07354153770032602 0.031648952295691875 0.16349770203942338 -0.2190826712795556
3500000000.0 0.20860981021001257 -0.2646888343174017 -0.07267247200464601 0.03305601153376234 -0.07262547732495835 0.03357694913846947 0.15727038935030213 -0.2215729203552044
