! Created with skrf 1.9.0 (http://scikit-rf.org).
# Hz S RI R 50.0 
!freq ReS11 ImS11 ReS21 ImS21 ReS12 ImS12 ReS22 ImS22
1800000000.0 0.15028780579231313 0.2788588171574403 -0.060266174533472744 -0.13649549746565245 -0.061210219561736126 -0.13611166439244007 0.13304738113961995 0.29501133368135984
1801062000.0 0.1522107788565181 0.27770392251470977 -0.06435128178366861 -0.13481854241290994 -0.06529817994154474 -0.13407199067069558 0.13429764226760682 0.2929211480399822
1802125000.0 0.15413655043778388 0.2764770959462393 -0.06865004895203734 -0.13277939755961496 -0.06917300799321112 -0.13217301095425274 0.1360945069551418 0.2911404731051329
1803188000.0 0.15594951234674537 0.27539387471033383 -0.0727546846510237 -0.1307344722191502 -0.07318046693548791 -0.12999490730766017 0.13864454938184512 0.28918579565508257
1804250000.0 0.15777420080269325 0.27420652631427994 -0.07703226552225251 -0.12852135094549963 -0.07703663198781974 -0.12767355325559687 0.1413070587430037 0.28771203748529767
1805312000.0 0.15948891761871606 0.27309155659145506 -0.08097653588589797 -0.12625159598319927 -0.08096994401634865 -0.12548615161591534 0.14417392272435384 0.2869471759780271
1806375000.0 0.16177749742524872 0.27179589005814536 -0.08486972666071695 -0.12371539998386451 -0.08497217926771855 -0.12296332556710728 0.14673546895470782 0.2862416126667396
1807438000.0 0.16360519712780505 0.27058195318445244 -0.08886230266729381 -0.12112665515881851 -0.08889466753986867 -0.1203827786391587 0.14949092633058772 0.2865429015702157
1808500000.0 0.16566243866690242 0.2696700424358393 -0.0926285345287678 -0.11832035083336882 -0.09278782987526792 -0.11786251587758217 0.15211155886613503 0.2869479074606252
1809562000.0 0.1675989790650604 0.2683897909714831 -0.09636523415597237 -0.11556879835404708 -0.09646436470033164 -0.11511031102255759 0.15408679734463113 0.2878772703843655
1810625000.0 0.16948381844478938 0.2672862284993461 -0.09984996210913376 -0.1124806339376676 -0.10018293118255969 -0.11202617229602198 0.1552553478845714 0.28881284727038325
1811688000.0 0.17165312275725675 0.26598851225050185 -0.10359618323291261 -0.10918236567347517 -0.10373386378942348 -0.10903992986332205 0.15693051212935413 0.28968734729187473
1812750000.0 0.17356877322810563 0.26502179188844355 -0.10690922426737881 -0.10604731894123448 -0.1071506784417542 -0.10588193883314757 0.1572963052770845 0.29069031847531246
1813812000.0 0.17548601143175693 0.26396583345596963 -0.11026859806765556 -0.10258438613086454 -0.11058214346941814 -0.10248375353286804 0.1581892548501869 0.29125226906787255
1814875000.0 0.17743234795003313 0.2627567268651956 -0.1135714244574395 -0.09911822729430383 -0.11374692486416725 -0.0989341475857578 0.15821336024758795 0.291541384551015
1815938000.0 0.17943405872651386 0.2617803028909533 -0.11676581205405627 -0.09555483461597872 -0.11686861892204711 -0.09522837932589877 0.15847830883521077 0.29134477817910137
1817000000.0 0.18125017309424674 0.2607624332673759 -0.11979168789164565 -0.09193166749884916 -0.11982494736479155 -0.09151328095665359 0.15828847927347037 0.29067389338324523
1818062000.0 0.18290711866972373 0.2597041490016382 -0.12254233524795173 -0.08811059750122739 -0.1225695201760426 -0.08765961446654512 0.15860770509532204 0.28935976504720284
1819125000.0 0.1849344858653785 0.25875076770820116 -0.12520697113006532 -0.08425002114165012 -0.12530904482517685 -0.08371953459788285 0.15860878692732927 0.2878108033128342
1820188000.0 0.1866833288078796 0.2578269213220059 -0.12769705610668594 -0.08024744731145915 -0.12773637110025665 -0.07971100237565287 0.15915231291679105 0.28544783715897387
1821250000.0 0.18845978067441785 0.25688938534159284 -0.13008415756745484 -0.07598805242779849 -0.1300383820317355 -0.07565203550186227 0.16050771271876327 0.28266785687370183
1822312000.0 0.19011371834708624 0.25592773130884716 -0.1319585947163228 -0.07171148381381116 -0.13214468844873944 -0.07146331068301937 0.16154490071863503 0.2797855233497728
1823375000.0 0.19201675085737346 0.2550249524099526 -0.13392125235831223 -0.06738724192379111 -0.13400269379095822 -0.06720836434435602 0.16410556959662906 0.2760729808867451
1824438000.0 0.19379293282081528 0.25419965095217484 -0.13568897652659764 -0.06286382532545591 -0.13587760011497926 -0.06284485860748901 0.16786019938206032 0.27270885286410373
1825500000.0 0.19552955428530058 0.25322661375656563 -0.13710615705477572 -0.05834284286334847 -0.137481792385053 -0.05852475869955926 0.17166247123272887 0.26937637255432356
1826562000.0 0.1972740052159599 0.2527019303715369 -0.13862176803845827 -0.05390981702245774 -0.13908053172434062 -0.054112435417186515 0.1766345672591547 0.2665136972751175
1827625000.0 0.19900212340389312 0.25191694575971607 -0.140061510867081 -0.04962998690286946 -0.14049041088103026 -0.04963816027003975 0.18178492952655176 0.2645999136103766
1828688000.0 0.20088030882026636 0.2511606954737091 -0.1412672350163831 -0.04516354027228495 -0.1419364870329743 -0.04508153556181911 0.18741289859124177 0.2637975165573256
1829750000.0 0.20246714859043227 0.250343871974825 -0.14255327995538153 -0.040771716108924994 -0.14316655135351009 -0.040579859066070964 0.19319652313307634 0.26293527315213766
1830812000.0 0.20398167478493476 0.24951972587031263 -0.14361805777171197 -0.036486043612855346 -0.14428937343098808 -0.035853497288737275 0.19870360013496965 0.26333154095867733
1831875000.0 0.20571164242900972 0.248659780914207 -0.14468400983854848 -0.03209899881910476 -0.1452696713735194 -0.031251191824540864 0.20344818606766235 0.2643438023931732
1832938000.0 0.20721811873140483 0.24782160120591162 -0.14546725585122924 -0.02748212392659769 -0.14614822354772722 -0.026384983119682837 0.20803650589923345 0.2656062213297987
1834000000.0 0.2087088723864923 0.24689990399138964 -0.14618537149062882 -0.02282485698242465 -0.1466247431423215 -0.021521788777535335 0.21144312075433394 0.2670225154154826
1835062000.0 0.21024755541063625 0.24589956162682988 -0.14673197280663675 -0.018235351093268366 -0.1469540588984401 -0.016509183387242315 0.21465773389290566 0.2683210199384374
1836125000.0 0.21163717254458453 0.2452619372701044 -0.14729757170124091 -0.013317884737501272 -0.14706592385017853 -0.011617501631855114 0.21748195856913718 0.269831731403272
1837188000.0 0.21318829655457472 0.2440109163349106 -0.14760650361571553 -0.008348109497526504 -0.14707442938588794 -0.006930078194615981 0.21901615601691163 0.2704548938138996
1838250000.0 0.21462835610677913 0.24304619044953954 -0.1477472393288663 -0.00339987027309925 -0.14692887495899573 -0.002285561699542894 0.22056929948913012 0.27156590479104226
1839312000.0 0.21614973236713692 0.24230650909881496 -0.14758484722403004 0.0017513403981952661 -0.14643822686420496 0.002384130101736492 0.22191430097428852 0.2710554558092548
1840375000.0 0.2176949140684858 0.24131446591206668 -0.14723221339061504 0.006435828480362712 -0.14586587222179132 0.00682599662598565 0.22276212251530897 0.27046945583757226
1841438000.0 0.2194202922017544 0.2404788669142497 -0.14655835786175006 0.011223228188918962 -0.1451871501150144 0.011099606167617944 0.2236963988865562 0.2689987200080229
1842500000.0 0.22130541679181812 0.23967780381812911 -0.14562686222334043 0.015974946565226453 -0.14448470995295293 0.015296387934808467 0.2249949297173359 0.26675977437513093
1843562000.0 0.22313737794426336 0.23880017993682048 -0.14455223798077604 0.020357765636905244 -0.1436061472064433 0.019351179659484605 0.2265815062729902 0.2641280845726814
1844625000.0 0.22535443526390073 0.23782585748027363 -0.1430913186361852 0.024807854615429316 -0.14272721634902677 0.023532082045447364 0.2288043390316173 0.2607385208882829
1845688000.0 0.2271378445182479 0.23680944091014416 -0.14151074355208995 0.0289607642992775 -0.14188408906682082 0.02762415027735713 0.23180811621021832 0.25736577502259994
1846750000.0 0.22901808767697437 0.23559870475056227 -0.13996886802528358 0.033158933357723304 -0.1409274034535239 0.03197144476130023 0.23605679675324495 0.2542024211867197
1847812000.0 0.23089902209897614 0.23457503982121225 -0.13821876044862563 0.0370460520212135 -0.1398029424471775 0.036517471698622885 0.24070090691600599 0.2506714083183916
1848875000.0 0.2325938518188263 0.2334124046985459 -0.13658612236028425 0.04086769899899476 -0.13859837931507213 0.04077700267050015 0.2457692356843608 0.24842332252901297
1849938000.0 0.23418743987112772 0.23238667403570049 -0.1351607444206083 0.04466793086030803 -0.13703195034384102 0.04533347266792696 0.2515501995815169 0.24666384954688586
1851000000.0 0.23594376189686564 0.2312399902681522 -0.13356239120285474 0.04858524091627159 -0.1353651065047279 0.049742266250350754 0.25687881848511174 0.24572911746430343
1852062000.0 0.23740013970138205 0.23015787100826504 -0.13190033968501505 0.05204067518034298 -0.1333697599972707 0.054189194527123764 0.26232406983616907 0.24553201390974838
1853125000.0 0.23901469429770353 0.22877751473474028 -0.13021385083328074 0.05596813039412442 -0.1308626741584204 0.0583059713925392 0.2673681819431119 0.2456534223769155
1854188000.0 0.24067669504762965 0.22800576773071685 -0.12866223630999907 0.059721075969416844 -0.12854581216808855 0.06225405411724949 0.27127217727761277 0.24640031733281414
1855250000.0 0.2424670062443541 0.22694922351020047 -0.12679995330269095 0.06344612685876587 -0.12595999239962172 0.06587462329699992 0.274688225017895 0.24744863618594148
1856312000.0 0.24424263484404662 0.22539550894715238 -0.1246068107073097 0.06738461441671524 -0.12319005179329721 0.06940700451660252 0.27710981799478557 0.24859746105614808
1857375000.0 0.24633252001399633 0.22440394562006233 -0.12257756901525922 0.07136812237918738 -0.1205080879138535 0.07284559290979821 0.27899526441002526 0.24925998000652935
1858438000.0 0.24802321013014153 0.22283442734673653 -0.12034932933257277 0.07531130444847965 -0.11802667332564896 0.0761221014338355 0.28006574016750746 0.250062347041377
1859500000.0 0.2500467744672464 0.2211611763440822 -0.11778143432284251 0.079041011401783 -0.1157238604893034 0.07931979761601685 0.28022497625565 0.25003690798976963
1860562000.0 0.25191977990721365 0.21933226743059844 -0.11534170475324683 0.08294138453019873 -0.11333856953916893 0.08240154185446742 0.27987344447318074 0.24958742159239347
1861625000.0 0.25376176652206783 0.21740885847398492 -0.11244517873131256 0.08637239086616519 -0.11101618830652814 0.08565678125640463 0.2791378503595495 0.2478034470720925
1862688000.0 0.255685232822281 0.2154586950677365 -0.10959764436845702 0.08993164546354288 -0.10872755438833918 0.08877216814825993 0.27852284501168506 0.24512155471915462
1863750000.0 0.2573690599315643 0.21356356542463031 -0.10640312784888456 0.09309735517399889 -0.10613201136621364 0.09181341517924002 0.2775096828168449 0.24155477266690714
1864812000.0 0.25921850669445307 0.2114779054668592 -0.103275047630633 0.09616561244589175 -0.10348915107520837 0.09494737888783805 0.277386926441178 0.23714105745521172
1865875000.0 0.2610391317969988 0.20945442634617292 -0.0999003834968764 0.09912883329264516 -0.10045642026585094 0.0980566992255139 0.27769100845090816 0.2315441196255854
1866938000.0 0.2628796060237085 0.20734991454565616 -0.09635479924389462 0.10189021365325858 -0.09730106317357828 0.10118598088500316 0.27855388229418865 0.22582288491725877
1868000000.0 0.2648007288558759 0.20528084194469776 -0.09263213992459379 0.10450787571186568 -0.09385831840545585 0.10426661666297313 0.28075068716865 0.21989194448946134
1869062000.0 0.26677899001448463 0.20308470753106947 -0.08895070443759164 0.10682533067666432 -0.0901360591112639 0.10699244254057176 0.28373242530550075 0.21349642348400158
1870125000.0 0.2688665170573619 0.20115573940793266 -0.08531726458759045 0.10891796540198627 -0.08617340663990111 0.10960122705840793 0.28695316277153343 0.20734244981269478
1871188000.0 0.2711258683100646 0.198966949500645 -0.08174251252906627 0.11086790434725334 -0.08243431373057485 0.1120100449864057 0.29129782944481036 0.201986128170727
1872250000.0 0.2734169531925019 0.1965131926600505 -0.07808225087171704 0.11267990016919681 -0.07841761610109743 0.11392276528277318 0.2952118429978436 0.19675477206631187
1873312000.0 0.27556727993754176 0.19421741104487528 -0.07434093380611419 0.114399489438761 -0.07450413039098047 0.1156440276330469 0.29972632812890865 0.19218875448568393
1874375000.0 0.2780332467542874 0.19154816114548884 -0.0708962293684862 0.11593330491767316 -0.07059873992073082 0.11738543850759414 0.30377781164490864 0.18900308163152957
1875438000.0 0.2805466050589744 0.18905381761770867 -0.06716167532846126 0.11762013505438793 -0.06681789832640521 0.11878785880011156 0.3075908643433446 0.18534723948250542
1876500000.0 0.282705600206812 0.18621382886598567 -0.06372542302376415 0.11915375135868939 -0.06301480536995092 0.12014950135749287 0.3107391070130834 0.18287507366908756
1877562000.0 0.2848059668963798 0.18343566144342757 -0.060080692220805705 0.1206694184979634 -0.05936980090903203 0.12154842716702981 0.31344533362368043 0.18073858747511082
1878625000.0 0.2869577256417375 0.1807392048064081 -0.056321051424234984 0.1223127845591281 -0.055557441881701926 0.12287243872915281 0.3151973913436219 0.17835398575197198
1879688000.0 0.2888556692775673 0.1777577071709883 -0.05275974904900502 0.12383201527080141 -0.05170271800768537 0.12435196568947535 0.3162613348344369 0.17583050136970643
1880750000.0 0.29093440242550567 0.17523456593470849 -0.049059372068648 0.12547395119052904 -0.04791305629284941 0.12572110039798226 0.3170126691280719 0.17316558080049987
1881812000.0 0.29277100378316767 0.1725140539425085 -0.04528160315532033 0.12707592115914995 -0.043972028586676835 0.12699661297178103 0.31744824677988354 0.17047514704754177
1882875000.0 0.29454954863392696 0.1698075018504259 -0.04130270629464091 0.12848731622991927 -0.040080130707941995 0.12821631138842657 0.31698278010981856 0.16729782149214964
1883938000.0 0.29637121796091637 0.1669492086266408 -0.03734526533542149 0.12965630661994382 -0.03614565006470779 0.12934381891172275 0.31615893098425973 0.16316829554973547
1885000000.0 0.2981656785589553 0.16410783599167245 -0.03330026881450585 0.13062778374337305 -0.03219843969406715 0.13005442406633524 0.31522539240418496 0.15841689106234633
1886062000.0 0.2999801198508533 0.16127590113993623 -0.028986933819646798 0.13150116559812758 -0.028244385948811016 0.13067951517123838 0.31553699751898007 0.15284683874180024
1887125000.0 0.3019547047105248 0.15793021003477214 -0.02466938956807794 0.13200976548851068 -0.024353810278933557 0.13114900857158165 0.31475057176960525 0.14675904932624068
1888188000.0 0.30396753484163 0.15485501434235174 -0.020495195934630568 0.1323926307140076 -0.020484451662542737 0.131533771065818 0.3149000467655812 0.13990708637658258
1889250000.0 0.30600641197705025 0.1512316486262409 -0.01607563633568707 0.13244103191379833 -0.01667353758099711 0.13158402913216272 0.31586400014037347 0.132829106579243
1890312000.0 0.3074671436308308 0.14773610243982468 -0.01206630201224916 0.13228267741918623 -0.012974492559362557 0.13144301470820677 0.3174389571660182 0.12530676189338025
1891375000.0 0.30915089123726125 0.14394518416554578 -0.008035962687291023 0.13190415860426874 -0.009145952792034411 0.13140325370288605 0.3205502770004754 0.11868835278920375
1892438000.0 0.31087711141049695 0.14029789658561514 -0.004300930073103406 0.13122771834997923 -0.005455972271143329 0.13117602365472816 0.32308278494664605 0.11145238166216469
1893500000.0 0.31246540671028483 0.13666655891508242 -0.00045693110589720376 0.1305530356014994 -0.0016672079907313266 0.13093140832484862 0.32662249839020047 0.10547436198093833
1894562000.0 0.3136436218746862 0.1329466719479532 0.002883917769882795 0.12980924373828032 0.002108075705452584 0.13056464936095452 0.3304902325099787 0.10020211816179173
1895625000.0 0.315149908160816 0.1294516377553457 0.006392792581080621 0.1289084597640109 0.005911395773572484 0.1301026769039797 0.3341346702345813 0.09565153374989774
1896688000.0 0.3166522297012879 0.12551564549307478 0.009719259802325766 0.12808822028514988 0.009807496979737807 0.12946551768893153 0.33753164347642073 0.09187163888047639
1897750000.0 0.31778356596640805 0.12213964542549467 0.013133307123899469 0.127186035039162 0.013692131751871846 0.12870057084665917 0.340657846652722 0.08830263464770326
1898812000.0 0.3191735413700465 0.1187307239861922 0.01659873480992677 0.12627205965918706 0.017475209437509256 0.12796595201765912 0.343321662296556 0.08572599894776294
1899875000.0 0.32024678315602956 0.11496969970557562 0.020033973384374574 0.1254035693488427 0.0213263285763662 0.12662473240916938 0.34486457890959554 0.08345199513029665
1900938000.0 0.3215770693229274 0.11164531713420794 0.02358352718521499 0.12456315714614259 0.025051755438283568 0.12532188579720252 0.3460402263015519 0.08165606174076437
1902000000.0 0.3227403198764285 0.10794152418534028 0.02709711629650474 0.1236578146141613 0.028626473345052143 0.12388197328343303 0.3462137590364872 0.07948846868135741
1903062000.0 0.3238357746258439 0.10427357526275156 0.030741099228819232 0.12261548427780812 0.03220433421323423 0.12233726453592293 0.34608727899142216 0.07792394359800801
1904125000.0 0.324968028480025 0.1005220480291984 0.03445801767156401 0.12141632104628848 0.035718945695951555 0.12070426107218764 0.3452208271959881 0.07546783668396341
1905188000.0 0.3262392777720263 0.09710002740580101 0.03811057655915561 0.12011613105731792 0.03906069311638732 0.11910633412934693 0.3436106365946007 0.07333679953497341
1906250000.0 0.32708353270403573 0.09333575108593341 0.04180473006400786 0.11869343493942876 0.042353348609347724 0.11751983532685412 0.34230285237613306 0.070359390488403
1907312000.0 0.32794502004063975 0.08985206621299001 0.04531067989624075 0.11710837619531196 0.045581947756935186 0.11602165373726483 0.34027242885181985 0.0668452034219689
1908375000.0 0.32858657078990233 0.0862628899835052 0.0487782576458908 0.11535412840700135 0.04885374023469202 0.11437039995646324 0.3383563221692427 0.06319284913128996
1909438000.0 0.32907326308662166 0.08293982651047448 0.05220989167750654 0.11338560594809725 0.05206940443854552 0.11277989525158401 0.33611228393903025 0.05846495904337078
1910500000.0 0.32964027191517503 0.07953955873124846 0.0554583887039506 0.11141189991795906 0.05513730560238224 0.11110510092780397 0.3339340053052682 0.05359708847348791
1911562000.0 0.32998473675926426 0.07617416808826714 0.058652254524148364 0.10934755911814846 0.05828182300335444 0.10933478441850882 0.33230129470779635 0.0480398133064664
1912625000.0 0.3301993982535653 0.07297630173917304 0.06161964301473208 0.10712766992973626 0.0612577300693941 0.10747088734577559 0.3313202860597273 0.04255806734359208
1913688000.0 0.3303702854559373 0.06959370730787666 0.0645693431377704 0.10513289184072387 0.06435258925044303 0.10544180138707561 0.3311196051901598 0.03716950318220056
1914750000.0 0.33031240335497086 0.0664733032483889 0.06728729447025533 0.10275596787153841 0.06718455801025897 0.10326416276813744 0.3308234992003866 0.03227886593702333
1915812000.0 0.3304057475501962 0.06303837567011905 0.06997072586633085 0.10065731984034644 0.07006793749471901 0.10101154141498746 0.3307257635710775 0.027663792832963396
1916875000.0 0.3301897112294844 0.059891567342985966 0.07259641105882468 0.09830450776292951 0.0727696214786648 0.09865819424064388 0.3313810913155485 0.02336526078545083
1917938000.0 0.32991987537479905 0.05647751448571891 0.07509394861764244 0.0959907267395994 0.07543381640419294 0.09615499175787136 0.33163352882616254 0.019463968102005045
1919000000.0 0.3297598161627923 0.05316802995746648 0.07744715494641179 0.09346050438142167 0.07804305103503423 0.09354916292862737 0.3311901081773697 0.01637191402976299
1920062000.0 0.3294694533745583 0.049974238795815557 0.07982712769474126 0.09093900093319682 0.08049900066553416 0.09091844127552597 0.3313803878409012 0.013047603528948343
1921125000.0 0.3290725183577301 0.04669052273932405 0.08212440052449729 0.08853717889045155 0.08276818881856383 0.08831295370434526 0.33118124538616206 0.010243045509057642
1922188000.0 0.32861565830934897 0.04315484692373785 0.08444371110119701 0.08571522811782328 0.08514536394204095 0.08555304990306824 0.33110153607782483 0.007951748922310646
1923250000.0 0.3282438272153617 0.04002761223294537 0.0867465759928293 0.08302934756635605 0.08735006349233639 0.08286442765135935 0.3301981209054965 0.005735353338676972
1924312000.0 0.32777145030144317 0.0367458620141937 0.08887060804585988 0.08009086504004512 0.08933843094246553 0.0799987124969661 0.32866346532797563 0.004263370161569035
1925375000.0 0.32724151588599143 0.033631731181686456 0.0906932044844483 0.07718037607753167 0.09132476635977808 0.07718390846096591 0.3266039307004826 0.0029956821785101844
1926438000.0 0.32669304144302863 0.03053334789234034 0.0925724144076723 0.074158369017594 0.09325265831870419 0.07415059906540378 0.32406710514259635 0.0011206023919962285
1927500000.0 0.32608965093229764 0.027285821888716977 0.09437537715812909 0.07126375624837183 0.09495553135302275 0.07105868501456078 0.3208761261827795 -0.0008516948770405246
1928562000.0 0.3253668781475454 0.024395065205471078 0.09620522501072334 0.06822245269828721 0.09657759343166766 0.06783698550311423 0.3171379800234307 -0.0030766542792412923
1929625000.0 0.3246320052491958 0.021228538928149 0.09785690917306573 0.06516206902267839 0.09820702084764868 0.06468416907119856 0.3126690988262015 -0.006120244246795538
1930688000.0 0.3236502102787172 0.01823154002940037 0.09936943587986523 0.06206003760610127 0.09977836038577229 0.06151318805743375 0.30872066826863753 -0.009184140485562695
1931750000.0 0.3228213500238942 0.01533780612320819 0.1008562997785785 0.05897513825310591 0.10125470001443815 0.058332619836787475 0.30435262019785375 -0.013422772013073733
1932812000.0 0.32178153176684177 0.012183712014577052 0.1022265336347736 0.05589606307767841 0.10251206495949548 0.055117182638536995 0.3001113715297285 -0.01771246620221018
1933875000.0 0.32073659585061814 0.009498001792709676 0.1035026890594661 0.05280083450955935 0.10379825696615036 0.052093400993795315 0.2964737825188978 -0.02243210060147694
1934938000.0 0.3194601665294329 0.006546953614931525 0.10469608233017352 0.049617303199742134 0.10493745656242098 0.04909205860174177 0.29312812969258034 -0.02730505034552415
1936000000.0 0.3184243893919899 0.003818667050506567 0.1058299231177562 0.046539192198593406 0.10603852829276691 0.046029945735899046 0.29029775639183775 -0.032375722055746535
1937062000.0 0.3170243191814919 0.0010074425193492313 0.10703610378746667 0.043230762590325926 0.10700915188768553 0.04294292321373521 0.2880712280295283 -0.037691766630524495
1938125000.0 0.3158011439685645 -0.0017173853835917615 0.10775482868571205 0.0399420689825823 0.10777428755961299 0.03974615973409051 0.2862715459666552 -0.04274513024887384
1939188000.0 0.3144476191037107 -0.004343886681069329 0.10872972381584037 0.03680132347020805 0.10864742203559412 0.03650804622195396 0.28556920793268087 -0.04746487547302134
1940250000.0 0.31298275478350535 -0.0071689460646718476 0.10941304227286318 0.033413246217514306 0.10941166743997051 0.03316214030349755 0.2848179832010874 -0.05199854794705341
1941312000.0 0.3115063339201388 -0.009708331672999823 0.10993923417140437 0.030185757733760015 0.10992972087059505 0.029894632648442415 0.2847073805158359 -0.05606485178588008
1942375000.0 0.30989503391467965 -0.01233388188575263 0.11035440714338136 0.026856979782760183 0.11030189456349751 0.026511829479941306 0.2850609770776424 -0.059454273496939124
1943438000.0 0.30815980723251263 -0.015044856182070618 0.11072365200795303 0.02361416880092978 0.11063670156682444 0.02326241137541074 0.28549353937222466 -0.06216739526439582
1944500000.0 0.3063064563743593 -0.017738351841129776 0.11084384006281944 0.02042107092694386 0.11078482288579494 0.020026216320223375 0.2858759346539401 -0.06410164498200846
1945562000.0 0.30433802804437426 -0.020223946654602056 0.11080918612071945 0.017198053704762333 0.11078801306119843 0.016933664083478565 0.28623868735825975 -0.06536625334213603
1946625000.0 0.3025147346764275 -0.02282298279750135 0.11065595742286964 0.01404811569429826 0.11077447522857933 0.013874865101789043 0.28568968990979565 -0.06576746373768683
1947688000.0 0.30046861643659006 -0.025196394518227323 0.11038081247403897 0.010977751078829028 0.11054604479215299 0.010836264407860608 0.284682199962031 -0.06575155311835953
1948750000.0 0.29830387274119285 -0.02775878783151588 0.11003946085808244 0.007849433909598264 0.11026762372060694 0.0079602731261054 0.2828019378470519 -0.06538566117614081
1949812000.0 0.2963881343038277 -0.030401671828609304 0.10966775676133614 0.004817120681228149 0.1100307873080604 0.004977520797065055 0.28002285431990875 -0.06541973266138587
1950875000.0 0.2940790735126759 -0.03247661282669339 0.10928432625103994 0.0018213590712964551 0.10963950715464255 0.002056657233758021 0.276836993833511 -0.06546106122232082
1951938000.0 0.2923646940760507 -0.03500493020691986 0.10900588786395886 -0.0010089698570611438 0.10948682674327684 -0.0009996034911455942 0.27316683778309053 -0.06579149001236628
1953000000.0 0.29044310895938497 -0.03755919832318945 0.10861224759244636 -0.0039346905538984464 0.10912457934291134 -0.004083124499431903 0.26908573214301823 -0.06645033897385268
1954062000.0 0.2884089823414881 -0.03992416506792793 0.108134824410156 -0.006736148366491194 0.10872564210558745 -0.007038287225868909 0.26465765593270496 -0.06781493505992375
1955125000.0 0.2864678759010231 -0.04234492757552306 0.10763339354517278 -0.009531792911479995 0.10832232647650474 -0.010060611702167542 0.2604628386268092 -0.06963133183891461
1956188000.0 0.28444836940306006 -0.04477445378730566 0.10707175824123265 -0.01236319086671608 0.10763292073697638 -0.013158364464205069 0.25637474247207387 -0.07211214043296037
1957250000.0 0.2825168777535791 -0.047018500879417856 0.10644480068544052 -0.015210223906023702 0.10691593130624973 -0.01621318061402155 0.2525922121763818 -0.07498557941855283
1958312000.0 0.2805419262572883 -0.04929252549773134 0.10571285928229722 -0.01799466136317014 0.10601502679014582 -0.019112514798277455 0.24904835795279498 -0.07855812147008988
1959375000.0 0.2784999743791671 -0.051465044821639556 0.10493897350630212 -0.020796571922631877 0.10483873150810183 -0.022124454403067637 0.24621473663739288 -0.08255835910389206
1960438000.0 0.2762139513359793 -0.053564284067623674 0.10401788439191854 -0.023643211522197834 0.10372730462390498 -0.024818450879710578 0.24430953766553876 -0.08625921343446785
1961500000.0 0.27402514365647246 -0.05544166331220706 0.1031182008842559 -0.026454568609688495 0.10245994186931177 -0.02748509104152955 0.24311581077911307 -0.0900160077954068
1962562000.0 0.2719446400651972 -0.05742717624867773 0.10214017314359158 -0.029314736452527353 0.10120421258698237 -0.03004199369234349 0.24275363380467915 -0.09379060494398467
1963625000.0 0.269646144035038 -0.059350324916462145 0.10104163899425951 -0.03208942226044073 0.09998420322396193 -0.03238402450986014 0.24283327360311688 -0.09630934411778894
1964688000.0 0.26736043472593846 -0.06111279482998842 0.09980031807793607 -0.034724424864120466 0.09877685061246887 -0.034664419965961056 0.24384328327657992 -0.0986438648593993
1965750000.0 0.26520462184215593 -0.06286437846866269 0.09853424831958883 -0.03730351603062673 0.09764474514434793 -0.036812649501680623 0.24448567269593777 -0.09971807727353396
1966812000.0 0.2628714859380105 -0.06456389230683822 0.09721279305334593 -0.03969530679464795 0.09657014716372639 -0.03904294969485593 0.2454830171816646 -0.10008452488179022
1967875000.0 0.26091089521291727 -0.06658645709848438 0.0955977958672266 -0.04216798162652568 0.0953938040477541 -0.04127048477387113 0.24543344133204595 -0.09931007110504529
1968938000.0 0.2586514141323003 -0.06848091194761274 0.09405001127989907 -0.044319408370634805 0.09429586733992809 -0.043625075758038874 0.24513724989207367 -0.097790673914431
1970000000.0 0.25664907051496044 -0.07028699227243045 0.09252143736827596 -0.04645660290806504 0.09303792895234123 -0.046028908713949254 0.24408179076164313 -0.0961639295802239
1971062000.0 0.2544392287861884 -0.07218127264526134 0.09084015756386915 -0.04864290591410504 0.09185213277798807 -0.048456024223814176 0.24200391665865642 -0.09393886636913962
1972125000.0 0.252246295461387 -0.07401575201967427 0.08936627793506832 -0.050863319902279845 0.0903853388654587 -0.050996357513206116 0.23933075436778795 -0.09156388292787698
1973188000.0 0.25021769443921366 -0.07596473126155145 0.08772149154168099 -0.052955249468590336 0.0885998265261637 -0.05350194895201903 0.23525749253440256 -0.09007688912287808
1974250000.0 0.24797926973609483 -0.07779248494843502 0.08593820505762977 -0.0549206766989788 0.08685542571858997 -0.055896208386892084 0.23033726170944563 -0.08846294189422806
1975312000.0 0.2457339996321858 -0.07964509426717913 0.08427100418997181 -0.057009418848444134 0.08488695532852372 -0.058183490898735236 0.22509526125443183 -0.08783013294717112
1976375000.0 0.24343458708959187 -0.08145151436577663 0.08263672774750186 -0.05897924729702907 0.08279080669149362 -0.06024562052738486 0.21927221443505923 -0.08778434433828275
1977438000.0 0.24122283976175737 -0.08324431861702726 0.08092381945421875 -0.06100847738732166 0.08073747799018874 -0.062257569592029105 0.21368206305588122 -0.08874925120463224
1978500000.0 0.23899445792220547 -0.08494340581826224 0.0791669050083209 -0.0628454332103199 0.07857965882654276 -0.06399096100018645 0.20798708018907708 -0.090789791367461
1979562000.0 0.23678374819138556 -0.0864958301789425 0.07710231065562613 -0.06476738136735388 0.07637487437173338 -0.06560532542939125 0.2026311577786166 -0.0931518626715285
1980625000.0 0.23475673355277943 -0.08826167454223965 0.07531811809649212 -0.06659340203479495 0.07428271109646062 -0.06716891134337033 0.19779286795514486 -0.09630531746575542
1981688000.0 0.23267222163820628 -0.08991043690853157 0.07330655089746708 -0.0683196024532219 0.07224999124393475 -0.06864939752857471 0.19423368446814626 -0.09992947191958657
1982750000.0 0.23071303030133616 -0.0915212368514503 0.07112045422432821 -0.06990900331474902 0.07020415125529791 -0.07005313102604549 0.1908168962544473 -0.10387218080974132
1983812000.0 0.22869826697202758 -0.09279554220123509 0.06909147345154691 -0.07162981126077786 0.06830337229379119 -0.07146409960977898 0.18842341164916226 -0.10732347843526799
1984875000.0 0.227060787555722 -0.09440216405537716 0.06698652224465684 -0.07320845787526001 0.066418140416138 -0.07301136908727196 0.18741265010291788 -0.11124944212055077
1985938000.0 0.22523654617434383 -0.09575611872695507 0.0648042552504533 -0.0747899748575701 0.06462602792541056 -0.074498622130771 0.18666387608826143 -0.11394617545109034
1987000000.0 0.22342274060175715 -0.09725003308008445 0.06277391410549224 -0.07623810420359423 0.0627469642166426 -0.07601320616424603 0.18681469198184394 -0.11627272012526077
1988062000.0 0.2214768965312255 -0.09850607424665991 0.060706978610678135 -0.07774672896239541 0.06083490931601107 -0.0774972328113013 0.18706766947462147 -0.11733635098439274
1989125000.0 0.2196133959598385 -0.09972497073672311 0.058539545381232676 -0.07901345291551003 0.058851915763728536 -0.07896866951816517 0.18738869149164794 -0.1176384377156065
1990188000.0 0.2178010221052354 -0.1008724400457362 0.05649660255171643 -0.08023800249280152 0.05677004463552914 -0.08043292812399146 0.18766021166861646 -0.11705687348727656
1991250000.0 0.21559373522670294 -0.10204646900750747 0.05435289390051148 -0.08155778310164856 0.05453020349955335 -0.08191871613671727 0.18756718025623886 -0.11556414655727267
1992312000.0 0.2136360961906072 -0.10287740214821597 0.052268315301577405 -0.08274897542962653 0.0523459061892903 -0.08311603073001646 0.18669389059805808 -0.11342514891222327
1993375000.0 0.21163976959847827 -0.10393424164388763 0.050094287857593504 -0.08394164132391337 0.05002752113471414 -0.08432873868929522 0.18498384187931008 -0.11151395268922418
1994438000.0 0.2095259721837614 -0.10474777837894973 0.04799768114251208 -0.08501780886467104 0.04762607104771217 -0.08546335934886426 0.1825698150292443 -0.10926383301748861
1995500000.0 0.20730371980185525 -0.10543863288201341 0.045759750604004536 -0.08604760241100877 0.04535701832931044 -0.08646318314556792 0.17920291659367127 -0.1066651693162799
1996562000.0 0.20521033280978127 -0.1063143498527337 0.043478321298029025 -0.08707199666468138 0.04299981368953493 -0.08740872130383594 0.17538614947387382 -0.10500039792067624
1997625000.0 0.20291772808054373 -0.10704782234161939 0.04127753115153646 -0.08789296373647994 0.040680848737720356 -0.08816901924227602 0.17061888632287947 -0.10365557692642234
1998688000.0 0.2006397076513566 -0.10775674466604587 0.03888946045187232 -0.08879490468301234 0.03852492066103432 -0.08900246236018414 0.16563733870645694 -0.10320753956085726
1999750000.0 0.19852604229254348 -0.10848612043550508 0.036703678951250956 -0.08966173239684451 0.03651495620637243 -0.08964441742723019 0.16068927408258726 -0.10340745452006453
2000812000.0 0.19632210401439584 -0.10926505224833634 0.03452264544007604 -0.09020284659845515 0.034271642153659077 -0.09038840784658603 0.15595570823806335 -0.10430635649227624
2001875000.0 0.19420744346476754 -0.10981038630921967 0.03219021786146448 -0.09103723622801414 0.03218610467553395 -0.09103200395049012 0.15148692843168995 -0.10642393913648053
2002938000.0 0.19189666481189607 -0.11055894989646653 0.0299762530051264 -0.09156421068442795 0.0299626094874268 -0.09158260802751375 0.14734169983927478 -0.10845395204848352
2004000000.0 0.18971590821577397 -0.11124957468512889 0.027703604872575793 -0.0921008071147063 0.027766989261810492 -0.09222176502253246 0.14424011919895083 -0.11073946864947207
2005062000.0 0.1873846250832633 -0.11200640063717059 0.025576209751695566 -0.09265755679693582 0.02552571762921411 -0.0929468672112859 0.1416735963464523 -0.11324211098485
2006125000.0 0.185123636446287 -0.1125257223637279 0.023353465052761306 -0.09322156348176644 0.023175077985470922 -0.09343980331669233 0.14011386544989637 -0.11586283704034263
2007188000.0 0.18281373113046154 -0.11319733916106921 0.021279630478785984 -0.09352205614973638 0.020888585682501508 -0.09394836521860421 0.13882800538075796 -0.11777399670815712
2008250000.0 0.1804978955886944 -0.11360414267168507 0.0188907497370989 -0.09398157040692366 0.018503192146878816 -0.09444549213104068 0.1384968964487751 -0.11866005194264043
2009312000.0 0.17834570784084655 -0.11408782455795441 0.016737557551569065 -0.09435150415777463 0.016019183345085352 -0.09489811272853466 0.13823185868541377 -0.11900204557881217
2010375000.0 0.17593800594241343 -0.11446565236222364 0.01430733571426296 -0.09477227901686011 0.013622345309441578 -0.0951572992413318 0.13795167483765253 -0.1195511311439635
2011438000.0 0.17386136526314558 -0.11478159287114542 0.012059870969277506 -0.0950548872434907 0.011300008018338106 -0.09548161337146711 0.13754402108770836 -0.11800774820257444
2012500000.0 0.17160859452731322 -0.11506044879373273 0.009503794080260721 -0.09553792956194652 0.008896589048828316 -0.09563014612821498 0.13718883282621394 -0.11692513682045995
2013562000.0 0.16965678872353918 -0.11520849221656682 0.007143221528374775 -0.09583220138564161 0.006560271946547167 -0.0957863786564143 0.13612572607863016 -0.11475349295123485
2014625000.0 0.1676033376982149 -0.11530663122482762 0.004607353429513249 -0.09604301961831109 0.004192312700727893 -0.09583695939950808 0.13470753408464992 -0.1121271155536
2015688000.0 0.16550837296409873 -0.1152655835464057 0.0022201209044864245 -0.09632308062160068 0.0018066615253495768 -0.09597081691752393 0.13261692842517636 -0.10908070591663618
2016750000.0 0.16338006728600746 -0.11517984443481104 -0.00018822440679752076 -0.09637934364293096 -0.00041753566128769183 -0.09607538555902183 0.13001747498138255 -0.10604469496680914
2017812000.0 0.1614242470409454 -0.11497836386286835 -0.0027742488918819875 -0.09650306812951044 -0.002844976698419516 -0.0961032023061392 0.1267152414754146 -0.10361648198630484
2018875000.0 0.1592506910587565 -0.11458013809637613 -0.005120784177184017 -0.09637010186353283 -0.005302685937098309 -0.09620547179898793 0.12273865593253855 -0.10069794927710267
2019938000.0 0.15727709331555895 -0.1142629566114817 -0.0075905282067590405 -0.09630454337004217 -0.007724887194495605 -0.09627168023669508 0.11813433956222537 -0.09861193605441332
2021000000.0 0.1550513692902276 -0.1138606844334559 -0.009962707997252018 -0.09626155996962152 -0.010077825659062074 -0.09626769205549966 0.1130952101372645 -0.09750829084316483
2022062000.0 0.1529265104363726 -0.11321046915948646 -0.01247863795717798 -0.09604356202226234 -0.012508509609041157 -0.0961753418952005 0.10822416810693956 -0.09680981276305747
2023125000.0 0.15064102678611216 -0.1125395928645909 -0.014821431231238734 -0.09585279501926537 -0.014933403849267595 -0.09601755947348248 0.10355447442607571 -0.09704595871526982
2024188000.0 0.14846886775949508 -0.11169594546913879 -0.017210281233279844 -0.09554941079672435 -0.01725556420629954 -0.09595372293787102 0.09913617494830099 -0.09804135758887308
2025250000.0 0.1460009920390903 -0.11098588215827083 -0.019663359636339393 -0.09533196008583338 -0.019816567412823373 -0.09564542590591137 0.0953805563231331 -0.09857800269167347
2026312000.0 0.14380010294702442 -0.10994193145059 -0.02196774318855529 -0.09494034305623673 -0.022150376065208335 -0.09535891392167738 0.09213906578621965 -0.10020891266965865
2027375000.0 0.1413353147181709 -0.10910741013324289 -0.024355791542419788 -0.09461666437448857 -0.024554889132075427 -0.09488658306960883 0.08977424886612187 -0.10116975147191351
2028438000.0 0.13893699032914897 -0.10830006327043873 -0.026660883686235468 -0.09425522878039572 -0.02694386194044964 -0.09440467839416848 0.08775209996747695 -0.10221679771147202
2029500000.0 0.13662359161094628 -0.10716928163002115 -0.028989961259259255 -0.09369544055979473 -0.029386045703380926 -0.09385355567678723 0.08627782325629088 -0.1030816475755565
2030562000.0 0.13431007896094327 -0.10622246283030129 -0.03128112136790564 -0.09310765887800075 -0.03176752688609538 -0.09323130119023343 0.08502423988886457 -0.10338914845765815
2031625000.0 0.1319076180942932 -0.10529521038384755 -0.033688202702988036 -0.0925277600353325 -0.0342912948775562 -0.09241828794630223 0.0840893065411047 -0.10342357492722486
2032688000.0 0.12962890375399536 -0.10427642007793186 -0.03608373223976886 -0.09175420053250415 -0.036701894528256014 -0.0917875255642687 0.083476957085405 -0.10286707269581483
2033750000.0 0.12719031540241332 -0.10339685886856136 -0.03838762098322216 -0.09108567978402103 -0.0391316491433441 -0.09098268808976322 0.08306579227852531 -0.10214013270751897
2034812000.0 0.124919899041905 -0.10228979573532128 -0.04076931821861995 -0.09024031597717885 -0.04154100099634002 -0.0900160909631145 0.08258536112767499 -0.10054035969152915
2035875000.0 0.12264668805836304 -0.10136790364163133 -0.0433511112007953 -0.08923076442292387 -0.043819193370673686 -0.0891734473882478 0.08163551922621061 -0.09875865747070608
2036938000.0 0.1204833528136186 -0.10026402492988325 -0.04572644317932216 -0.08832878911964034 -0.046251554937237135 -0.08814672735065004 0.08115567363338709 -0.09648398224068254
2038000000.0 0.11830882706000942 -0.09925562650797937 -0.04821768210214551 -0.08737833812168144 -0.048565384031773885 -0.08710997150253862 0.08008844546063103 -0.09338253928766745
2039062000.0 0.11622012683626831 -0.09817483285855472 -0.05068829256459134 -0.08622440073292646 -0.05089144583784515 -0.0858903678973193 0.07861620524267368 -0.09071001336254836
2040125000.0 0.11429258663823327 -0.09713802347014838 -0.05311237609786517 -0.08506166131358177 -0.05322248696100639 -0.08462396601902382 0.07658539764099134 -0.08757236608121327
2041188000.0 0.11219434003034454 -0.09603039794360398 -0.05540893578788491 -0.08382338735158754 -0.05560122523458549 -0.0833880848709409 0.07435036969134544 -0.08447735611417036
2042250000.0 0.11019995261914327 -0.09499144350384263 -0.05795339142843233 -0.08241841776097551 -0.0580301954914574 -0.08200602059698862 0.07177360110253882 -0.08183857064532005
2043312000.0 0.10842667696970269 -0.09386697130732892 -0.060328100545148526 -0.08101096645596638 -0.06039752321022343 -0.08065747988910435 0.06889189718393172 -0.07944986550064627
2044375000.0 0.10668416739371286 -0.09248693090201365 -0.0625931697508641 -0.07943492036726899 -0.0626669659826773 -0.07914567159270114 0.0659957264683277 -0.07750793632329578
2045438000.0 0.10478930108853488 -0.09124934994361539 -0.06496259712604313 -0.07788474702632897 -0.06502973231052836 -0.07773797717612156 0.0632776293637152 -0.07591315923098607
2046500000.0 0.1031443835366865 -0.08991497334780393 -0.06732573090440468 -0.07623053327210398 -0.06726581885209333 -0.076139386832442 0.06090651879892143 -0.0748175417793453
2047562000.0 0.10167546370233466 -0.08859160177491181 -0.06940861532335804 -0.07441965028618633 -0.06954903135232537 -0.07452012270639097 0.05856345389992446 -0.07384542471219462
2048625000.0 0.09997429442455068 -0.08729319512097759 -0.07157580244902284 -0.07258714412489943 -0.07168116872597952 -0.07275330554024757 0.05652475107121026 -0.07301470643922389
2049688000.0 0.09853869637074875 -0.08591524639600101 -0.07365592022527659 -0.07074220095841408 -0.0737984141208524 -0.0710092581138047 0.05500472066121857 -0.07244816295768232
2050750000.0 0.09704345139519088 -0.08436017594053644 -0.0755948926529851 -0.06887607572992815 -0.0758233580553031 -0.06910040759668294 0.05397632162394788 -0.07190332684901242
2051812000.0 0.0955018255171318 -0.08293893738114387 -0.07748402563736691 -0.06706182841440365 -0.07779402978200972 -0.06704972592785087 0.05312270771381475 -0.07128441230586907
2052875000.0 0.09415335005502336 -0.0814331375336846 -0.07947636150543015 -0.06513473350122108 -0.07976261972747736 -0.06512221929168109 0.05272558801246478 -0.0708828803593064
2053938000.0 0.09274742753639864 -0.08011763140070136 -0.0813350213227717 -0.0632399651987456 -0.08172632704519084 -0.06304496143170611 0.05283084206662026 -0.07024767483943416
2055000000.0 0.09122401988035886 -0.07857559491912366 -0.08310255057308615 -0.061147394895552196 -0.08353036522827215 -0.06092788761376253 0.05337529387294768 -0.06906292583685676
2056062000.0 0.08989076335903819 -0.07710308312825497 -0.08470950019397218 -0.059130529152348996 -0.08539235574052374 -0.05880285159504193 0.0541387473428027 -0.06760977504754358
2057125000.0 0.08842954552597683 -0.07565944705287114 -0.08650842147812797 -0.05692205154443644 -0.08704754652579727 -0.05667285795375212 0.055406342209210126 -0.06593642002129413
2058188000.0 0.08693430002255512 -0.07426266464239886 -0.08831299182864022 -0.05472279043863107 -0.08875955368426904 -0.054425870932017506 0.056520386028393224 -0.06350897547281546
2059250000.0 0.08557052260542376 -0.07291776209670474 -0.09004662795399017 -0.052466545382861454 -0.09045677823684387 -0.05216571160950701 0.0581089091707647 -0.06073474758982313
2060312000.0 0.08417204527496223 -0.07135910496467417 -0.09169019174019413 -0.05000724384824601 -0.0920197617562352 -0.04973159610211933 0.05924955517389571 -0.0574806032990753
2061375000.0 0.08285298249112624 -0.07008425438384698 -0.09316326752084449 -0.04755942602130178 -0.0935876937901827 -0.04716772262605246 0.060042671833076544 -0.05359074228107504
2062438000.0 0.08155986296789966 -0.06857100461454943 -0.09482389372878205 -0.04486210860491306 -0.09510286204708059 -0.044660766750137 0.06058077677375071 -0.04949906412444102
2063500000.0 0.08035404785114394 -0.06701161459168213 -0.09625692534935154 -0.04234053501717161 -0.09651941623676472 -0.04193280476055815 0.06087800359506684 -0.045341528569494444
2064562000.0 0.07936347845375569 -0.06571076132819986 -0.09767849754716586 -0.039725086696733115 -0.09782055119774208 -0.039220159306413975 0.06070431468175215 -0.0409985214462963
2065625000.0 0.07837126363494551 -0.06429175972995668 -0.09897115130515617 -0.03704348228387107 -0.09900344137894458 -0.03655089377377053 0.06032145716691299 -0.03697199718101252
2066688000.0 0.07744814588833038 -0.06300281378186756 -0.1002957124619034 -0.03420606241245659 -0.10028742351071332 -0.03375505365781122 0.0592586914142332 -0.032974419818604606
2067750000.0 0.07661351498680558 -0.06165940532306725 -0.10132989353222822 -0.031577261373662464 -0.10131258772903584 -0.031002985150168135 0.05808654969718003 -0.029765342071037246
2068812000.0 0.07592625976054707 -0.060370845191505464 -0.1024163554163626 -0.028798190714060562 -0.10227938793432009 -0.028272926609949327 0.05663176445245144 -0.026398749606577614
2069875000.0 0.07514450780512656 -0.05899620476741784 -0.10333743313425928 -0.025993877825208466 -0.10321279233578329 -0.025512452434396173 0.05491328310407536 -0.023858052735898822
2070938000.0 0.0743916604649426 -0.05766919504451922 -0.10424540526001524 -0.023016780951247477 -0.10407321010442937 -0.022838371619718575 0.05354388929835948 -0.021782695380149018
2072000000.0 0.0737613858310928 -0.056278660963872226 -0.10504436382826421 -0.020099554922115383 -0.1047835124202866 -0.020037740475900595 0.05191903325863785 -0.02046653244636504
2073062000.0 0.07318319908675522 -0.05491122710604905 -0.10597308674122834 -0.01708938910096172 -0.10572028325333431 -0.017204179223470197 0.05106358233363373 -0.019481205414210067
2074125000.0 0.07259970641179034 -0.053435072437209595 -0.10653068323666766 -0.014042068491155819 -0.10653936520205329 -0.014324274867680512 0.05039027040692516 -0.018769584686599994
2075188000.0 0.0720981989468214 -0.051898568219398124 -0.10730007307238341 -0.011071631791738151 -0.10727409974991876 -0.01146394548915215 0.050129042881413594 -0.018770995682664143
2076250000.0 0.07172307531178093 -0.0502012931395615 -0.10780432617798463 -0.008158583378387164 -0.10796565973096722 -0.00841674004070504 0.050456200733784 -0.018837021931833592
2077312000.0 0.07131442074683557 -0.048606083111851106 -0.10817100566378986 -0.005161642963933071 -0.10849783748441222 -0.005501820811299048 0.05212345430248389 -0.018724184898787573
2078375000.0 0.07115306699711395 -0.04675042650435723 -0.10841333241751103 -0.0022678400038601597 -0.10897451662089179 -0.002346345209485259 0.053948421195555166 -0.018193473136398918
2079438000.0 0.07099656434538773 -0.04505645345210888 -0.10861341851936135 0.0006566784150243513 -0.10928464690569314 0.0007594975447893989 0.056603593752630216 -0.017609653290351173
2080500000.0 0.07096774477795839 -0.04323628961767272 -0.10876681529788493 0.003648619728640205 -0.10930834937820073 0.003977306923940609 0.05979074343143463 -0.01615310301174273
2081562000.0 0.07103338433201647 -0.04155956861095716 -0.10860871587494084 0.006740562116762862 -0.10938790004255668 0.007243481511950392 0.0627420395576319 -0.01401737926093627
2082625000.0 0.07118608574125966 -0.03980027645624111 -0.10858261710889458 0.009765713610148734 -0.1091806955192931 0.010438926010349502 0.06602957605299069 -0.01105651655356718
2083688000.0 0.07129900340864197 -0.03819040043578481 -0.10823484158333584 0.012773549582690764 -0.10886771435532717 0.013650764912372087 0.06919198006892698 -0.007769749690003036
2084750000.0 0.07145072086482716 -0.036456283324582436 -0.10800511752936777 0.01579131416846099 -0.10838290912879929 0.01675318664771911 0.07143181016645533 -0.0040835168055276165
2085812000.0 0.07164527101824773 -0.034867124415433486 -0.10781197262474165 0.018846135209141808 -0.10787100965066085 0.019828877804488828 0.07328420614216707 -0.00017986381237041892
2086875000.0 0.07176281246442844 -0.03316008849886593 -0.10741925615284086 0.02192348744035488 -0.10718093932771934 0.022891864462073124 0.07460562709346741 0.004200139886024773
2087938000.0 0.07203428253848039 -0.03152992653082447 -0.10692590979345175 0.024953771275352414 -0.10653369474852191 0.02581531601683037 0.07541778155520072 0.00831037140677787
2089000000.0 0.07237221178019308 -0.029835641066707393 -0.10648467515912403 0.02796875855378035 -0.1057609387844328 0.02863423038814869 0.07548626619153348 0.011871740414606584
2090062000.0 0.07283683540606396 -0.028194703093362302 -0.10584901609023063 0.031135085348222225 -0.10508794801616553 0.03153422737879337 0.07484046027253051 0.014971582155203231
2091125000.0 0.07347381837478181 -0.02662114285540174 -0.10516051530024045 0.03431378386977721 -0.10434905405512045 0.034430843904165086 0.07390277345064211 0.017777593263897128
2092188000.0 0.07409633814514932 -0.02477886718987794 -0.10427418355970589 0.03737252219489438 -0.10356034158478913 0.03738239367226498 0.07227010146386177 0.019585240612282548
2093250000.0 0.07497178866825428 -0.023230244022373368 -0.10324925072737944 0.040710290490630456 -0.10276694699615681 0.040353678915454966 0.07110731553761246 0.020091733725031927
2094312000.0 0.07588167583587768 -0.02158603728157436 -0.10225961029771231 0.04370212828641801 -0.10195221224818511 0.04347819276240542 0.06980289302270243 0.019936628870524768
2095375000.0 0.07706882596716484 -0.01991967346336933 -0.10118269631767897 0.046959543289116425 -0.10117953342449112 0.046602971124993196 0.06887449495357566 0.018912419584281172
2096438000.0 0.07824943512592089 -0.018548663857514264 -0.0999482706462704 0.05001302584792289 -0.1002390088597259 0.04976915135825546 0.06920752815164415 0.01735583273497273
2097500000.0 0.07951557880002931 -0.01707171845855059 -0.09861486117270676 0.053096008660487026 -0.09914892823216682 0.05279606608663553 0.06969109509107846 0.014629607427902576
2098562000.0 0.0809113074771401 -0.015586777872235585 -0.09728983735819215 0.05593817630485995 -0.09805249638614366 0.05591919595171366 0.07198817221854227 0.012293179948444581
2099625000.0 0.08249474792225181 -0.014241241125848425 -0.09601697756037786 0.05867644635400621 -0.09670100569287561 0.058954234251232106 0.07477372337306484 0.009755479688265213
2100688000.0 0.08381407088255255 -0.012811526276802477 -0.09452428024257963 0.061411550601380115 -0.09517860204253602 0.06189525220078927 0.07886281018838988 0.007734551313365736
2101750000.0 0.08547106065421724 -0.011422487370201599 -0.09299527627959266 0.06400053888432763 -0.09350056614925258 0.06471558411032577 0.08355106557104436 0.006415060613307167
2102812000.0 0.08698719006425773 -0.010036468962379141 -0.09146673389682257 0.06654096435844309 -0.09160172338308255 0.06744164483059742 0.08926102167538216 0.00541186772315059
2103875000.0 0.08861835233716134 -0.008717361594440308 -0.0896287076343697 0.06913373815138077 -0.0896412757578666 0.06998756700779082 0.09573726084302109 0.006019745053457205
2104938000.0 0.0901333650742063 -0.007536055452147939 -0.08794744516563127 0.0717012130939652 -0.08772000959586133 0.07254504724404193 0.10099826666255217 0.007286068039707024
2106000000.0 0.09185325995291911 -0.006165249951862918 -0.08616079678483687 0.07423730172480149 -0.08570297682174675 0.07502398978262596 0.10635645209097118 0.009646368305092433
2107062000.0 0.09355048838432535 -0.004969040534709601 -0.08424841338813545 0.07674393905654162 -0.08365650189998283 0.07731049383779465 0.11083558138178902 0.013106316434769005
2108125000.0 0.09539230647248413 -0.003718542938934076 -0.08220523726527575 0.07902688805400163 -0.08157326194016695 0.07964395297861246 0.11508727848179423 0.016557958189472387
2109188000.0 0.09706538543849137 -0.002706084869649464 -0.0801452250755075 0.0815044415418832 -0.07955704860706024 0.08185855986634508 0.11772266498316787 0.020436554720201495
2110250000.0 0.09889304272158196 -0.001663393400936563 -0.07799679377956077 0.08392295492010625 -0.07742992050170903 0.08411652107124608 0.11917050901863105 0.024322821331099913
2111312000.0 0.1005965203414061 -0.0006257379457031074 -0.07559742459925636 0.08617124601253916 -0.07520549080814122 0.08627605592857042 0.12014487394123109 0.027841783937244347
2112375000.0 0.10226175383539916 0.000168422786065668 -0.07338151673959821 0.08852406212676217 -0.07304089710573351 0.08838199152417396 0.11965047030693533 0.031101349774155965
2113438000.0 0.10388080496974841 0.0009116400767094527 -0.0707980561498881 0.09068891318469631 -0.07058521708808631 0.09063903638185437 0.11912710135165291 0.033151370876260834
2114500000.0 0.10540666436780825 0.0015587672260826877 -0.06812010620976237 0.09288278801918871 -0.06803747304235716 0.09279357199598219 0.11756012903408866 0.03435046408497394
2115562000.0 0.10681635081385465 0.001946438936236594 -0.06551158446654935 0.09506675284628092 -0.06544507687891994 0.09489568985282777 0.11599856670457091 0.03453978607687586
2116625000.0 0.10815397564822829 0.002356410439130224 -0.06266918343527955 0.09691509898945287 -0.06256729601857146 0.0969956891987589 0.11446416131705049 0.03355737623944814
2117688000.0 0.10944663134848871 0.002657417539041064 -0.059916579459819416 0.09895590753693524 -0.05982327879098579 0.09910417911706211 0.11374636845521573 0.031887597616062864
2118750000.0 0.11077622233811703 0.0027474865771569866 -0.0569720905972713 0.10081851044264785 -0.0568710491296237 0.10107741753132042 0.11349855716382758 0.029190345720380793
2119812000.0 0.11194437437835518 0.002843225123734977 -0.054068637969574694 0.10269993627074472 -0.053980646761843894 0.1029927690974107 0.11447483700503368 0.025932341190257117
2120875000.0 0.11319262835214632 0.002756634194010039 -0.05125303283454421 0.10434636328532938 -0.050973668401668115 0.10481163745220921 0.11630868090767364 0.02273079674852932
2121938000.0 0.11438994538714706 0.0026552631240817203 -0.048291002168393105 0.1060868056726583 -0.04799453433584557 0.10649502129718875 0.11948803067323364 0.019457745653195437
2123000000.0 0.11546747876626595 0.0024790854779721786 -0.04539141356226644 0.10765238743833933 -0.04506892356255784 0.10800170081999279 0.12347632642579794 0.0170867790796973
2124062000.0 0.11662847678727785 0.0022056120123947875 -0.04233533059394467 0.10891634430625384 -0.04216216526300262 0.10945831983770692 0.1282959790264127 0.0149541341960318
2125125000.0 0.11766637489217073 0.001745206885079838 -0.039243481806676216 0.11046279645754532 -0.039023913234870186 0.11073239679629435 0.13328737340906488 0.013791567831079755
2126188000.0 0.11874115679590096 0.0015676260536814687 -0.03631557363827493 0.11187381037773608 -0.0360280039121222 0.11200550641333161 0.13847390151696534 0.013832379346594599
2127250000.0 0.11971128601136037 0.0010124633776165393 -0.03321560491069752 0.11309529632442063 -0.03299748579801742 0.11316085133572301 0.14349852252071016 0.014972944795584116
2128312000.0 0.12058903946005733 0.0006542496684691824 -0.03018999698491246 0.11427895479191003 -0.029751553425171825 0.11439742025559185 0.14776386407091938 0.01648255295732187
2129375000.0 0.12141054096451942 0.00020161799743995893 -0.026997923700821894 0.11541211399939763 -0.02660899999459121 0.1154886056504536 0.15188519545007145 0.019274275972823534
2130438000.0 0.12237097374738255 -3.725850997221659e-05 -0.0238395305969419 0.1165215117427107 -0.023311759623994815 0.11645185895126865 0.15463257760662394 0.02225335975012022
2131500000.0 0.12281331882779821 -0.0003016075925519296 -0.02051417036688526 0.11739135707917042 -0.020031022282418258 0.11756940208816935 0.15619486644391248 0.025444960956581778
2132562000.0 0.12340617701478374 -0.0004931728635830322 -0.01720709672009474 0.11811892007260012 -0.016661510358910538 0.11842954027940185 0.1566978255237832 0.02851460818309449
2133625000.0 0.12392838703396793 -0.0006413866897382442 -0.013846956229566228 0.1188886541446043 -0.013309281001752465 0.11909362369951143 0.15599057769032595 0.031148482981867488
2134688000.0 0.12431879097818842 -0.0008182507860957732 -0.010379931479123179 0.11951588859774782 -0.009868262690035934 0.11972477607303325 0.1544077848085327 0.03282368389193564
2135750000.0 0.12460705032768858 -0.0008318705447757269 -0.006693405241382052 0.11999141437449992 -0.0064224183749941295 0.12022374199668721 0.15234824832345742 0.03373517220937782
2136812000.0 0.12469957357590247 -0.0007871226346682569 -0.0032304264804671034 0.12032411452480721 -0.0029658489285519264 0.1206086623615363 0.14990551590217507 0.033358180379404065
2137875000.0 0.12486467886955166 -0.0006821742766165648 0.0004923563252157815 0.1207125945399727 0.000565998429090081 0.12088177304163758 0.14754661152574358 0.03202342932326397
2138938000.0 0.12493713333822674 -0.0006254385236938833 0.003944349874673325 0.12112079529996171 0.0041266803708846405 0.12114533193837333 0.14531848913559406 0.029599274405899944
2140000000.0 0.12468497036403017 -0.0004875793985886188 0.007559322493400319 0.12128614240419709 0.007716850967911734 0.1212734487598953 0.14347225575402425 0.026059237517524092
2141062000.0 0.1246226945756908 -0.00020381814984248375 0.011043986599022306 0.1212370055509981 0.01127274487737413 0.12138185138651199 0.1423693701761464 0.022104071514286793
2142125000.0 0.12443564107527029 0.00015713752485830334 0.014516874009332307 0.12133051780859902 0.014956873721985398 0.12140772232892134 0.14237658286423166 0.017486748801222682
2143188000.0 0.12405171345477331 0.0004102344365865192 0.018146951783807614 0.12114984070587123 0.018754148650993428 0.12134921785491169 0.14306307019082493 0.013083360860769534
2144250000.0 0.12372622016697192 0.0008513954577800772 0.021675732836423142 0.12077552396529981 0.022384628651194515 0.12105461915942785 0.1447615936470884 0.00859708974049259
2145312000.0 0.12338331366600651 0.0013644568315653233 0.025281984401167624 0.12045183223679064 0.02601119333223326 0.12067718659897075 0.14725375569588986 0.004654076661764672
2146375000.0 0.12284203472431297 0.0019097459890323211 0.02885452769613748 0.12002249430636344 0.029509292162721718 0.12014929457473268 0.15015970595651168 0.001229941825142517
2147438000.0 0.12260087903808742 0.0023890512103201967 0.03249431779972403 0.11947855078715693 0.03323900111276219 0.11963790667358812 0.15375119535186166 -0.0014338449547277848
2148500000.0 0.12228785961819295 0.0028615052312648496 0.03616517050786915 0.1190149020583426 0.03681438205206288 0.11882379345095172 0.15704375717631036 -0.00291266850209563
2149562000.0 0.12192008895874273 0.00340687175046542 0.039666095334009555 0.11820235158701742 0.04028459417984881 0.11791154441495695 0.16018116210109387 -0.0037243034152653035
2150625000.0 0.12163250187907408 0.00379032458446734 0.04334713011000224 0.11746830175995765 0.0437197040863924 0.11692314406619815 0.16320464328043324 -0.0037870496488884727
2151688000.0 0.12144518782990958 0.004378038655246285 0.04695490363455324 0.11646104386982592 0.047172496657231215 0.11576696203616416 0.16539733339927828 -0.003104553884549306
2152750000.0 0.12131668930631286 0.004779924490863881 0.05064184287521884 0.11531961505647799 0.05075061919433212 0.11455001910433836 0.16680706412774904 -0.002134121097772097
2153812000.0 0.12125729132976165 0.0051900260775165526 0.0542539292776902 0.11391839145687893 0.05417209025705334 0.11322781485208053 0.1673128250639231 -0.0010317059312821971
2154875000.0 0.1212686307148446 0.005607923782398751 0.05808401506125937 0.1121686343421851 0.05788367617889891 0.11180747023221732 0.16665105524398618 -3.5965441479657836e-05
2155938000.0 0.1213191438021218 0.006217217512669397 0.06178454339131876 0.11041989844951235 0.06153855555439076 0.11040129144773853 0.16541960553348445 0.00038339861110223486
2157000000.0 0.1217302586067034 0.006916436044906192 0.06541756292762362 0.10860085201298776 0.065201643756301 0.10891987964676439 0.16369486118541626 0.00032188869759646474
2158062000.0 0.12212620052551917 0.00774446838265086 0.0689301201472613 0.10660631668970548 0.06885477953778749 0.10723390502828065 0.16158850036463845 -0.00064946407397937
2159125000.0 0.1226634144708286 0.008476955707143756 0.07228880580520448 0.10442665366524485 0.07261744143075666 0.10523674399706079 0.15936148611761586 -0.0019989336942033346
2160188000.0 0.12343918518239842 0.00935184925859517 0.0757192699027363 0.10225087733211428 0.0761136002853239 0.10306581578490247 0.15699938609589031 -0.004667883160805186
2161250000.0 0.124351199419667 0.010284467894289617 0.07883765593614145 0.09993044044871352 0.0796292323925671 0.10076141082666686 0.155487120862163 -0.007477261497789689
2162312000.0 0.12537246407801939 0.011016712527208606 0.08207248207984885 0.09755101260023634 0.0829871231139424 0.09817266692760447 0.1537420222119701 -0.011153218202055951
2163375000.0 0.12650830553382436 0.01182345087490689 0.08513916855330658 0.09519224367768088 0.08613360662691767 0.09555977629568813 0.15334339586035123 -0.014928936397308199
2164438000.0 0.12777010224190877 0.012631764317357361 0.0880744282763298 0.09283310263958701 0.08917175697023913 0.09266459138428752 0.15331103996857648 -0.018972448707069416
2165500000.0 0.12891699787432087 0.013368912813297076 0.09092220130088902 0.09049337912487473 0.0920390844061853 0.08981764110666968 0.1545476256657071 -0.022624830588496774
2166562000.0 0.13032959342970696 0.014178411463192233 0.09377982942798699 0.08786393213277155 0.09469742736780026 0.0869840471353899 0.15639504968094153 -0.02610185276705118
2167625000.0 0.13160534531929066 0.014737241324652896 0.09655021948128062 0.08532862456904321 0.09728306652052898 0.08411129562413217 0.1586148586028899 -0.029028527309001184
2168688000.0 0.13289860123149014 0.015393049232344976 0.09925820526873098 0.0828230770502331 0.09984340576505164 0.0813775385043265 0.16169710396049544 -0.03142430091337354
2169750000.0 0.13418786587633133 0.016110941565044067 0.10203463494796557 0.0799539239704615 0.10223851859620481 0.07877487579417002 0.1651727653046785 -0.03260845874487239
2170812000.0 0.13556384482427875 0.01686777805182673 0.10477517008248297 0.07712808378033348 0.10452774319651302 0.07610606990894762 0.1685396723799404 -0.03299545370392009
2171875000.0 0.1370191872283913 0.017465699412746578 0.10734647268845747 0.07418467708693528 0.10691977800194942 0.07340763973103581 0.17232405404471934 -0.032757911306695905
2172938000.0 0.13843104193745004 0.018166337833982076 0.10995715877790815 0.07104284303724735 0.10926998826253323 0.07062915409737801 0.17512012106314395 -0.031934543886307086
2174000000.0 0.14001318024704074 0.018791740370618572 0.11235901340174431 0.06757133450656794 0.11167260565601832 0.06769604353900319 0.17781192767656911 -0.030186965932174754
2175062000.0 0.14178472679017654 0.019321833252655577 0.11480949278290788 0.06420308925342783 0.11414190337054993 0.06458876618908067 0.18019859323274565 -0.02778669805284223
2176125000.0 0.14334209381382643 0.019897345960613228 0.11702069291731163 0.06049914920406672 0.11657491604541881 0.061106824196904816 0.18121667424596719 -0.025634762671043577
2177188000.0 0.14525559182020292 0.020086989863849814 0.11888308182134716 0.05666119143111424 0.11877795568853629 0.05728417944482995 0.1819426179953894 -0.023083655611646582
2178250000.0 0.1471638903799702 0.020164090318736696 0.12057688473854829 0.052725730959130176 0.12103098076871681 0.053334760413965 0.18143909939579106 -0.020552009426482207
2179312000.0 0.14900402856052472 0.020198761500493278 0.12220565896311993 0.0488366921117457 0.1229075131556824 0.04923158482879469 0.18101629064095184 -0.018430016119986077
2180375000.0 0.15089962018581882 0.0199715860129112 0.1235498027646847 0.04482582835551687 0.1245273395854663 0.044955307201785644 0.17943991504733844 -0.01660876380852673
2181438000.0 0.15279907400829085 0.01959572925096596 0.1246796530148737 0.04076243413571192 0.1258247373955009 0.040570198979665344 0.17721227840619821 -0.015624878272805573
2182500000.0 0.15453997772181463 0.019079560160662225 0.12584410270065088 0.036756120625473704 0.1268545031624692 0.0363719549127833 0.17550399821741824 -0.014842637410972392
2183562000.0 0.15635835279655044 0.018577270189018134 0.12657077688759924 0.03276329252029625 0.12768331437465927 0.03216611504311489 0.1732253974424245 -0.014775603300415621
2184625000.0 0.15833986605693964 0.017889091910591407 0.12741204202401663 0.028843343984781077 0.12818759461173426 0.028066922951073256 0.17135678814522742 -0.014775088999733685
2185688000.0 0.160023825884431 0.017477512933555147 0.1281993813454465 0.025042337843325813 0.12858654723182816 0.024231532359888685 0.1695786255271934 -0.015563797460607216
2186750000.0 0.162059395145304 0.01673430238400047 0.1287920449125713 0.021195721659965177 0.1289517504962852 0.020253951140200392 0.16870420302148476 -0.016282252725608935
2187812000.0 0.16397701472218235 0.016350919501856426 0.12923804741905 0.017298044574934907 0.12924309745347054 0.016622473177489012 0.16781576123390154 -0.01760765847490598
2188875000.0 0.1658727921257923 0.01603690137718875 0.1298458092623857 0.013419995311188235 0.1294981427498718 0.012879528186611207 0.1679453985556285 -0.01886821225592706
2189938000.0 0.1680413421811837 0.015574495861637132 0.13029473753739879 0.00952732577441463 0.1300986568387358 0.009108200299999715 0.16852778463199336 -0.019981657258175908
2191000000.0 0.17009436106717699 0.0150793745764538 0.1306640623802025 0.005635838634778651 0.13055250606913482 0.005341796000220074 0.16932716639316506 -0.020846526382230102
2192062000.0 0.17247106272878307 0.014368438877240292 0.13102030525391153 0.0018312044865435723 0.13103412212571616 0.0014999709742919707 0.17127923613189278 -0.02156958596814063
2193125000.0 0.17445794248460425 0.013946396802521778 0.1312889201428504 -0.00207551971981242 0.13139023765378088 -0.002429749442309631 0.17311997970491472 -0.021974787907017797
2194188000.0 0.17678188913314402 0.01324789638615374 0.13138406769196412 -0.0061891912268393235 0.13159840862070468 -0.006532455977207921 0.17523367265202733 -0.021955409000390197
2195250000.0 0.17874343618722405 0.0124893450102629 0.13138972581996766 -0.010397201117164221 0.13166749576785286 -0.01061898137050273 0.17770172206987744 -0.021432614218733416
2196312000.0 0.18077627224448672 0.011842061876742445 0.1311311346877047 -0.014469302296051374 0.13156816913604524 -0.014880080977869626 0.18002155012105678 -0.020471929340467106
2197375000.0 0.1826227056397791 0.011180875917233601 0.13089125472283777 -0.0185817157682457 0.13108986055906988 -0.019120944143313386 0.182136769450789 -0.01912304931280188
2198438000.0 0.1842828916247356 0.010425675856223697 0.13031576651809804 -0.022626385479751664 0.1303788724375888 -0.023333721112868095 0.18339113259638487 -0.017172318294822325
2199500000.0 0.18584597467939096 0.009794169038975314 0.12964214561343557 -0.02684580614899509 0.12956246778032318 -0.02760803590403841 0.18452313178055424 -0.015643597661885524
2200562000.0 0.18745451214609934 0.009281299574756813 0.12884301883467303 -0.030889033435832644 0.12846179150240952 -0.03158525716466008 0.1851033947557032 -0.013615438502168852
2201625000.0 0.1890889611930791 0.008782443359793038 0.12778584330469459 -0.03504852471174601 0.12728300017077565 -0.035388341083429135 0.1849396635429532 -0.01183497487217038
2202688000.0 0.19046352420333945 0.00843978633204283 0.12656211020781707 -0.03895267126230601 0.1260602790695303 -0.03922720492818401 0.18447176219506237 -0.01027877935917058
2203750000.0 0.19204363594630958 0.007838855314006124 0.12525038440618383 -0.04292365433496696 0.12468223232837429 -0.04302554986231803 0.18335103926229793 -0.009361312999819552
2204812000.0 0.19377054358417478 0.007538292209194656 0.12373125832181035 -0.04677042474504375 0.12333803991180357 -0.04667926528155395 0.18200342066844888 -0.008795238759514414
2205875000.0 0.19545086257803285 0.007180449032615811 0.12214615856452475 -0.05046071381926178 0.1218883019871811 -0.05025407469907838 0.18065030664916742 -0.008775605005438001
2206938000.0 0.19716151444979088 0.006581876963751641 0.12027637093300941 -0.05405686575472965 0.12045288976009283 -0.05393993315522779 0.17910803435757408 -0.009347745309593189
2208000000.0 0.1988219469579174 0.00601098649974361 0.11848273820158564 -0.05774951477158587 0.11902101423511154 -0.05765740468984473 0.17793258541527612 -0.010954184217095849
2209062000.0 0.20054774519235793 0.005371781110171844 0.1166021013472338 -0.0611193641592136 0.11731112134467381 -0.061384498325981356 0.17700090554874948 -0.01326994048203504
2210125000.0 0.20228980094701018 0.004791531063559182 0.11468984591667529 -0.06472041015964126 0.11554524945282965 -0.06508821657364636 0.1767740437962916 -0.01620873605877236
2211188000.0 0.2040429736564576 0.004008990869174539 0.1128464436252852 -0.06812218718891198 0.11353322737914189 -0.06871962050700355 0.17738791935910472 -0.019395284390574353
2212250000.0 0.20571140592233783 0.003264869731558944 0.11078468462857106 -0.07139937187147077 0.11131196574621818 -0.07241677210897518 0.17889485455501863 -0.023354116856375264
2213312000.0 0.20735511323565833 0.0026834440940483807 0.1086597410981919 -0.0747013559126085 0.10905787168248311 -0.07591748952485781 0.18103149584332015 -0.027156685094980006
2214375000.0 0.20923257129537265 0.0020457447083855242 0.10661629270264933 -0.07797914246748656 0.10651359226336146 -0.0793043545179168 0.18425300347755452 -0.030982691514860175
2215438000.0 0.21092505298035724 0.001533785576699713 0.10444074483760371 -0.08114217747468956 0.10401686901720386 -0.08242462514815127 0.18827585214794074 -0.03427104263484816
2216500000.0 0.21288662347697798 0.0009913624481016935 0.10214833516952002 -0.084362683412129 0.10128584558532568 -0.08559442752880318 0.19288258909391706 -0.03769947557830726
2217562000.0 0.2148825507148656 0.0006059337551889206 0.09965774050048863 -0.08768075226709808 0.09862775129178808 -0.0884973620184941 0.1977518787871563 -0.03992306279018543
2218625000.0 0.21686018443008737 0.00017786955056803652 0.09709753097181556 -0.09075348271677453 0.0958916828103041 -0.09129336183161588 0.20302195311399762 -0.04146458754367202
2219688000.0 0.21908331657078992 -0.00023799065221295169 0.09457302937179404 -0.09389434272272493 0.09330758391770527 -0.09419717788652995 0.2086936974350069 -0.04241169256475544
2220750000.0 0.22145645248123846 -0.0008601427239255697 0.09160638416344705 -0.09706625592931666 0.09066484883450746 -0.0968313055418276 0.21356285749829274 -0.04273479857362899
2221812000.0 0.22374914169190985 -0.001421037484215588 0.08865992027360485 -0.09980717102080985 0.08800014275404969 -0.0995163638311621 0.21832855297839668 -0.041879076735788265
2222875000.0 0.2261376756730039 -0.0019249431389141397 0.08573508069345545 -0.10254847823536456 0.08528490193293334 -0.1021389164199212 0.22209735580328557 -0.040750884176316636
2223938000.0 0.2283709289704815 -0.0025502637352784155 0.08249673672797123 -0.1053739852734748 0.0824932826391082 -0.10470780813401387 0.22582112212954428 -0.03930454548181477
2225000000.0 0.23064920810784356 -0.003370261748590071 0.07909255570034032 -0.10771466352284978 0.07929114087308019 -0.10727116451751495 0.22803340288831253 -0.03795419844703406
2226062000.0 0.23288983807321229 -0.004162683055473243 0.07557264242192192 -0.1101292511127282 0.07599901012855355 -0.10977073111671912 0.22933341142422783 -0.03630729697770985
2227125000.0 0.23512241046511292 -0.004952665002718108 0.07202690448118919 -0.11236206764801174 0.0724465593410447 -0.11232951992260261 0.2305266464718366 -0.035508643918726775
2228188000.0 0.23711902961397305 -0.006038808615115951 0.06838462353710142 -0.11443150694852706 0.06875946821410754 -0.11466846749294879 0.23013626763718592 -0.03526585377951636
2229250000.0 0.23920591495214885 -0.006704549739400722 0.06449653036788945 -0.11635073547680212 0.0649604921160077 -0.11686054155589236 0.22958346828265158 -0.03579102065844162
2230312000.0 0.2413079134764919 -0.007785086643307826 0.06075636395878673 -0.1181635516609501 0.06088023283143931 -0.11894180327637566 0.2295377889587076 -0.0376049682212223
2231375000.0 0.24333036659794524 -0.009148898206768058 0.05694503252291147 -0.11994609428740648 0.056927256310749616 -0.1207909091864921 0.22929643425806562 -0.040364943380171575
2232438000.0 0.24540759157317127 -0.01034482526202783 0.05314663185114323 -0.12138380892979972 0.052889917826242284 -0.1224972674147303 0.2294549574937056 -0.043182715175264466
2233500000.0 0.24748664422747263 -0.011687172508840042 0.04939459111792296 -0.12293292290720952 0.048932780032926344 -0.12378405388406531 0.23051908915741093 -0.0473837261194102
2234562000.0 0.24981110116261251 -0.013446500518884122 0.04553741622059924 -0.12425824523363636 0.04507563552566172 -0.12515562584195963 0.23194554855120061 -0.051692871187495
2235625000.0 0.25190762909946773 -0.014898674852225673 0.04159037940655966 -0.12551569324285616 0.04107296027297661 -0.12612408669162053 0.23479724321140685 -0.05606151988620054
2236688000.0 0.254093789500692 -0.016879644719595494 0.03773615688637601 -0.12683852694258912 0.03718594614879158 -0.12726792859881908 0.23895070048902214 -0.06022165887106589
2237750000.0 0.2561384424342648 -0.018934488044775724 0.03386169698097364 -0.12788861427086815 0.0332609588399608 -0.1281268269908342 0.2432921924084516 -0.06364780014302276
2238812000.0 0.2584248995542257 -0.021063748417694105 0.03008298140250499 -0.12909100388845374 0.029385751448004704 -0.12902618329591006 0.24878659741063208 -0.06671092216819553
2239875000.0 0.2604707311992515 -0.02346744941137657 0.026183957070700804 -0.12989378301053814 0.025500324324355176 -0.12974466370001045 0.25396447129347094 -0.0687275197079648
2240938000.0 0.26256066199487665 -0.02602682896777428 0.022199915455099813 -0.13072258887973537 0.021647174511097843 -0.13065192435085685 0.25998427627029685 -0.06944317095365664
2242000000.0 0.2645802537198862 -0.028599330061381035 0.018375448741388252 -0.1314393549649885 0.017795845963952776 -0.13133287274262892 0.2656346792002092 -0.06962349207980488
2243062000.0 0.26677291409522313 -0.03128880027100933 0.014447169762546423 -0.13205895380726987 0.013859597948288399 -0.13195180764540002 0.27084003124590533 -0.06888119147323028
2244125000.0 0.2686457467447938 -0.03385421571926156 0.010493678084790447 -0.13247688272236624 0.010100842468939848 -0.13246985112449425 0.2756175061279718 -0.06687040796604235
2245188000.0 0.2706530360070319 -0.03676355168723912 0.006374735916241381 -0.13289391915624835 0.006068536883959995 -0.13296935732862974 0.27944906072885717 -0.06465500522371
2246250000.0 0.27278941227822895 -0.03991095482760336 0.0024173994629298826 -0.13307600263609562 0.002057572246902887 -0.13325929602452116 0.28159377687014264 -0.06192427342374794
2247312000.0 0.2745494762102583 -0.042854933339003136 -0.0017842297940909855 -0.13299078600867734 -0.0018763308587121275 -0.13321274306518796 0.28255686124299695 -0.05933336697080248
2248375000.0 0.27659862366887994 -0.045920397106380094 -0.005721756023673855 -0.13275277079334477 -0.00595534686011821 -0.13306933460549308 0.2821489745806289 -0.056794109252820114
2249438000.0 0.2782987172523014 -0.0487174515967916 -0.009932440717947652 -0.13254324764754688 -0.010108083817456611 -0.1326172135114121 0.2800537400354385 -0.05546471735456123
2250500000.0 0.2800424737090354 -0.05180373655346861 -0.01410828043574514 -0.1319874060866968 -0.014199984178266137 -0.1321549024654864 0.2776310313002637 -0.05484100611580285
2251562000.0 0.2816510799520229 -0.054954061104996337 -0.01818269704713737 -0.1313187739036479 -0.01838644479629574 -0.1315150267142129 0.2738420376304171 -0.05541665402901405
2252625000.0 0.2833763431058494 -0.05800131535295991 -0.022240289876539088 -0.13050434021457283 -0.022682375330830812 -0.13062026733291496 0.2697218870521432 -0.05776687331774732
2253688000.0 0.2845916936576153 -0.061013651719599465 -0.02630423570825141 -0.12948962395513633 -0.026789085483362524 -0.12953558037359947 0.26582763188924463 -0.060946613087587864
2254750000.0 0.2862307359773053 -0.0642365777569351 -0.03035179792408661 -0.12840980889158998 -0.030889475188438237 -0.1283498377300108 0.26210271262362994 -0.06570856087178348
2255812000.0 0.28725427782331303 -0.06753532563495807 -0.03419881489498226 -0.12702536237709425 -0.03504588268160059 -0.1269184980039537 0.2588547107155088 -0.07113803340302151
2256875000.0 0.28846732233903066 -0.07080936927346171 -0.03822933933324113 -0.12553996322781297 -0.03882582136216362 -0.1256083389688701 0.25701797052661274 -0.07722580122859818
2257938000.0 0.28901472260251015 -0.07408543589646341 -0.042052677665281875 -0.12391650941818316 -0.042720504749672886 -0.12378214953665667 0.25593740947125976 -0.08409998417788725
2259000000.0 0.2899832154199883 -0.07779060549539 -0.046018546567547294 -0.12223747820029784 -0.046390851556418075 -0.12207938090672946 0.25585453806992586 -0.09070830424838876
2260062000.0 0.29018815284211197 -0.08130569035318994 -0.04956760588886078 -0.12020523732413486 -0.04984178031587496 -0.12019329516189328 0.25655501324989405 -0.09696185086154736
2261125000.0 0.2907979426731879 -0.0850020251779103 -0.053368578896999655 -0.11829417494047492 -0.05343000093337471 -0.1182180860493681 0.25823918075804214 -0.1029963247230845
2262188000.0 0.29100607026819164 -0.08860475357544319 -0.05689895708857788 -0.11645892607894634 -0.056809249381181676 -0.11615625111278652 0.26066725987173295 -0.10781813703519828
2263250000.0 0.29114436414190203 -0.09270816043192677 -0.060348294257002555 -0.11419167716328318 -0.060182405962670375 -0.11418691824503159 0.26332829611889497 -0.11240209078424515
2264312000.0 0.2912629641569564 -0.09638707173942015 -0.06373667363929457 -0.11228338922243448 -0.0634879658017366 -0.1121665802613427 0.2663437912465921 -0.11590101571900459
2265375000.0 0.29093881350760664 -0.10023232476177353 -0.06685571314839941 -0.10995755824966258 -0.06677696743271504 -0.11002762705294374 0.2688241057873068 -0.11829827675607522
2266438000.0 0.29078547138814914 -0.1041875780519628 -0.06986198145183985 -0.10770154118912283 -0.06998219684140868 -0.10798399292430454 0.2708412232383137 -0.12000815234573561
2267500000.0 0.2907767963323907 -0.10802542270324879 -0.07283490986522423 -0.10541880591411701 -0.07311431468467541 -0.10582062610522386 0.2721856590370785 -0.12119347082962759
2268562000.0 0.2905134903067206 -0.1120059408996951 -0.07561016629955708 -0.10298287879569185 -0.0763414599761539 -0.10343243299338224 0.2725329507290615 -0.12206116702486389
2269625000.0 0.29020962762116953 -0.11592658830676418 -0.0784748427421821 -0.10047274969244478 -0.07945837908456833 -0.10108695434351599 0.27168291121105675 -0.12275260712938434
2270688000.0 0.29006691116424854 -0.11979837217847235 -0.08134273248640651 -0.09803398470887492 -0.08247683976753169 -0.09837692312554909 0.2698837342373459 -0.12413900293085935
2271750000.0 0.2899397967174672 -0.12357640421337808 -0.08413967482003662 -0.09542885357387768 -0.08524794191099408 -0.09568494021361237 0.26761519347919005 -0.12556823970186093
2272812000.0 0.2897838304612847 -0.1277835823939751 -0.08678971143044303 -0.09285024119833081 -0.08804089443152957 -0.09270129177743978 0.2646156443597714 -0.12805650426252738
2273875000.0 0.28940171985691227 -0.13156059236104944 -0.08951744916887798 -0.0901807279175618 -0.09049663349006785 -0.08973595692794507 0.26134855522529066 -0.1313176991969744
2274938000.0 0.28916876213176645 -0.13554583090584568 -0.0920017654139464 -0.08755673258211112 -0.0928892037536488 -0.0867014998345564 0.2580720635195397 -0.1355820313430534
2276000000.0 0.28867998179207843 -0.13951826718520433 -0.09462211062978516 -0.084558729916859 -0.09500923360951452 -0.08354029761255137 0.25508533420667273 -0.1404139273708955
2277062000.0 0.2881393530276319 -0.1433962655260954 -0.09710517601249342 -0.08176544911655598 -0.09721290523035173 -0.08045284933906374 0.25250752213811023 -0.14644026274132277
2278125000.0 0.28760541983991755 -0.14711068842428987 -0.09922225941215543 -0.07867805735307723 -0.0991570514190539 -0.07743266087602155 0.2508077443422294 -0.15270318492976376
2279188000.0 0.2871158958343992 -0.15058603153179453 -0.10140998695405942 -0.07544850522207347 -0.10104983679397629 -0.07442162366694954 0.24994902400996025 -0.1596560683000422
2280250000.0 0.28667308564962457 -0.15389576375864164 -0.10350047370800035 -0.07217399276879309 -0.1029804945768051 -0.07166501050283713 0.2498936833828508 -0.16657441851334054
2281312000.0 0.28598719825587965 -0.15715072673801064 -0.10540320969127497 -0.06879824437370939 -0.10482319629106089 -0.06861276007535298 0.2514091599550741 -0.17320805399179276
2282375000.0 0.2854910553072995 -0.1601899864490472 -0.10723816840186799 -0.06541646567747048 -0.10665219414260614 -0.06568238862077871 0.25373683879800857 -0.17962415011512356
2283438000.0 0.28459998322468183 -0.163084262870472 -0.10886614979456659 -0.061891981096620995 -0.1084033223866553 -0.0626374788277404 0.25650294909740334 -0.1850105556893291
2284500000.0 0.28394843382649226 -0.1659533512571272 -0.11043603915692972 -0.05849981498966188 -0.11025660399352309 -0.059541984838127164 0.2602772057881439 -0.1895250847329687
2285562000.0 0.28328712240283416 -0.16841268996248834 -0.1117751384216032 -0.05502865250111471 -0.111994587021525 -0.056262282851188464 0.263818257395579 -0.19290614123109784
2286625000.0 0.2824538597930444 -0.1710373850467645 -0.11272668036868218 -0.051860481826600684 -0.11351586007922242 -0.052761962224674386 0.2675158451620873 -0.1953859130598989
2287688000.0 0.2813806346960645 -0.17354053023414895 -0.11382852775996163 -0.048544020309563375 -0.11488932031034828 -0.049149205513805465 0.27068427733194195 -0.1962028936349891
2288750000.0 0.28071077988955556 -0.17624750025747293 -0.11467991600939986 -0.04520309678112721 -0.11615381814832862 -0.045521947069665024 0.27302715940179995 -0.19656081030522568
2289812000.0 0.27955860543549677 -0.1786913459570316 -0.11558047814630215 -0.04205595428739939 -0.11701377003198961 -0.04165999677167964 0.2744812285818972 -0.19646424416592176
2290875000.0 0.2781701183827128 -0.18139890759444674 -0.11633496336181091 -0.0388040257525882 -0.11771917918234119 -0.03800455922765233 0.27491553385127987 -0.19553207854420188
2291938000.0 0.27707934176451815 -0.1838674788763292 -0.11714145616280719 -0.0356563383076864 -0.1185184836527564 -0.03445579296732966 0.2745976489772481 -0.19453411903044132
2293000000.0 0.27584977262388855 -0.1862880474137873 -0.11796864381468843 -0.03240803779359858 -0.1189955751183225 -0.030940692449523573 0.2734912109048943 -0.19395831686542536
2294062000.0 0.27466460070820453 -0.1886820000805306 -0.11886464189233514 -0.02924799032886709 -0.11937133827736597 -0.02753638271787749 0.27124525212438033 -0.19343961524488315
2295125000.0 0.2732026450129867 -0.1911424850408455 -0.11951337061044184 -0.025723605578102656 -0.11969852084428759 -0.02438787996974311 0.2685519105746133 -0.19328921230409918
2296188000.0 0.2720270350476243 -0.19362892570766493 -0.12027371604997457 -0.022351001647920022 -0.12005406469464744 -0.02123864055237979 0.26558626429784443 -0.19373234791064545
2297250000.0 0.27076430733554563 -0.19603993991413426 -0.12102821639235085 -0.018984106650801302 -0.12036133671941736 -0.01813700002496709 0.2617308094954229 -0.1949043435792969
2298312000.0 0.2695419110704663 -0.19839075284494262 -0.1215789735009284 -0.015363827495032933 -0.12080921593469038 -0.01485987969145296 0.2586406516013266 -0.19645319037411027
2299375000.0 0.268441089834064 -0.2008282431641935 -0.12196516741665767 -0.011685969216006628 -0.12116831346968246 -0.01149701823430302 0.25517874923339584 -0.19902647014710867
2300438000.0 0.267485913712763 -0.20313037693365604 -0.12220337375611016 -0.008185418273218057 -0.12160470002743262 -0.008188944085506165 0.2524473063234637 -0.20189638537177218
2301500000.0 0.2664785876600572 -0.2053597849077325 -0.12222747074123377 -0.004549214106355898 -0.12179116958057534 -0.0046027541776194 0.24967621595864573 -0.20492928813737013
2302562000.0 0.26579318252778167 -0.20793658485603767 -0.12220656126121597 -0.0006408158024286814 -0.12204604920240197 -0.0008586057553687654 0.24805259835487392 -0.20879191227883828
2303625000.0 0.2649080913226839 -0.21004520901354284 -0.12206687300176988 0.0029266208168176088 -0.12213009958785184 0.0028987120870263335 0.24719412637891708 -0.2119900530758432
2304688000.0 0.2643193705034278 -0.21263017147317215 -0.1217610939087373 0.006598312609354583 -0.12207555409851593 0.006676515823234729 0.24691933265027988 -0.21586292419288017
2305750000.0 0.26337719886072253 -0.21483386346148262 -0.12127592262703119 0.010202384162217462 -0.12178013620940853 0.010332310044187847 0.24661674619856222 -0.21865148542175197
2306812000.0 0.26267942681544776 -0.21701241679800592 -0.12045194387931969 0.01382831534729375 -0.12119559345075867 0.014168609627568102 0.2472159008184691 -0.22144697569470445
2307875000.0 0.2619882031340507 -0.21908774471161874 -0.11989009848626994 0.017271815369831172 -0.12044305259909505 0.017697898755141703 0.24797239021960518 -0.22292224062408916
2308938000.0 0.26125523644851734 -0.2214419612046521 -0.11928837574326455 0.02086275350495801 -0.11948083808102374 0.021232033638467058 0.2482398486918637 -0.22377414531683001
2310000000.0 0.2605997600181792 -0.22355580887749443 -0.11836410846092818 0.024128068424388062 -0.11857719684438765 0.024546253451885096 0.24853778978639615 -0.2243287703383069
2311062000.0 0.2600461719409993 -0.2255780147680024 -0.1174797793435186 0.02754511397772392 -0.1175478603862946 0.0279250488994292 0.24786258811651996 -0.22405492035975866
2312125000.0 0.25936879057393747 -0.22745432213507208 -0.11647583064303153 0.030741233804418993 -0.11648861780489386 0.031069872789832007 0.2473443716464748 -0.22397964651373903
2313188000.0 0.2586613833261408 -0.22921040099736184 -0.11546376040430685 0.033990285150017674 -0.11541540846639285 0.034384212604115186 0.24587069975693968 -0.2233774939268843
2314250000.0 0.2580024136926534 -0.23086488387621548 -0.11436388690946558 0.03720187189637774 -0.11439012160314158 0.03747051531645944 0.24391902927994047 -0.22278300308313057
2315312000.0 0.2575047559933008 -0.2327841085671167 -0.11331493152569505 0.04029575974594048 -0.1133888260533924 0.040737213481316446 0.24101282500485458 -0.2222224714682433
2316375000.0 0.2567400655658851 -0.2343986114455803 -0.11220797451196901 0.04350602433441125 -0.11234100404943201 0.043917595856840345 0.2375224068029145 -0.22173631390377208
2317438000.0 0.2560268423997328 -0.2361495861165476 -0.11091549657067298 0.046620977869734896 -0.1111363282232574 0.04713827048884448 0.23341575031342926 -0.22210326026149854
2318500000.0 0.2551771086880429 -0.23788063762116224 -0.10971147097700204 0.04977351525612024 -0.10979443184080366 0.0503769888464241 0.22926822117523318 -0.22289500865484332
2319562000.0 0.25440713290154465 -0.239780914689921 -0.10813423930733299 0.05290431294355887 -0.10840182142187293 0.0537636059908841 0.2245942886922843 -0.2245133439671189
2320625000.0 0.2531060442000595 -0.24148734145760772 -0.10655858748247857 0.05609231844175995 -0.10661697144905143 0.05689110180385795 0.21970694228298954 -0.2265984750941174
2321688000.0 0.2522146445952065 -0.2434532480857401 -0.1050052192091562 0.05924265134502653 -0.10487214100579129 0.06009099427669635 0.21494427092452936 -0.22978610089297602
2322750000.0 0.2508511952678829 -0.2452749680466481 -0.10313503816633272 0.06229908584453807 -0.10292667798587783 0.06318443176186685 0.2106717623934079 -0.23367831136178494
2323812000.0 0.24974150383957053 -0.2471367618853274 -0.10136023263742619 0.0654226109555661 -0.10087505021875706 0.0660919514988369 0.2067100429589199 -0.2382611511420924
2324875000.0 0.2483477537810234 -0.24930769406616687 -0.09946912375845092 0.06849074912186065 -0.09879461042306366 0.06902590651723339 0.20359432088752427 -0.24340510870974735
2325938000.0 0.24696945048879518 -0.25138660910237937 -0.09740084210415016 0.07133029089961952 -0.09663726608546575 0.07172912596166403 0.20146794083604772 -0.24850227359904498
2327000000.0 0.24555965952232858 -0.2534878895543066 -0.09529014177459899 0.0741041092498916 -0.0944754239095336 0.07440893202390612 0.19987168965254432 -0.254080060718511
2328062000.0 0.24421610421660256 -0.2555630359124049 -0.09289887933735418 0.07694670166937778 -0.09216180723995919 0.07689082285370648 0.19919478992819858 -0.25931077433989513
2329125000.0 0.24297188778175308 -0.25761788816506526 -0.09051033515568215 0.07962364267339957 -0.09007581599283172 0.07938956787286763 0.1991545152611708 -0.26414623553321814
2330188000.0 0.24160640117263982 -0.25969184384596455 -0.08809428481597156 0.08223185390453114 -0.08779738117305085 0.08193318772534162 0.19980151856284756 -0.268856794067666
2331250000.0 0.24030145419602147 -0.2620413018388541 -0.08546279384953107 0.0846640073059621 -0.08548945128164541 0.08439826254730855 0.2005866003736016 -0.27293517536875445
2332312000.0 0.23928916792964738 -0.2642826414271903 -0.08291025866284031 0.08702275774832235 -0.08313348061938604 0.08696161697716985 0.20179985667626774 -0.2766302001303831
2333375000.0 0.23798663905269282 -0.2662777224384425 -0.08022236556209275 0.08937474862691662 -0.08065808269067327 0.08936553765876652 0.20354812012634763 -0.27954914361478383
2334438000.0 0.2367200949095256 -0.26859606000993747 -0.07756618933822237 0.09157047364423429 -0.07801929676587473 0.09172955241098109 0.2048506579116791 -0.2816828890352999
2335500000.0 0.2354231878838089 -0.27098173216092625 -0.07479229893047903 0.09372046500338685 -0.07534480943017378 0.09417260639812541 0.20649586777719603 -0.28305047906239317
2336562000.0 0.23433388005240977 -0.2731780090548333 -0.07207884045389512 0.09586312014295807 -0.07252688039071878 0.09628374485607076 0.20740638795175176 -0.28372949502606687
2337625000.0 0.2328689989695683 -0.2755825312823715 -0.06928774668217302 0.09776670184950005 -0.06949346496115441 0.09838390965290784 0.20771316073395069 -0.2835605260464329
2338688000.0 0.23147035894894782 -0.27770701365719447 -0.0664505676640603 0.09956761645595023 -0.06645054402719955 0.10030463288723296 0.2071080983477224 -0.2834036460163254
2339750000.0 0.22996053418376905 -0.28010546948446285 -0.0632814659327302 0.10147051838693366 -0.06325524371478879 0.10223419836563008 0.2052334674068911 -0.2833810308700165
2340812000.0 0.22862228837001114 -0.2823324935928067 -0.060326527025650056 0.10321980811031665 -0.05989710992634201 0.10400211401506815 0.2031760597188742 -0.28318109513201584
2341875000.0 0.22735247452888327 -0.28459532252674086 -0.057183900193098575 0.10487995060976417 -0.056678289631259426 0.10570109644945806 0.2000576177003315 -0.28398853526635587
2342938000.0 0.2257147068605489 -0.28661414697846244 -0.05402321390774742 0.10652532042110732 -0.053394402512981276 0.10731160448792418 0.19675476629840574 -0.2859185237945218
2344000000.0 0.2241200938001077 -0.28885112480354336 -0.05059665054385091 0.10815541726275828 -0.05022476391635012 0.10877697393101025 0.19322914901323876 -0.28827006754998774
2345062000.0 0.22261464407692788 -0.29099390112582435 -0.047372647766623435 0.10958033622235605 -0.04688695089053831 0.11022019881961442 0.18957196449439073 -0.29190286798419235
2346125000.0 0.22091807975654565 -0.29319081535157765 -0.044205480571775424 0.11094773695727628 -0.043566643694759336 0.11150731117225596 0.18689456946462968 -0.2959234911849944
2347188000.0 0.21927579186416063 -0.29530333641733614 -0.04090579695911884 0.11220586587245049 -0.04027831938403377 0.11254657256696579 0.1844426059581867 -0.3006956639468259
2348250000.0 0.21738783931786673 -0.29733357155657375 -0.03756075155603414 0.11333577023059933 -0.03692267103480824 0.11361361756231803 0.18273938945568408 -0.306089101208452
2349312000.0 0.21569995112645785 -0.29966448839440096 -0.0342775160501757 0.11442751682868742 -0.03371580704583646 0.11464738497078655 0.1822885597857196 -0.3120400729703171
2350375000.0 0.21382255423416355 -0.30186793365253656 -0.030971812057938482 0.11544679525814212 -0.030326763530719867 0.11551081571735793 0.18290172777758718 -0.31796277025298336
2351438000.0 0.2116890640801308 -0.30383637358774607 -0.027625363779425476 0.1163886583672097 -0.026968355719789856 0.11618857744664501 0.18458710759762612 -0.3244495590886674
2352500000.0 0.20985868434351748 -0.30634347878001716 -0.02422663679983028 0.11728080101168584 -0.023665676181147156 0.11706621523837554 0.18656549448775095 -0.3300740452248963
2353562000.0 0.20752962384789106 -0.30859136595711484 -0.020813390081575747 0.11798267504626919 -0.02030825452878532 0.11791480475374218 0.18973221308488536 -0.33563408645210663
2354625000.0 0.2053481518619282 -0.3109994609368284 -0.017404526414762287 0.11872767980223073 -0.01700615781666326 0.11850112869254768 0.19395733072500515 -0.34046951418200255
2355688000.0 0.203263551458029 -0.3135357587199721 -0.01408395963908818 0.11955584446076079 -0.013642840070569793 0.11935816892883014 0.19838437067209114 -0.34338926470987985
2356750000.0 0.20111814686516508 -0.31629867765126496 -0.01062905038172368 0.11996393449024675 -0.010430744088478237 0.11980820331378214 0.20307477205234012 -0.3453212819602957
2357812000.0 0.19900194148976447 -0.3187464297251412 -0.007005362996086141 0.12034586680203632 -0.0070507694356769565 0.12027222780897125 0.20702248284954824 -0.3461026016502919
2358875000.0 0.19677116350540896 -0.32127003257238024 -0.0033824231826736664 0.12063184357693163 -0.003567514239310636 0.12042459326475934 0.20990504282168265 -0.3453219832655581
2359938000.0 0.19457265851292585 -0.3236252766750345 0.0004086476643390552 0.12041745382294478 -2.070015691895919e-05 0.12051724946431731 0.21191998453397956 -0.34366601165913097
2361000000.0 0.19252111371746786 -0.32628731105481 0.0038678811822590664 0.12006073841290482 0.0035345550959235 0.12038478819745231 0.21266181856400476 -0.34041030112426457
2362062000.0 0.19049844785762346 -0.3288011801940766 0.007589074021498262 0.11961519814883591 0.007347064687151971 0.11995421815151255 0.21135946939622446 -0.3376757719467025
2363125000.0 0.18850419612909697 -0.33126828749854853 0.011047602188410967 0.118968782637243 0.010974247602746269 0.11934364974898429 0.2078798302644852 -0.33378026157682505
2364188000.0 0.18636486309024314 -0.3336657915025535 0.014744534351921664 0.11784446839157305 0.014882285022792421 0.11845646985754849 0.20275544818869656 -0.3314852503695326
2365250000.0 0.18439824654312167 -0.33583584832547153 0.018306667705324218 0.11679224165725098 0.01869594019017989 0.11733271240067018 0.19606535185703458 -0.32971807129732456
2366312000.0 0.1822400754892537 -0.3382456511860738 0.021707218528001147 0.11558386758356799 0.02230494322867892 0.1161299716376542 0.18883024217259706 -0.32933524563977556
2367375000.0 0.1800330934157036 -0.3404601415005948 0.025108083673006945 0.11431726839172528 0.0258435817991398 0.11481517927335093 0.18195396324082488 -0.3302027937929985
2368438000.0 0.17803003435516163 -0.3427812813780599 0.02822358881133405 0.11285365059714642 0.02934416798357328 0.11328720294332811 0.17401376364072835 -0.33241532510752253
2369500000.0 0.17566070559272112 -0.34500785593766015 0.031471023543557755 0.111409319892201 0.032562920898597754 0.11174668914443887 0.16671712993877708 -0.335249993695965
2370562000.0 0.17361363748962758 -0.3473472489635131 0.03458585909867097 0.11004014683959594 0.03561647719450377 0.11016185181871467 0.15973314135077765 -0.33992224211882244
2371625000.0 0.17172914425338948 -0.34958864416075847 0.0376386100157563 0.10876820244854946 0.038508147108398415 0.10879946881137896 0.15447113016818662 -0.34557977374734306
2372688000.0 0.16922965564079132 -0.3517622873425901 0.040828508699461696 0.10733929266348735 0.041533154830788774 0.10719587074699828 0.14934388354802344 -0.35182954811744804
2373750000.0 0.1669521566404637 -0.3537930806952099 0.04386086722536393 0.10600044202171134 0.044500816603737496 0.1057170846007702 0.1456503368366676 -0.3579518669581071
2374812000.0 0.16449030141307888 -0.3560699265827188 0.047162861983872297 0.10495188681345628 0.04755453188682082 0.10437109037482006 0.14345593962461717 -0.36528891073368863
2375875000.0 0.16204037438032368 -0.3580595981380815 0.05037576622585537 0.10343071946162208 0.05073593608321807 0.10289035695920477 0.14238085580182716 -0.37132332710224913
2376938000.0 0.15950233453285845 -0.3601877573866371 0.05340383121609402 0.1019887608920514 0.053759578522473254 0.10149183544351684 0.14267483934040928 -0.3774991680814119
2378000000.0 0.15704342138462088 -0.36223736539955337 0.05669059633688239 0.100579226126685 0.05694379273937034 0.10001550083462342 0.1442129907778807 -0.38249722823438687
2379062000.0 0.15447570703308666 -0.36402803657817195 0.0597530053212349 0.09894895059043253 0.06001486894888141 0.09835413958768616 0.14578424436885581 -0.3863759449862914
2380125000.0 0.15164979316398636 -0.36598857263354806 0.06282959133303034 0.09694618390524568 0.06309484363411368 0.09643842658175049 0.14752621626070728 -0.38874023016712356
2381188000.0 0.1494306681831364 -0.36787250613887484 0.0656691605307271 0.09484694857189074 0.06590444530636938 0.09460984523914027 0.14942960120424764 -0.389664364956203
2382250000.0 0.14665711836490491 -0.3699424253769036 0.06832803782356661 0.09266746619978691 0.06860204800947382 0.09231534791214312 0.15008408559746478 -0.38898931783629753
2383312000.0 0.14405380692946892 -0.3721776730782014 0.07101291630649602 0.0902702474739845 0.07109852656398477 0.08991474304789403 0.14940116932720926 -0.3878682723114899
2384375000.0 0.14146826274924382 -0.37437509816070114 0.0734825379377588 0.0875911077202684 0.07332638814488662 0.08741102222005735 0.14706326367199024 -0.38577396870892644
2385438000.0 0.1387951258104374 -0.37648246592747914 0.07560608591063316 0.08482652794196936 0.07531889787981194 0.08484118191124035 0.14311787705316176 -0.38348100266523844
2386500000.0 0.13627125925929903 -0.37887162142678626 0.0776325191638411 0.08212799484198685 0.07728849014546528 0.08228873252303098 0.13797579364484125 -0.38200553459010456
2387562000.0 0.13341520008703778 -0.3810095017189333 0.07942422724721598 0.07931231506457824 0.07920291207576338 0.07974214713284745 0.13116785986789628 -0.38103965958239305
2388625000.0 0.13075378391164674 -0.3833759211968658 0.08106881948747474 0.0767204203191493 0.08101108190553427 0.07725086945598084 0.1238320308711215 -0.3810972317590407
2389688000.0 0.12812741013379683 -0.3856380608374098 0.08270040790595369 0.07403164021464556 0.0827933901787287 0.07482951989922292 0.11549512974060806 -0.3822777740266701
2390750000.0 0.12546747867609168 -0.3877798679839121 0.08406949908610897 0.07153203853545625 0.08453221050092767 0.07239545231551774 0.10780329665525733 -0.38489636356008666
2391812000.0 0.12296185733683714 -0.3899257647009798 0.08546631096922576 0.0691580435784485 0.0864028700207274 0.06986467822253783 0.09983137963830688 -0.3886980452728935
2392875000.0 0.12033342954036884 -0.39192806833637434 0.08693048346662663 0.06648679372097357 0.08811726126718555 0.06715013983276362 0.09296750510357141 -0.3934117718152075
2393938000.0 0.11777231120112665 -0.39379254652170453 0.08850860369094117 0.06416989015876105 0.08995400197935909 0.06441957020990906 0.08665836367189221 -0.39935293264301525
2395000000.0 0.11543359992701775 -0.395539671789662 0.08998714820225323 0.06166642831689394 0.0917777070254135 0.06157582009688573 0.08170681595641217 -0.40538001508394383
2396062000.0 0.11276508375137997 -0.39742510837099526 0.09171797234578892 0.05922688352144 0.09343423672520876 0.05851422447153215 0.077900218227852 -0.4124139926068851
2397125000.0 0.1103846466906628 -0.39876589280366537 0.09341340097938228 0.05644191493947067 0.09486073489604556 0.055445856054010555 0.07600412985045195 -0.41893339711810007
2398188000.0 0.10772129529040181 -0.4003082932357157 0.0951958144221085 0.05391900254144796 0.0963633034526633 0.052403694117298255 0.0754244031825341 -0.4256370762553457
2399250000.0 0.1052813778939669 -0.40183147159325405 0.09679218646877827 0.051195152399117 0.09747570958432795 0.049386027182266125 0.0757544411516944 -0.4310951065429833
2400312000.0 0.10264307442541677 -0.4033936050330247 0.09843673699587756 0.04845985211199016 0.09850496874792816 0.04661510613417004 0.07769054893758878 -0.4357818328363408
2401375000.0 0.09973396279690856 -0.40484208271347083 0.09989797469926952 0.045733418650610626 0.09938495557880692 0.043908516260745135 0.07983504528690605 -0.4386515723368647
2402438000.0 0.09671423802644416 -0.4062128481180594 0.1012286827771362 0.04263527476905236 0.10023209073099054 0.04133905613585025 0.0819166861278297 -0.43996239952932387
2403500000.0 0.09381543722160318 -0.40752950198889165 0.10234369020779935 0.03987483449875016 0.10103596199313379 0.038981012528596704 0.08388527637600532 -0.43928308766201757
2404562000.0 0.09058529680871619 -0.4087620261633421 0.10332217462878338 0.036701766964893516 0.10190755838818655 0.03643449328763084 0.08439446049991574 -0.4382581192494242
2405625000.0 0.0874532262535112 -0.40992131134459797 0.10410190192371367 0.033780168121564036 0.10281939598260847 0.03402606380733202 0.08415065133679211 -0.43563069035560925
2406688000.0 0.08423432592979276 -0.41060477104666404 0.10489343843899546 0.030654312199443735 0.10380789567220675 0.03143489079501143 0.08261688207932602 -0.4326971624187166
2407750000.0 0.08085811403970627 -0.4118979790767874 0.10526042359925596 0.02774232450067101 0.104813130007031 0.028890222091821696 0.07917213320749966 -0.4294288242851719
2408812000.0 0.07741648255162505 -0.41281376678624104 0.10570495665360685 0.024815177234847344 0.1058360153535253 0.02619759805370606 0.07482299795340307 -0.42643667044747413
2409875000.0 0.07406016149098076 -0.4135786014074962 0.1058594564821522 0.021948925528616228 0.10661309656993329 0.02325506982401015 0.06909252605891947 -0.42345474249072595
2410938000.0 0.07061775852647602 -0.41453155851355683 0.10594285674228542 0.01908483408950552 0.10734119914903434 0.020172365254952345 0.06255736577186467 -0.4212495844157754
2412000000.0 0.06727402981032932 -0.41567186247015314 0.10614222514606156 0.016339317554814037 0.10787542363267923 0.016927535080312573 0.05544540989973289 -0.4200015811827354
2413062000.0 0.06347348913260957 -0.41646856698073875 0.1060984144292373 0.013570817135391813 0.10808731547974403 0.013490095477523851 0.04788032314066913 -0.4203370399340385
2414125000.0 0.0601943590845331 -0.4174533576045765 0.1061314156425533 0.010919138057008554 0.10798358952953953 0.010134510852676264 0.040162584096138286 -0.42114804772401276
2415188000.0 0.05643423174512558 -0.4183136635691582 0.10623624080881512 0.008114828644821328 0.10767391812201692 0.006801835045033433 0.03312918469670614 -0.423221461169272
2416250000.0 0.052846980921619144 -0.4193163629208516 0.10640847502188794 0.005330362829057308 0.10739588285749216 0.003654827192559811 0.027038230782949733 -0.426087050530046
2417312000.0 0.04913004998406507 -0.4201800037427483 0.10661338289247406 0.0024667919663759934 0.1069661639244229 0.0006261268457174237 0.02174340250207357 -0.42926409443872365
2418375000.0 0.045654608791212 -0.4212338276629864 0.10676176751985418 -0.000409127898702915 0.10657364538205057 -0.0023390163331692354 0.017366337142440857 -0.4337470244000411
2419438000.0 0.04192312707030151 -0.4219808912070318 0.10690199212069869 -0.003416770627510957 0.10626911886323005 -0.005091147594752289 0.015150917144892794 -0.4379887090106295
2420500000.0 0.03813990028222631 -0.42285719942349653 0.1069893116320115 -0.006474480994655293 0.10612533256154197 -0.007717212755753672 0.013522927595362062 -0.44126264522438036
2421562000.0 0.03481798798660638 -0.42359924422437945 0.10719769340606759 -0.009448004000858518 0.10593917936175663 -0.010293658494871615 0.01323476395986161 -0.44460366776369703
2422625000.0 0.031271149427351215 -0.4241703610215609 0.1071632170959237 -0.012578124876970576 0.10587857680547692 -0.012840040877360006 0.014224722530447579 -0.4467007551933974
2423688000.0 0.02816139602137115 -0.4245275403754519 0.10690712074782935 -0.01561673117429949 0.10585422423373386 -0.015402055413436193 0.015000683777709923 -0.4464182760014916
2424750000.0 0.024752149332442536 -0.4248279056334712 0.10662425948089344 -0.018757286067556504 0.10592443861547199 -0.018187484466856724 0.016001045485929854 -0.4464712983538256
2425812000.0 0.021457846032554198 -0.4253017097465871 0.10626845620516805 -0.021823949893458844 0.1057038486340146 -0.021080292202053163 0.01683859519605981 -0.44411354663584207
2426875000.0 0.01835878363663631 -0.42554641527359416 0.10563128336625337 -0.024864706855902915 0.10550741215230983 -0.024227504982933627 0.015788346838228225 -0.4409545587563492
2427938000.0 0.015052057614444333 -0.42548165593030907 0.10503375680862309 -0.028026509065463383 0.10525146778850931 -0.02739081714688509 0.013523099657280232 -0.4369906088896085
2429000000.0 0.011938811662721644 -0.42539465525460773 0.1041359504163055 -0.03096316186696458 0.10463462040603394 -0.03058335025734123 0.010429987868456713 -0.4325744279746992
2430062000.0 0.008579402541211046 -0.4256047604928503 0.1032916196284901 -0.033722518768332974 0.10398396043797195 -0.033735953505210345 0.006929819795203395 -0.4280025766008062
2431125000.0 0.0052107420206067585 -0.42535497691795016 0.10226449530165067 -0.03667951447296879 0.10289484540965567 -0.0367883810435591 0.0012030033615202259 -0.4235868682725596
2432188000.0 0.0018217945536776838 -0.424983177727134 0.1011251639848709 -0.03923698063918858 0.10168812639614866 -0.03966810707358545 -0.005037673637468271 -0.41966109999816764
2433250000.0 -0.0015881217439452644 -0.42483123718772536 0.0996331316606506 -0.04185780328917242 0.10017197026229786 -0.04247244040484867 -0.012082052458610866 -0.4160300813943318
2434312000.0 -0.005101058184221193 -0.4244406174657355 0.09832761804369185 -0.0444889922472209 0.09869053274789906 -0.04501208831284182 -0.02003916288679264 -0.41333878742361074
2435375000.0 -0.008731761592699684 -0.4234428495762437 0.09686994271809514 -0.04682596077633916 0.09694361544073815 -0.04755835716172422 -0.028150225386743676 -0.41089680104285303
2436438000.0 -0.012452789713471253 -0.42303621471376673 0.09519556863477158 -0.049251968832824004 0.09518399964173438 -0.04997546557139757 -0.03654844738580309 -0.4101057943101354
2437500000.0 -0.01584084063853128 -0.42241889427876494 0.09375789475865144 -0.051635130538451555 0.093539185694774 -0.05235113019619216 -0.04473460886764671 -0.40981915097614074
2438562000.0 -0.01939875991696666 -0.4218090646852383 0.09206473529276085 -0.05410401233720628 0.09181121849043675 -0.05453682702651417 -0.05258770137823599 -0.41085797738546864
2439625000.0 -0.02275649214004687 -0.42101307859459525 0.09046180558240963 -0.056567813795007645 0.09010402542259571 -0.05702720374707191 -0.059688556789458586 -0.4119919148390363
2440688000.0 -0.026269159682342086 -0.4203994662528145 0.08874230874475782 -0.059012215835684924 0.088508925655671 -0.059244238935543106 -0.06562110326062598 -0.41455931386163264
2441750000.0 -0.02971714991737865 -0.4198008578380289 0.0870158245207688 -0.0615655605644324 0.08676561541988133 -0.06168408291909366 -0.07069291476215092 -0.4170158708093199
2442812000.0 -0.03339709287799839 -0.4192286842351166 0.08519829475723076 -0.06398452938679267 0.08491796464564416 -0.0641275950288326 -0.07471447969007795 -0.4199216797221308
2443875000.0 -0.03697464322795567 -0.41878513480182444 0.08325319432125597 -0.06653790179575969 0.08303061999162024 -0.06661769274923093 -0.07725054543900596 -0.422055633274782
2444938000.0 -0.040150046587864294 -0.41812633783170555 0.08120760125654437 -0.06881675950192058 0.08106791579574181 -0.06897693328062879 -0.07892995843039488 -0.42452725758417514
2446000000.0 -0.04384383577867144 -0.41747720859400617 0.07907135169863766 -0.07120650621171506 0.07892644530507577 -0.07141579025854648 -0.08019641825517491 -0.4252844304808343
2447062000.0 -0.04737249946073248 -0.4168999629403755 0.07675839169371367 -0.07351150166150887 0.07665728334736784 -0.07374863580678417 -0.08095065645140159 -0.42545906524704835
2448125000.0 -0.05077399630561453 -0.416687027135897 0.07443657826650744 -0.0759091441783039 0.07433464851926026 -0.0760234104069714 -0.08238360244640767 -0.42439569893802787
2449188000.0 -0.05401091957176577 -0.41631103839316747 0.07207649200747579 -0.07819607482536733 0.07201828065948603 -0.07832489988721458 -0.08360613073832683 -0.4222395246581391
2450250000.0 -0.0571397200775251 -0.41582387446785357 0.06969165630102894 -0.08023912530527687 0.06969757256254623 -0.08036795595202363 -0.08466757296321382 -0.4209179269323933
2451312000.0 -0.0604269943920017 -0.41516357938843174 0.06724102578898855 -0.08244337909120181 0.06728635442466974 -0.0823979000067433 -0.08733644749214066 -0.4183579626067049
2452375000.0 -0.06326607868712437 -0.41479468850399204 0.06477152156129265 -0.08434322920512552 0.06487804037969475 -0.08446708630484001 -0.08995413085512396 -0.4153841363000518
2453438000.0 -0.06631694964124014 -0.4146025540932849 0.06239268504565851 -0.08612587968290267 0.06243818550769831 -0.08638646150488179 -0.09392957822860853 -0.4123674577559705
2454500000.0 -0.06898925753307694 -0.4140591439114018 0.06006572805436732 -0.08785000724529626 0.060111125133195116 -0.08817776019109526 -0.09800765204473805 -0.4100453376643558
2455562000.0 -0.07174538276819493 -0.4134199637750521 0.05758978684765463 -0.089388917573252 0.05767247328841041 -0.08984490411296413 -0.10180956657237399 -0.407728782321458
2456625000.0 -0.07437821518799143 -0.4131406960153885 0.05532739308936483 -0.0908459107410701 0.055189273561337605 -0.09135926276782451 -0.10609921586311748 -0.4060810655582048
2457688000.0 -0.07702868403322377 -0.4124613370770287 0.05269436080832298 -0.09227512603682098 0.05260537599625785 -0.09278132543024974 -0.11156587082392172 -0.40425390131733224
2458750000.0 -0.07971501238683035 -0.4118166280716973 0.050233490079821405 -0.09346824957015475 0.049890320289406376 -0.09412701597968941 -0.11629935741213789 -0.40337393927604753
2459812000.0 -0.08200066847533663 -0.41106393427606625 0.0475874167876494 -0.094918396170675 0.04728399064594752 -0.09537565437993692 -0.12151114483664908 -0.40310530634735714
2460875000.0 -0.08480205388346254 -0.41034139023174654 0.045022608612007804 -0.09613190882827014 0.0445513853876387 -0.09659499939086204 -0.12639974353792593 -0.40385288684186715
2461938000.0 -0.08715278443566914 -0.4093940908315586 0.042221883133532104 -0.09753206673265846 0.04187405704280948 -0.09780184253130078 -0.13127208328760362 -0.40540086650604185
2463000000.0 -0.08973700964741999 -0.40883948720872243 0.039552082589859414 -0.09876427383020696 0.03917450987348157 -0.09887856074944798 -0.13479544226131546 -0.4071131042244781
2464062000.0 -0.09228190660359839 -0.4077628944759542 0.03678805632803949 -0.09976983195002893 0.036450053486471415 -0.0998624280521156 -0.13749976295322786 -0.41019648583573937
2465125000.0 -0.09507151767979852 -0.4065357284498876 0.03372458121354553 -0.10096504523931277 0.033467250217366025 -0.10079247884046243 -0.13928946088813257 -0.4117079226764173
2466188000.0 -0.09740216344394492 -0.40627226568355274 0.03067049830511361 -0.10187868144603776 0.030543746498255944 -0.10176898284753756 -0.1409063879874771 -0.41393583620239216
2467250000.0 -0.09979513141790376 -0.40564221426826413 0.027755474139049285 -0.1027304785307855 0.027616235640362485 -0.10276234754140742 -0.14089480180325498 -0.4153001465820882
2468312000.0 -0.10236126595920089 -0.40472249416440237 0.024427835498416907 -0.10334135915898399 0.024531003294326278 -0.10348951271019173 -0.14040805399175504 -0.4161620507649027
2469375000.0 -0.10494121006313722 -0.4040461499125424 0.02113220603004726 -0.10392845835071263 0.021272682509801924 -0.10417108618707668 -0.1392728959158619 -0.41594298273589686
2470438000.0 -0.10741416060762439 -0.4037040234294455 0.01794129401343799 -0.10442212164832938 0.018036728191024975 -0.10484545611842407 -0.13858451229000673 -0.4143283926258109
2471500000.0 -0.11018570986175201 -0.4030639490115988 0.014707816039973934 -0.10483388665148131 0.014698577002799739 -0.10523293795053862 -0.13766711973944845 -0.412184353861698
2472562000.0 -0.11274136363649266 -0.40244426804355293 0.011464495353232147 -0.10504319242935944 0.01126969561779515 -0.1056085341831138 -0.13707893729275503 -0.4082595422685679
2473625000.0 -0.11533510342511555 -0.4020548465910024 0.008278110984383276 -0.10510807871528714 0.00794170628876045 -0.10582704086428307 -0.13727224930644005 -0.4039241778067969
2474688000.0 -0.11792382772689199 -0.40144722862836085 0.005297734202338404 -0.10515987541804947 0.004763425240917891 -0.10587555504863387 -0.13853530248328633 -0.39926618894996535
2475750000.0 -0.12090247091589622 -0.4007718836127736 0.002188322313898723 -0.10525499367200361 0.0014921852767858525 -0.10585240011577672 -0.13959820022664782 -0.39458310165991667
2476812000.0 -0.12302360163701175 -0.40008140329100395 -0.0006250860712962574 -0.10530979472267397 -0.0014865339195850539 -0.10557836021435052 -0.1425729165277367 -0.3899090039157565
2477875000.0 -0.12543530729419908 -0.3996891485848702 -0.0036048348827076395 -0.10516109325963757 -0.004407656041503112 -0.10530896182660854 -0.14574368934027698 -0.38474689767389175
2478938000.0 -0.12800123554055864 -0.399406184114862 -0.0065827992697239605 -0.10504763873261798 -0.00737878408823797 -0.10507233841263822 -0.14984114044571922 -0.38048208612352086
2480000000.0 -0.1301897368315914 -0.39888399996678375 -0.009325032949799647 -0.10483020205635506 -0.010260280323899447 -0.10475227945618443 -0.15457012902328657 -0.37667834625901886
2481062000.0 -0.13283892881205175 -0.39883403572631193 -0.012403646228209213 -0.10461143521839489 -0.013071171105166755 -0.10457430656026408 -0.1598245752996844 -0.37320069937883127
2482125000.0 -0.13491837092626882 -0.39852859884606684 -0.015416094635422355 -0.10431750290546118 -0.015866475635811488 -0.10413035810481695 -0.16593276737043666 -0.37129163754641975
2483188000.0 -0.13724740754010145 -0.39849548589948464 -0.018462206242943955 -0.10409573553514478 -0.018711031054745118 -0.10380065554207649 -0.17198718156566678 -0.36986743644684716
2484250000.0 -0.1393677607523848 -0.3978943508304469 -0.021259973086106845 -0.10345288991332467 -0.021731208813064905 -0.10329713150425346 -0.17726814277293482 -0.3694810465193814
2485312000.0 -0.14151457022934916 -0.39786134967346526 -0.02455343757645534 -0.10281067447838241 -0.024738984339302657 -0.10279905546747654 -0.18318610104080774 -0.3701683402911762
2486375000.0 -0.14367706431503258 -0.3973737555787171 -0.027640934751270014 -0.10216464424412303 -0.027786513884255876 -0.1021183654004703 -0.1880089590402998 -0.3715812903819994
2487438000.0 -0.1459229980935239 -0.3969870852620826 -0.03065610354330607 -0.10124898345646541 -0.030857376400067756 -0.10127693565189552 -0.19177017469136787 -0.37423696335466566
2488500000.0 -0.1480683869318622 -0.3964759844251642 -0.0335701348195011 -0.10011393960087145 -0.03402339085362942 -0.10019677116087587 -0.19467653579716143 -0.37621158221085843
2489562000.0 -0.14997433261111964 -0.39576862503372917 -0.03672496024144315 -0.09878525813628934 -0.03688442985848374 -0.09899781756966904 -0.19667394814897418 -0.3783231856465702
2490625000.0 -0.15245509170156146 -0.39524711542032215 -0.03946817895128685 -0.09740754226937554 -0.03994044308607706 -0.09749365790024736 -0.19770982011455895 -0.37980079298539526
2491688000.0 -0.15463937685235413 -0.39437353414690574 -0.042300235656410654 -0.09606666821267129 -0.04273856333542114 -0.09602100871243541 -0.19801294409911668 -0.38061864651664723
2492750000.0 -0.1568833660849232 -0.39348831405024703 -0.04498696460428535 -0.09445035716824207 -0.045414008762012834 -0.09436755411819409 -0.19775049867934474 -0.38076826997741914
2493812000.0 -0.15906035044835737 -0.39288933309107027 -0.047549898149001686 -0.09289314383354326 -0.047903466177400995 -0.09281520106090031 -0.19733126110191018 -0.3798075184424396
2494875000.0 -0.16152683149596248 -0.3921776843401037 -0.05002761340715224 -0.09116782255304834 -0.05034064691350418 -0.09116828294518449 -0.19714971484558572 -0.37796971258908274
2495938000.0 -0.1637570403687432 -0.39156065305829146 -0.052509536451691693 -0.08960108311428955 -0.05257684320879188 -0.08963112840654715 -0.19699827751189194 -0.37539264369014014
2497000000.0 -0.1661666049021499 -0.3906322830150304 -0.05479133659170468 -0.0879025382302768 -0.05487243911895062 -0.08813794914599503 -0.19744374179052593 -0.37204939247521074
2498062000.0 -0.1685232360588392 -0.39005678236118657 -0.05705015360774582 -0.08631305566188432 -0.05727329101486143 -0.08657873641084013 -0.1986043321740099 -0.3678583093655762
2499125000.0 -0.17090603123502382 -0.38949476528864596 -0.059315693352926205 -0.08454818242847377 -0.05957573077220708 -0.0849863762761968 -0.20047030744037853 -0.3633411043159902
2500188000.0 -0.17363819845862866 -0.38866356476630487 -0.06154771503495503 -0.0830449791488369 -0.06199103886008704 -0.083274929151645 -0.2035722768003505 -0.3589347322015464
2501250000.0 -0.17632043969025055 -0.3882960559057958 -0.06365646806866476 -0.0814042408831554 -0.06453521597559207 -0.08170403732202797 -0.20763580642731558 -0.354829848419641
2502312000.0 -0.17913357911810998 -0.3875620504553714 -0.06584012637848857 -0.07963394388976398 -0.06696307918096428 -0.0798399915968999 -0.2124619973131812 -0.35129868200491265
2503375000.0 -0.18137509409026067 -0.3868484776166798 -0.06802921216927116 -0.07780263728201338 -0.0692124553885529 -0.07786600969476522 -0.21831368545486587 -0.3488379985902423
2504438000.0 -0.18386283796595318 -0.38613811862962566 -0.07035373681336748 -0.07594654410660467 -0.07148670780735017 -0.07566733439354281 -0.22462823959119485 -0.3471204620215578
2505500000.0 -0.18639978463781845 -0.38544616683767996 -0.07253447173808476 -0.07398180822958696 -0.07356445569791391 -0.07330205611693692 -0.2307712359455198 -0.34686663278081825
2506562000.0 -0.1888555818783046 -0.38453906893492096 -0.07453638765021436 -0.0717894338083977 -0.07549279311784636 -0.07096412551802327 -0.2366816509641751 -0.3477803359373106
2507625000.0 -0.19129792012013724 -0.38371151210599685 -0.07662339978023497 -0.06959100743540104 -0.07722005972406674 -0.06845073185539567 -0.2422820267922075 -0.3495693624326022
2508688000.0 -0.19388693781750238 -0.3828636057743095 -0.07852497557462336 -0.06717646371135332 -0.07887348693032518 -0.06592272667424683 -0.24652909996013367 -0.3522952028687015
2509750000.0 -0.19625120432949403 -0.38194918906738523 -0.08043859254243144 -0.06458141147496425 -0.0803722896213013 -0.06353918304444234 -0.25002987723177666 -0.35572561915508516
2510812000.0 -0.19927203669049623 -0.381253873830139 -0.08235794224861244 -0.06210038111816389 -0.08182994654791081 -0.061142840375088575 -0.2525098417308531 -0.35940534614776115
2511875000.0 -0.20135536564172998 -0.38039750805252565 -0.08396756962807343 -0.0595258605179167 -0.08322797214226813 -0.058800285770256505 -0.2541408435729771 -0.3628146317096816
2512938000.0 -0.20425325665831637 -0.37956292809240544 -0.08543724142776007 -0.056826474311789645 -0.0845840621210226 -0.056571689825066024 -0.25386817419866264 -0.3651471562636903
2514000000.0 -0.20696323841571732 -0.378431098160024 -0.0869112810930954 -0.05412734895232877 -0.08617487899284941 -0.054361915287446105 -0.25342418376758347 -0.36768412799320094
2515062000.0 -0.20966754857745878 -0.37754205420790204 -0.08813754547137606 -0.05155423102066243 -0.08764143302225898 -0.052060064927103154 -0.2520920042424873 -0.36925749686251697
2516125000.0 -0.21208133222377928 -0.3764290882933492 -0.08940004985909265 -0.04890285123273241 -0.08916717159798819 -0.049675201601700865 -0.25042704461175014 -0.3692567661675028
2517188000.0 -0.21492376879586594 -0.37510012394331027 -0.09052490803529409 -0.04605838420880375 -0.0906478610201286 -0.047201170940582904 -0.24790160616217438 -0.36837635929150153
2518250000.0 -0.21731243918316234 -0.3740729806445652 -0.09154656880508709 -0.04350493128373966 -0.09206221912091889 -0.04467031478170989 -0.24652265105515908 -0.3660395100481565
2519312000.0 -0.22007293627976277 -0.3728422170841141 -0.0925681042976208 -0.040838539984941614 -0.09349313906693556 -0.04184294277975797 -0.24519580845937453 -0.36278210214101836
2520375000.0 -0.2228245456617172 -0.37147558123659635 -0.09342607157268856 -0.03825083533238336 -0.09481974371846995 -0.03894295703570024 -0.24472183318052362 -0.3586515859833209
2521438000.0 -0.22530537712886126 -0.36995900738531856 -0.09425373447230048 -0.03580308176270656 -0.09592661321608408 -0.03585547050224174 -0.24511389840431314 -0.35402623807212136
2522500000.0 -0.22816262275203417 -0.3685984082745219 -0.09506707436127299 -0.033281712041934274 -0.09673876909823513 -0.032825311148781525 -0.24649387327264144 -0.348639445022256
2523562000.0 -0.23059690765115567 -0.3671415338930617 -0.0958896408747894 -0.03079757970204855 -0.09749098784059199 -0.02989058924047151 -0.2496868067054853 -0.3437316298464358
2524625000.0 -0.2334064781387066 -0.3657530703161917 -0.09677166887966522 -0.028181120660587384 -0.09798421333293098 -0.02685698216573346 -0.25360792199281723 -0.338762444899494
2525688000.0 -0.23623311115334467 -0.36393028108219866 -0.09759629729348862 -0.025607138113581736 -0.09833740106085825 -0.0238719246109116 -0.2591926233093023 -0.3346838290038497
2526750000.0 -0.23920814347888325 -0.3626560609933123 -0.09834941424156109 -0.023003915029173167 -0.09864348184375356 -0.021191489275221236 -0.264890858566872 -0.3320924976356409
2527812000.0 -0.2421325831707204 -0.36117479258238383 -0.09909910243977103 -0.020160390670343836 -0.0989244991645398 -0.01849753134457168 -0.27122964979649833 -0.33057907649857404
2528875000.0 -0.24511222568066907 -0.3595534007479113 -0.09988403396518705 -0.017275923392179728 -0.09922761143835424 -0.015917530641280677 -0.27711904019201095 -0.33026758283781416
2529938000.0 -0.2483534573347146 -0.3581584093245236 -0.10053942048802736 -0.014469668460983996 -0.09963704022186017 -0.01344323746205199 -0.28314979405530644 -0.3314478582908002
2531000000.0 -0.2513853446898873 -0.35671034107471267 -0.10105004909655718 -0.01142562536615022 -0.10003233182299186 -0.010871742538092874 -0.2881570912098091 -0.3335642358678926
2532062000.0 -0.25465532669862856 -0.3552832468698635 -0.10146166101545878 -0.008304285512456525 -0.10044245537952745 -0.008285321374170873 -0.2922587698136328 -0.33640064743010506
2533125000.0 -0.25753693908474407 -0.3539245819729779 -0.10178597598535666 -0.005423370322042599 -0.10089076575956948 -0.00567082406877566 -0.2955843505987228 -0.33919563931306534
2534188000.0 -0.2607648521421815 -0.3522303645527717 -0.10184997276720707 -0.002185138093850508 -0.10143301091287409 -0.002748803843171617 -0.2977890629344373 -0.3427231597876014
2535250000.0 -0.2637200624480704 -0.3507683807803069 -0.10183330680142369 0.0007940461265466657 -0.10175521012729244 0.00015930715221606183 -0.29907856762399476 -0.3452544797020467
2536312000.0 -0.2665830230781663 -0.3492205244939316 -0.10173563513371216 0.0038968049236415923 -0.10188358299720875 0.003155015348638285 -0.2989627138526249 -0.34705360264972157
2537375000.0 -0.2693118755589968 -0.34765632642284283 -0.10133339722196213 0.006752368500097311 -0.10191915741030598 0.006264339951540352 -0.2984420461732461 -0.3484518647962449
2538438000.0 -0.2720481245257518 -0.34604684991903817 -0.10079293868555056 0.00963577905314957 -0.10166527873092437 0.00936931186692044 -0.29692118279800267 -0.34863598491422
2539500000.0 -0.2750733064842303 -0.3442449598619165 -0.10022922309303149 0.012684490303432985 -0.10133960009550806 0.012515515758592126 -0.2958461906794408 -0.34709832845922306
2540562000.0 -0.2778982838646203 -0.342683088584163 -0.09963580408168908 0.01529378102775391 -0.10073529463285716 0.015558163719096105 -0.29473452869713895 -0.34452688230332484
2541625000.0 -0.2805403883711759 -0.34075137217943546 -0.09894900107866218 0.018042732131878046 -0.1000159042622157 0.018564158709768085 -0.2936049200285935 -0.3406984214290525
2542688000.0 -0.2834885682981555 -0.3392281267625642 -0.09844681496609996 0.02067164860183943 -0.09916988882429197 0.02137441874750095 -0.29321742277019774 -0.3355795616832555
2543750000.0 -0.2859608783115089 -0.33751347033229684 -0.09765498326026203 0.023136063347723546 -0.09807210524311522 0.02405169574382512 -0.29368828891072435 -0.3299642881279318
2544812000.0 -0.2888180877788753 -0.3355349583461557 -0.0968783793307274 0.025624943467518833 -0.09717471853710388 0.026783943383101708 -0.2950934674002018 -0.322821607604623
2545875000.0 -0.29148679639738767 -0.3333500562080787 -0.09600022845680521 0.028163293184663218 -0.09602876720358043 0.02926615291994637 -0.2981091249476455 -0.3169851332917114
2546938000.0 -0.29411859008558894 -0.33150015398160565 -0.09522438668126525 0.03068034779997596 -0.09500002242147122 0.031761264588196045 -0.30137259637422736 -0.31026103995946464
2548000000.0 -0.29708182239177555 -0.329444978454814 -0.09438459220987185 0.03323059410842305 -0.09394968698595428 0.034211436500614714 -0.30596108611082545 -0.30510248807269236
2549062000.0 -0.29971842526019354 -0.3271257995163209 -0.09337435170473164 0.03588486985193516 -0.09280131753332226 0.0365978950730308 -0.31160045399405045 -0.2993585033141054
2550125000.0 -0.302406993260665 -0.3250815012362845 -0.09221883746821527 0.038627063285969016 -0.09168089352668772 0.03907858758936357 -0.31727317752614037 -0.2958695535078557
2551188000.0 -0.3052309354498196 -0.3225864514161996 -0.0910328132693233 0.041287838217350915 -0.09040833411122998 0.04163913304165903 -0.3228771321169933 -0.29289305098789714
2552250000.0 -0.30812941023005896 -0.3205448984667784 -0.089686597184751 0.043999605558989865 -0.08926183378029684 0.044113982546158365 -0.32900788495304417 -0.29159122454131625
2553312000.0 -0.31069007191134684 -0.3180888153273257 -0.08815665493518493 0.04658123969987496 -0.08787369031403044 0.046578202029281646 -0.33444105648748756 -0.2905932235621559
2554375000.0 -0.3133323336256833 -0.31572962755532796 -0.08676751496858774 0.04906676049501719 -0.08646937902790107 0.049083719449397885 -0.33905155162918693 -0.29147868395293375
2555438000.0 -0.31621638344250025 -0.3133899863594381 -0.08513488937026492 0.05177801526737823 -0.0850067489596063 0.05155985904497876 -0.3432731555782929 -0.2926904099420317
2556500000.0 -0.31888179536665534 -0.31114466539285074 -0.083585530533133 0.054134526903012785 -0.08340874377882472 0.05400175542583502 -0.34544712908498765 -0.294320688459329
2557562000.0 -0.321833678175486 -0.3085609958466385 -0.08168766085290531 0.056271879782098945 -0.0817129810106131 0.05627208264988623 -0.3468425008387644 -0.29527640651186354
2558625000.0 -0.3246821922787251 -0.30634914360737225 -0.07987059145683433 0.05845846523445073 -0.08008788030171837 0.058574554133435264 -0.34718006440308524 -0.29669312189261837
2559688000.0 -0.3274964753404248 -0.30426751348575537 -0.07805567696190047 0.06062039637628469 -0.07829582547268354 0.06082796621648184 -0.34662213627070076 -0.2967783201890877
2560750000.0 -0.33031980381060466 -0.30213108305418696 -0.07614197997629145 0.06257040219657457 -0.07646123709809928 0.06292848638180584 -0.3460931063110144 -0.2960834582817276
2561812000.0 -0.33320074043567127 -0.29996160952923445 -0.07428447677118022 0.06465934426101003 -0.07455333245208129 0.06506049195478905 -0.3450412967182932 -0.2949545826565569
2562875000.0 -0.3357296141568592 -0.2975722045737902 -0.07254344176756872 0.06668292418100417 -0.07266387027402549 0.06701876561018971 -0.3439416965163924 -0.292391201158199
2563938000.0 -0.3385265773470981 -0.29552264338658984 -0.07076412668028761 0.06863779828783956 -0.07072920378306397 0.06914132628154793 -0.34303605700238127 -0.288481870311302
2565000000.0 -0.341123253337718 -0.29338025831440906 -0.06896236369007235 0.07051564960987579 -0.06881489284324135 0.07103103127256638 -0.34214152706569173 -0.28488053996938717
2566062000.0 -0.343667118355899 -0.2915634203083776 -0.06701978182169177 0.07232956125077399 -0.0668942211822261 0.07293159262625899 -0.3421095232718919 -0.28031938128093314
2567125000.0 -0.3462749558880782 -0.2891392385472241 -0.06520554357266405 0.0741707370074526 -0.06483351392626933 0.07466600104279678 -0.3423869387170218 -0.27512038488983176
2568188000.0 -0.3485043504310552 -0.2869930015530868 -0.06315688709360057 0.07597470889746988 -0.06276421675623098 0.07641418574057479 -0.3434477152529555 -0.2690861514658946
2569250000.0 -0.35060563145526247 -0.2849552116479777 -0.061168477304492874 0.07751024060624094 -0.060772817230875166 0.07784893403785625 -0.3449101035473202 -0.26389573074577255
2570312000.0 -0.3525748079607274 -0.28237503425190486 -0.05891102371065962 0.07910313518436132 -0.05852209373898548 0.07928801491158348 -0.34748460007541876 -0.2578214499861535
2571375000.0 -0.35481841610068854 -0.2803972053590521 -0.05659669578136301 0.08054917760731148 -0.056325845495875555 0.0807725478282017 -0.3505541283891006 -0.2520393747078288
2572438000.0 -0.35665569581940076 -0.2776891324997216 -0.05424293558701646 0.0821520198009733 -0.0539678370871904 0.08217040619358189 -0.3553501299796216 -0.24694706117926976
2573500000.0 -0.35878205283784154 -0.2752501268679735 -0.05194210674330331 0.08358300976668263 -0.05178087126700825 0.08351118318735402 -0.3597519768612521 -0.24292921994483413
2574562000.0 -0.36056299099892825 -0.2730370150010527 -0.04948315789686534 0.08475748917368665 -0.049498691618742784 0.08483341965159771 -0.3650447898542219 -0.23955410473804184
2575625000.0 -0.3623804371663597 -0.27020407172428906 -0.04700711387160975 0.08596010112886825 -0.04721495404607629 0.08607814947464841 -0.37009705024022327 -0.23756966561946546
2576688000.0 -0.3641303434420779 -0.26754471153141846 -0.04457446746649962 0.08722075118309758 -0.044786893572057535 0.08732631319503834 -0.3745710321979314 -0.23655048614302493
2577750000.0 -0.3659659802497397 -0.26479979864129305 -0.042158162366699406 0.08808111560826994 -0.042379931569989496 0.08852743711618376 -0.3783489749459862 -0.23613510486557218
2578812000.0 -0.36751073401883444 -0.26177020352211894 -0.03974355454447296 0.08900607166556633 -0.03980902282929198 0.08963139144161059 -0.38103403165157046 -0.23635973346913988
2579875000.0 -0.36931797526300036 -0.2592606625494517 -0.03730467759058788 0.08994592390045852 -0.03719694117768899 0.09060620079494622 -0.38315289937438646 -0.23602794188811885
2580938000.0 -0.3709757608187056 -0.2563256904945166 -0.034771082342418415 0.09087235272932295 -0.03454481222398595 0.09140082536264396 -0.3836687300973665 -0.23610921379984628
2582000000.0 -0.3725487390427963 -0.25347885922251595 -0.03235926774703511 0.09170000566911395 -0.03181533419359353 0.09227372254456224 -0.38352316663526076 -0.23476550929003706
2583062000.0 -0.3742220441225884 -0.2507815692552206 -0.029705549114906398 0.09245815037686314 -0.02906910285234426 0.09300762676353296 -0.383411800346737 -0.23261746771690858
2584125000.0 -0.37578227039656104 -0.24812818006750278 -0.027116491263537348 0.09325995657142058 -0.026384654294853715 0.09362712214942127 -0.38227156017612096 -0.23068607854035858
2585188000.0 -0.37772357262766987 -0.24523635672811686 -0.02438517992756995 0.09406780668837489 -0.023763189911337874 0.09425767633624757 -0.38069829242190306 -0.22755895202994192
2586250000.0 -0.3795226908134737 -0.24221188474667965 -0.02166320911176028 0.09491873936787752 -0.021084927579222652 0.09494334117388473 -0.380249562532998 -0.2237035953982006
2587312000.0 -0.3809864408283888 -0.23929860081725157 -0.019013900218243503 0.09564790751703654 -0.018450655182143328 0.09550546948050423 -0.3796746714849853 -0.21958788582576855
2588375000.0 -0.3826453141909637 -0.236162852269159 -0.016193562331378804 0.09617747528248122 -0.01589747560921873 0.09594803085634372 -0.37862767335089137 -0.21440540339139302
2589438000.0 -0.384288984004062 -0.2333461497561075 -0.01337523482949406 0.09673450543292224 -0.013158390403960213 0.0963755046563898 -0.37838269638647765 -0.2087222684587346
2590500000.0 -0.3858819218146676 -0.23045521731896337 -0.01055571585663385 0.09709042875044065 -0.010592236001000663 0.09683344254284652 -0.3792933549535895 -0.20246032050029944
2591562000.0 -0.38732745598390667 -0.22723113642539128 -0.007735440515470271 0.09721876241827554 -0.007898870056439838 0.09707833607773783 -0.3806140810139445 -0.1960015706490043
2592625000.0 -0.3889791918200811 -0.22454760823164513 -0.004913213353737811 0.09744005285313898 -0.005125959477824666 0.09750052908203892 -0.3832507617857533 -0.18990241750777756
2593688000.0 -0.39023065814765434 -0.2217357899757057 -0.002133650322915151 0.0973598717161945 -0.002348100147416279 0.0976723364843229 -0.3866451710147406 -0.18362751473730174
2594750000.0 -0.39173316066598957 -0.21896993759072095 0.0006417225586171399 0.09733112961950928 0.0005006802334033143 0.09775230798621486 -0.39116475560671093 -0.1781986506728933
2595812000.0 -0.39316261845451217 -0.21650231429996847 0.0032217326213224077 0.09700683296944684 0.003164243530483452 0.09782745514534232 -0.3962887100815946 -0.17381954573401545
2596875000.0 -0.39416909059666344 -0.21381336579718357 0.005746483678535334 0.09687472403896732 0.0059478900602944465 0.09762669809132948 -0.401966407520393 -0.17070571806633011
2597938000.0 -0.3953537345747694 -0.21104953770472704 0.008313390110450167 0.09659619266232645 0.00878808594489524 0.09725216249607754 -0.40718237319263134 -0.16855998519462947
2599000000.0 -0.396170074560415 -0.20844008595638944 0.010940578167542002 0.09623349168927615 0.011517698223855254 0.09689123179106693 -0.41252003813599447 -0.16721565517713516
2600062000.0 -0.3974065420527496 -0.20553594276490683 0.013503931674664259 0.09572069570435976 0.014184884985067127 0.09621680580034954 -0.4169630928448226 -0.16676208478717566
2601125000.0 -0.39791385636593585 -0.20297580627525685 0.01587302466770755 0.09528339503856004 0.01672108318606313 0.09564828280077475 -0.4206979885278105 -0.16795960736058216
2602188000.0 -0.39887587332330127 -0.1998610760855746 0.018369702594331995 0.09481941096015614 0.019341386353382724 0.09479382380102608 -0.42312461017065767 -0.1682917358015924
2603250000.0 -0.3991919440478227 -0.19730247194509168 0.02090055907475818 0.09433180163017307 0.021893681008378334 0.09415950238551592 -0.4251678044098273 -0.16961841355165294
2604312000.0 -0.3998904023761949 -0.19410347964894867 0.02365357706721908 0.09376053474640639 0.02441231480145207 0.0934123563611195 -0.4257947955891011 -0.17048558773985734
2605375000.0 -0.4006632821301927 -0.1910978226358299 0.026273887673842252 0.09323807708468801 0.026912638275474608 0.09276032585393755 -0.42537734200968935 -0.1711204294327505
2606438000.0 -0.4010092043680312 -0.18804633881333768 0.028843304385379496 0.0926352206723812 0.029332755557703677 0.0920104748263046 -0.4244948618260373 -0.17121952835461873
2607500000.0 -0.40156204123974687 -0.18469459249815778 0.03162014159224706 0.09172072868778144 0.03193916953057376 0.0913859345879957 -0.422729249354881 -0.17085021059431296
2608562000.0 -0.4020446169853333 -0.18186211547438788 0.034400419109112526 0.09104750941091413 0.03449006348418777 0.09060907533442102 -0.42037367740048887 -0.16950948030612284
2609625000.0 -0.4024935275325147 -0.17857225663694212 0.036988868444107335 0.089933344409867 0.03701190761243552 0.08970833295415577 -0.4176893670301081 -0.16736558423385137
2610688000.0 -0.4030875589868064 -0.17557260784287262 0.039669262424102736 0.08884878494811126 0.039658438798467296 0.08882623117909734 -0.41483968184499337 -0.1639050112310649
2611750000.0 -0.4035825296421351 -0.17258168421958672 0.04224975925605666 0.08769554532109763 0.042383366502139114 0.08772248769831666 -0.4128805135309227 -0.1597923980560169
2612812000.0 -0.4043294115732709 -0.1694038906055412 0.04490603392286191 0.08643132960380852 0.04490090877934579 0.08646106492208051 -0.41091751075034993 -0.15480605273823764
2613875000.0 -0.4050736368459012 -0.166455350001665 0.04730282380763282 0.08509000694023172 0.047476367187412084 0.08505898333352048 -0.4098544920804058 -0.14916274630132534
2614938000.0 -0.4056121360000875 -0.1634112731398376 0.04967777507915364 0.08376419263644509 0.04977107351904352 0.08358797631047304 -0.41077138388296824 -0.14313704155161186
2616000000.0 -0.4063257972905852 -0.16030921343008994 0.05190975508553286 0.08217135575885078 0.0522321361089212 0.0821819686513458 -0.41193786014903905 -0.13769844566560052
2617062000.0 -0.4068091721503507 -0.15713263512375059 0.054084028087835884 0.08056389339820919 0.054340665561750816 0.08052590251242345 -0.41435001223883716 -0.13281602608922213
2618125000.0 -0.40734301582296184 -0.15411660271798847 0.05612008236967538 0.078916968732856 0.0563339279062926 0.0789211172420548 -0.4171080132549177 -0.12846539780488123
2619188000.0 -0.4076829936222156 -0.15090808507089648 0.057909931646555356 0.07713363815862358 0.05822172930564276 0.0772508401799888 -0.4201182970578901 -0.12515840053658714
2620250000.0 -0.40817129470753605 -0.14795554934253177 0.05997202132371935 0.0754907479055337 0.05992283819397272 0.0756246005167171 -0.423449630791108 -0.12246521472146085
2621312000.0 -0.40875316512341325 -0.14477153171648802 0.061657013265337915 0.07376409006941581 0.06187336633112256 0.07397088291085446 -0.4268649357844235 -0.1207820826943077
2622375000.0 -0.4094440823411862 -0.1415608628831919 0.06355463706027314 0.07208014626937265 0.06378877757452107 0.07226222580064717 -0.42951904356706194 -0.12040877303084785
2623438000.0 -0.41001375286529074 -0.13905191278719153 0.06529390391942085 0.07016578726647665 0.06573353869669565 0.07047854441124629 -0.4318603817289148 -0.11983846577780735
2624500000.0 -0.41066998159496726 -0.13628537585597936 0.06711770733026746 0.06855965345924081 0.0676555078882595 0.0687036523374965 -0.43422155016380415 -0.12022357123913913
2625562000.0 -0.410987353611015 -0.1336347806744022 0.06897130468840493 0.06664690896573221 0.06966057120257396 0.0667056742325031 -0.4350978157902521 -0.12084311672361361
2626625000.0 -0.41161821572792373 -0.13077012856917017 0.07083808261645973 0.06478004508899399 0.07162752897177703 0.06483505393902178 -0.43501935524995655 -0.1219527684852041
2627688000.0 -0.4123012732458365 -0.12823805296200796 0.0727334238939283 0.06282148125658955 0.07357072280641457 0.06274652828635391 -0.4338585997810313 -0.12229117538604678
2628750000.0 -0.41260341833092434 -0.12552559046328932 0.07465694587615786 0.06094657330774289 0.07544322415622605 0.06053038899450646 -0.4314986894992677 -0.12272800710439008
2629812000.0 -0.41317708324705427 -0.12294093710951672 0.07650363634286375 0.05888623764131901 0.07723405749256872 0.05839160654387304 -0.42851814430689705 -0.12224177995936371
2630875000.0 -0.41340820449220983 -0.12046101778505802 0.07818154498353962 0.05680625169700673 0.07877394444436833 0.05610660159281953 -0.42489909294990286 -0.1207545412065372
2631938000.0 -0.4138320410406068 -0.11768287268390125 0.08002331947543735 0.054492937872331906 0.08041287243800374 0.05374565534299588 -0.42116364214716084 -0.11760992365308179
2633000000.0 -0.4140165222939086 -0.11503004557908998 0.08171913029776233 0.052176887494087366 0.08176357942793476 0.05146229759733736 -0.4173445886387644 -0.1133770125946368
2634062000.0 -0.41409019317913887 -0.11216766878799293 0.08326304248314065 0.049789631159968914 0.08317458860397825 0.049060445669396734 -0.4141852263875009 -0.10776029879878836
2635125000.0 -0.41418696352763146 -0.10945941391751329 0.08484296436506467 0.047326017472162016 0.08451918411923441 0.04681883623014776 -0.41213963732122055 -0.1011251476938141
2636188000.0 -0.4144527172048703 -0.10660580100819994 0.08632534994619753 0.04493795249955603 0.08577787518652227 0.04456973468644454 -0.4114407758460953 -0.09455535879317255
2637250000.0 -0.414758868413212 -0.10373515595030648 0.0875291639676341 0.0425286325141587 0.08719771261640016 0.04234539607543251 -0.4117438763407622 -0.08754801810138844
2638312000.0 -0.41461692047610027 -0.10118541387869456 0.08860377686780051 0.04008255940363042 0.08831913931532329 0.04013150581020124 -0.4127607766998174 -0.08083511579301404
2639375000.0 -0.415228914645078 -0.09807359099489563 0.08978649801829851 0.0375374514360275 0.08962965292182641 0.03791997333509255 -0.4159650821691271 -0.07451281447034737
2640438000.0 -0.41590410536008793 -0.0951270170882756 0.0907804134894362 0.03529559811807913 0.09083994989964209 0.035606770692861875 -0.4191885520081798 -0.06896192705169896
2641500000.0 -0.4167038734317069 -0.09241310939528921 0.09164766445886091 0.032749938787733295 0.0919171487745755 0.033271565256350465 -0.42343659877355727 -0.06433574138123543
2642562000.0 -0.41752190343440637 -0.08953422699890594 0.09256239517662807 0.030348336471901365 0.09295564670406893 0.03082360824997984 -0.428268208397767 -0.061128340817808394
2643625000.0 -0.4180786232249877 -0.08691269525756877 0.09320776460246603 0.027898594027946057 0.09389253964758923 0.028256813809100643 -0.43286925828163036 -0.05821165133487811
2644688000.0 -0.418740796738462 -0.08424240962153193 0.09390508709534236 0.02531002205589267 0.0947382352950323 0.025500999617069874 -0.43751350998993815 -0.05656060844107761
2645750000.0 -0.419425622441221 -0.08157674886146428 0.09440877306075685 0.022989574495230952 0.0954710780893825 0.022681150636565044 -0.44154658223454546 -0.05593625113194808
2646812000.0 -0.4200772108752799 -0.07896226092832331 0.09517933555815834 0.020238893455434014 0.0960443283701274 0.019873444508814325 -0.44477083940991063 -0.055793898936048074
2647875000.0 -0.4207181102707951 -0.07649323118716501 0.09573259650251671 0.01772590511695045 0.09659459927737658 0.017084896089519255 -0.4466396432490199 -0.057364773468077446
2648938000.0 -0.42143229135953747 -0.07383243447953416 0.09629308859252798 0.014995313542027213 0.096912808260223 0.014185634296801673 -0.4476102960029279 -0.057971906657106984
2650000000.0 -0.42168273094172015 -0.07128626812011013 0.09669246369583323 0.012352527670008748 0.09719604441134655 0.011562104734370655 -0.4474306870393114 -0.058992080309019104
2651062000.0 -0.4224435833943465 -0.06875640420850632 0.09712878887129346 0.009671836934352827 0.09743379328278193 0.00874689901066666 -0.4454096856692142 -0.05980512285600521
2652125000.0 -0.4229057469573311 -0.06595725033230121 0.09738107495248345 0.006854662306162774 0.09745700361712964 0.005922996555344605 -0.44288851628976533 -0.058971877621537966
2653188000.0 -0.4238218559415392 -0.06354586098268124 0.09773597333569325 0.003785377615069033 0.09759661284242577 0.0032681620160418434 -0.4391543511309993 -0.05730128816719286
2654250000.0 -0.4239185644298591 -0.06083039374758404 0.09781532095263527 0.0010221610633342803 0.09752563249219667 0.00043623708588552777 -0.43492401693391114 -0.054673976246974766
2655312000.0 -0.4250147206415583 -0.05805634896988802 0.09795817842756259 -0.0018911979262032578 0.09760935769528341 -0.002578293156539531 -0.4312047377064825 -0.05031933652184246
2656375000.0 -0.42543850499111674 -0.05543282749474754 0.09767132391142021 -0.004805351851190631 0.09756123452027424 -0.005302874903435988 -0.4279069549872225 -0.045339942784623215
2657438000.0 -0.4258557104271635 -0.05284326995167125 0.09770428174320366 -0.007667251441680423 0.09733374830056422 -0.00801809148209865 -0.42485167003333535 -0.039986179620524455
2658500000.0 -0.4263803019438575 -0.05012320681288054 0.09746300564473129 -0.010617571307024917 0.09720633270355988 -0.010825615096448879 -0.42263235633785917 -0.0338110527099282
2659562000.0 -0.42677660154027053 -0.047577959513938804 0.09707739596285148 -0.01339507807361908 0.09699044203759001 -0.013637443589450156 -0.42199754391681626 -0.02644852866090298
2660625000.0 -0.4269507943898718 -0.0447416643889949 0.09682378117050594 -0.016169125706461077 0.09669116258902846 -0.01636821723082633 -0.4221562844913675 -0.019877935440726385
2661688000.0 -0.4275152204170266 -0.04228282502463296 0.09631626491799242 -0.018919883905911736 0.09632889560896568 -0.01904160032647136 -0.42368295571874764 -0.013574483092363365
2662750000.0 -0.4278206177522909 -0.03981015671023931 0.09566512553572933 -0.021563639033751587 0.0958508464026875 -0.02165401207093421 -0.4262067843342746 -0.008283255527891751
2663812000.0 -0.4277484412022473 -0.03681261359816831 0.09507309056068365 -0.02420117978016728 0.09524716152991 -0.02452386337743012 -0.429518623491727 -0.0029582149502303708
2664875000.0 -0.42775539806626556 -0.03377852179488094 0.09447913773968367 -0.027053001980503182 0.0945180266965764 -0.027040834285380285 -0.4333669970827192 0.00057157062693595
2665938000.0 -0.4279915176633412 -0.031033878211877603 0.09364632258445749 -0.029562188753558486 0.09384467064844068 -0.02973937307171196 -0.4376004033067905 0.0026130534531997175
2667000000.0 -0.4281579987023985 -0.028068478118193217 0.09287390477637705 -0.03218398201729684 0.09305743726478632 -0.03248335257587726 -0.44141281253216413 0.00419153066314152
2668062000.0 -0.42832781424716176 -0.0248658530737166 0.09197214572593498 -0.034969570257341605 0.09217159155445624 -0.035162790830546506 -0.4447796489874884 0.004461652472435403
2669125000.0 -0.4284744280188306 -0.022036641052719765 0.09101305894274113 -0.03736202761710445 0.09114720370978208 -0.03784227478848972 -0.44746589295751377 0.00392212732342749
2670188000.0 -0.4286329212449411 -0.01875570181571694 0.09012608882323336 -0.039920886457443405 0.09019620363702058 -0.040448933766311805 -0.44923767884678484 0.00246563129776265
2671250000.0 -0.42909577382013153 -0.015614816382817762 0.08911760213417332 -0.04250579199062301 0.08913384450942835 -0.043084715921977115 -0.4492410385213812 0.0008986969159508264
2672312000.0 -0.4293030935128824 -0.012451738965767043 0.08792370813452895 -0.04515797774291612 0.08790084162137526 -0.04567808466616614 -0.4475957509882727 -0.0005569990422203512
2673375000.0 -0.42947705221705773 -0.009490071289548672 0.08667821464529969 -0.047685839529477594 0.08667440863573143 -0.0481970955951037 -0.4453846336009909 -0.0015348707113812875
2674438000.0 -0.4297301369664342 -0.006559478469653662 0.08523218774749249 -0.05017167926963806 0.08531340906227423 -0.05062375326389103 -0.44146516137592784 -0.0017133695621528514
2675500000.0 -0.429878935463398 -0.003382049341003438 0.08388853489289409 -0.052716370264507664 0.08375468892439777 -0.053145786407438174 -0.43733800717048 -0.0001676019370964348
2676562000.0 -0.4299164066091556 -0.0006980804963178181 0.08249210041721526 -0.055145694281899714 0.08230695564841452 -0.05549988139444488 -0.4329853524419679 0.0017407356358747665
2677625000.0 -0.4300973453273759 0.002341511291582821 0.08083304939629261 -0.057604597293949546 0.08079860393535605 -0.058000829945845815 -0.428570924743262 0.005355337978696722
2678688000.0 -0.42988521093165116 0.004839121943124225 0.0793999645160439 -0.06003097492206547 0.07923133951590151 -0.06013975576508942 -0.4241248041424785 0.008973644091413656
2679750000.0 -0.42991895500878846 0.007735942330681137 0.07782259143842901 -0.06222944349771254 0.07771416251024466 -0.06253409073052704 -0.42020499172213716 0.013970119306282587
2680812000.0 -0.42970545705412433 0.01078104987246928 0.07618727712796906 -0.06443282802648785 0.07604807128787551 -0.06480480824335082 -0.4165745638675298 0.019985112855996617
2681875000.0 -0.42941034668674294 0.01375492941115063 0.07439378501523808 -0.06664652742178057 0.07427580991683172 -0.06705725197314506 -0.41409136542553976 0.026207655309759277
2682938000.0 -0.4285609893792146 0.01642682923292526 0.07260810197926887 -0.06872487797879796 0.07247819148813263 -0.06915230083802823 -0.41239233789385016 0.032954613563765243
2684000000.0 -0.42802062511497047 0.019247969899251677 0.07073764165278237 -0.07077207866400183 0.07054909360811805 -0.07119359250844391 -0.4112530373508656 0.04032018648823115
2685062000.0 -0.42734855513816217 0.022231075729565116 0.06882496928607597 -0.07273666384072598 0.06867805757717324 -0.07331271650882357 -0.41200355466869026 0.04719551731182866
2686125000.0 -0.426519264407195 0.025361491119472744 0.06682894685136402 -0.07486098327860757 0.06655297936511244 -0.07526112633354577 -0.41354443397812385 0.05345992616304668
2687188000.0 -0.4257901143276105 0.02798495384609379 0.06476691612429307 -0.0768294623162891 0.06451587502050628 -0.07719134801351997 -0.4161492912488292 0.058631110301225156
2688250000.0 -0.4248010312647424 0.030852153730501472 0.06271133215783463 -0.0788437157566498 0.06229699550997198 -0.07902881917071747 -0.4190173292248791 0.06311485728829579
2689312000.0 -0.42387681564907104 0.03376596401150494 0.06056758477435219 -0.08077397923440675 0.06008003353094196 -0.08091609010308079 -0.42205116092969747 0.06603929581406841
2690375000.0 -0.4228827162092429 0.03639414686735616 0.05826899168378439 -0.08256746145549351 0.05792826445033785 -0.08257868631874024 -0.423995567705541 0.06834774931003595
2691438000.0 -0.42177227437972475 0.039463969532266566 0.055976808862197636 -0.08432077860398127 0.05561033211130794 -0.08407919889302533 -0.42536422421372444 0.0684261645975108
2692500000.0 -0.4203202382475529 0.04242799325838034 0.0535344880509556 -0.08586276968754698 0.05326755664140523 -0.08565628999314932 -0.42573926150479785 0.06965862015604907
2693562000.0 -0.41938460743843387 0.04506086235077806 0.051048350895695545 -0.08731678837636676 0.050920847340559135 -0.0871687984448368 -0.42508963399243566 0.06969490672042883
2694625000.0 -0.417942769349335 0.04804714723822148 0.04831088004619511 -0.0887707232050326 0.04849841426846153 -0.08861672037515472 -0.4232169181981183 0.06976157877107488
2695688000.0 -0.4161642510160744 0.051304690920246164 0.04554935059786104 -0.0901625895812427 0.04586679621276541 -0.09006400024603212 -0.41997437744192345 0.07020008882734874
2696750000.0 -0.4151280748242952 0.05447032797655774 0.04279801764100112 -0.09136827299753786 0.0433186554927777 -0.09154975041371892 -0.41547902214439747 0.07156334826246807
2697812000.0 -0.4137029586878446 0.057430456535823675 0.039958129013032265 -0.09254296037573183 0.04048766564138353 -0.09302104295004106 -0.4112757810608373 0.07382209170624604
2698875000.0 -0.4121109508873449 0.06038873470637141 0.037142139161886044 -0.09363720367104994 0.03767324079537855 -0.0943782166841475 -0.4076695177645816 0.07669343565677599
2699938000.0 -0.41098779448971623 0.06367449490849628 0.03446943307799063 -0.09474388423377228 0.03472369063424628 -0.09569465385757575 -0.4033164090081018 0.07976681226419982
2701000000.0 -0.4092967232018713 0.06669242481979826 0.03161552939829914 -0.09584870679711505 0.03172029119647238 -0.09684011561057694 -0.39851932525805234 0.0843321716393441
2702062000.0 -0.40810295669115465 0.06949201495405093 0.028886292332957062 -0.09667205155361623 0.02850142595156432 -0.09785490981817337 -0.3938696587510273 0.08945184567613701
2703125000.0 -0.40689440900313656 0.07246440936994546 0.02633162081575813 -0.09756396871751735 0.025544499836964 -0.09869355636556333 -0.3905574932226636 0.09474791707744748
2704188000.0 -0.4055967116678414 0.07506605985484532 0.023447741317522326 -0.09842489830543387 0.022520753546720555 -0.09942527960007273 -0.3879683407011691 0.10269689540302113
2705250000.0 -0.4044106277910835 0.07764972612870157 0.02072591373177446 -0.0992469663361789 0.019513555660337308 -0.09981055252060511 -0.3862293312861448 0.1094957504866507
2706312000.0 -0.4029626979904434 0.08027197489034184 0.017938884539105217 -0.10006280198230912 0.01662816194960947 -0.10031777239834747 -0.38595800530421726 0.11716839759316564
2707375000.0 -0.4019292461250434 0.08271430881035277 0.015014023095434183 -0.10072690885227972 0.013806806844062262 -0.10070367595597694 -0.38742702276956525 0.12456955909007368
2708438000.0 -0.4005921867956607 0.08510247734777021 0.012316627132666803 -0.10155874605302603 0.011208204637045801 -0.10121948486796571 -0.3900917630341467 0.13064149465372601
2709500000.0 -0.3988958170110398 0.08739744510785437 0.009384943743455837 -0.10209132707804063 0.008552873692712805 -0.10157316564249665 -0.39358745783628374 0.13631775635440851
2710562000.0 -0.39756022848973016 0.08944073736904481 0.006355734856454611 -0.10261766948341726 0.005906980074382823 -0.10186064983512214 -0.3980577063137629 0.14116461766892144
2711625000.0 -0.39564728476301453 0.09176631749422452 0.0034336147414552277 -0.10297100638718147 0.003312004647895114 -0.10238666723921874 -0.4026188077735377 0.14352277739374236
2712688000.0 -0.3938928266300095 0.09395384050028986 0.0005458464907266203 -0.10330393692628066 0.0006934170260916461 -0.10265264226477015 -0.407146314211681 0.14449770485795546
2713750000.0 -0.39222121889933553 0.09601776333328814 -0.0026341605934954515 -0.10359454786759051 -0.0020763779261603558 -0.1029871592979768 -0.4106933459187909 0.14469424604682476
2714812000.0 -0.3900583929050517 0.09852940749972715 -0.005545320486784285 -0.10347575769368787 -0.0051806340453929515 -0.10307579159113829 -0.41293529449012933 0.1439608274034764
2715875000.0 -0.38838518173012626 0.10021857058555435 -0.008571397988827802 -0.10306739627929792 -0.008047692042659479 -0.10329890637901257 -0.41459241952557824 0.14255438619606847
2716938000.0 -0.3861963964663849 0.10257374492253038 -0.011757748572165414 -0.10274897259456936 -0.01141605368107701 -0.10310043870180402 -0.4148333010641306 0.14037629413589775
2718000000.0 -0.38401584746900724 0.10455472370591658 -0.014965166040012842 -0.10187464855746775 -0.014616629449721351 -0.10274271441460776 -0.4130357885012778 0.13758930633941868
2719062000.0 -0.38223602690284286 0.10662728919967926 -0.017975929009623883 -0.10133400038867517 -0.018023140163894943 -0.10219399362380781 -0.410937954556561 0.1350845975403381
2720125000.0 -0.38045042492291303 0.1085909112196593 -0.02095381223970089 -0.10046928596702476 -0.021344786763222955 -0.10140505653416869 -0.4074075244502337 0.13287579885835551
2721188000.0 -0.3784962813793594 0.11060524716727271 -0.023999832206467193 -0.09952608913655661 -0.024552370334637304 -0.10042836965489779 -0.40218573316003514 0.13195277404904118
2722250000.0 -0.37650257409203314 0.11265056036953233 -0.026854531145451888 -0.09851209570858202 -0.027746579060511714 -0.09915985120271453 -0.396432078031181 0.1307194615519268
2723312000.0 -0.3746234651498821 0.11478060424647003 -0.029811467691257306 -0.09749665486321595 -0.03076297106893797 -0.09783661760049406 -0.3908364543692634 0.13099569523783405
2724375000.0 -0.37290188870570373 0.11673370966222925 -0.03255796329033211 -0.09634558333047791 -0.033621221105327836 -0.09635474987802098 -0.38442813132405496 0.13283398824079615
2725438000.0 -0.3708353410257686 0.11937705987659065 -0.035243716649183854 -0.0952421710018463 -0.036265395706625 -0.09495494040402559 -0.37866087594504844 0.1341486000398716
2726500000.0 -0.36895065030078217 0.12145684069056 -0.0378397182110204 -0.09401180536120918 -0.03878139208811979 -0.09363604096946507 -0.3727669134041779 0.13728905163285238
2727562000.0 -0.36690797301416184 0.12378197005623423 -0.0405648052706558 -0.09271601579256572 -0.041231779633459996 -0.09239349453450939 -0.3683368677943 0.14040993661559067
2728625000.0 -0.3650547264778082 0.12604842061862692 -0.043300245136083666 -0.09170277650056514 -0.043633045095313586 -0.0911499550157589 -0.3638860485476643 0.14391974089415815
2729688000.0 -0.36330195654200437 0.12831460860989102 -0.045917004458778304 -0.09041412809246471 -0.046217124431681945 -0.08996905005015403 -0.36120163885414386 0.1482366920534843
2730750000.0 -0.3613926849028182 0.13081703136966316 -0.048686483302086234 -0.08908448918192882 -0.04896493322494908 -0.0888127821805743 -0.35971817184598476 0.15258280203394645
2731812000.0 -0.3597189505569468 0.1326556147965776 -0.0512198786443568 -0.08783900048418919 -0.05142440518581786 -0.08762513410323856 -0.3591746084613439 0.15604467318050444
2732875000.0 -0.35764958133473423 0.1349037462668186 -0.05407684580130259 -0.08638718818120249 -0.05415815386477584 -0.08629427827955878 -0.3597386212910966 0.15813325026759853
2733938000.0 -0.3560996090316383 0.136456218862578 -0.05669776809097534 -0.08481263735180687 -0.05683890401522676 -0.08491040478857577 -0.3610074226249019 0.161013224794138
2735000000.0 -0.3544885816692069 0.13861232888634592 -0.059427999388465505 -0.08342507268589609 -0.05956564965938379 -0.08329239512098924 -0.3622752547410965 0.16189935516651874
2736062000.0 -0.35287701853361597 0.13995186636912954 -0.06190663495760021 -0.08167839001329256 -0.062259551692075595 -0.0815389366544736 -0.36432562040477373 0.16171501964393914
2737125000.0 -0.3515008339623116 0.14153948554443066 -0.06456977884822593 -0.07971772521346566 -0.06480155716905395 -0.07964665367112417 -0.3656272563034642 0.16124031761346758
2738188000.0 -0.3498383759353092 0.1428555350492514 -0.06689379421964442 -0.07778672165326697 -0.06716813079037029 -0.07766489634441985 -0.36605278726608786 0.15937870868916437
2739250000.0 -0.34856057117936323 0.1444140249787285 -0.06928706713186485 -0.07561473175036994 -0.06959413109713745 -0.07547397723723084 -0.36556822031948827 0.15670410435908264
2740312000.0 -0.3467559944706868 0.14554553918124602 -0.07144624875138125 -0.07348632911193723 -0.07162754349723874 -0.07317361824312837 -0.3639688490084903 0.15395301774712744
2741375000.0 -0.34495079982436533 0.14684087626601353 -0.07349536856782528 -0.07104456938022868 -0.07383028952633765 -0.07094522736585328 -0.3615302121667475 0.15187156708556218
2742438000.0 -0.34359161232599655 0.14783762685702048 -0.07549299706011448 -0.06889605182591427 -0.0756422952100678 -0.06871688655342381 -0.357866755337195 0.14908252515474107
2743500000.0 -0.34162350436241096 0.1486209926369944 -0.07735122139000754 -0.06648383150518289 -0.07740860074429821 -0.06647300919412676 -0.353230685565562 0.1472364599495193
2744562000.0 -0.33951161133926455 0.14979883483760556 -0.0791109090847523 -0.06410241448942748 -0.07917354484520805 -0.06407027636244157 -0.3478841672128386 0.1460645107263311
2745625000.0 -0.33769137000113997 0.15088182073618653 -0.08069287529206962 -0.06155860116180583 -0.08096928674646076 -0.061800812911524124 -0.3414004827812455 0.1455907108451556
2746688000.0 -0.33607100942552537 0.15159010236926845 -0.08243550140750504 -0.05920764777741784 -0.08270652216792561 -0.05954568409034701 -0.3346614346209633 0.1463513099925533
2747750000.0 -0.33427461764298466 0.1526233132390045 -0.08409520805370736 -0.05697307299663055 -0.0846158216017087 -0.05699087501384404 -0.3285412028862641 0.14823334326643314
2748812000.0 -0.33240324691790357 0.15364231606988782 -0.08573829812915407 -0.05448939779176154 -0.08636859386254572 -0.05453182706909682 -0.3225030777633403 0.15140977142300846
2749875000.0 -0.33057508579014233 0.1542907951539209 -0.08738359668653065 -0.05197641012434475 -0.08808861582272522 -0.05187458722149155 -0.31723770529139594 0.1555996014759734
2750938000.0 -0.3288998645638544 0.15525001598316787 -0.08880965313823704 -0.04942269909633124 -0.08978586008833955 -0.04918050043488201 -0.31287533999216277 0.1605964328701933
2752000000.0 -0.3271363538708374 0.15608622402765737 -0.09051055785272479 -0.04697575731386339 -0.09112165235792376 -0.04642657698324419 -0.30956757344041425 0.16538185453582138
2753062000.0 -0.32546967972892854 0.15685935684345734 -0.09192417614349081 -0.0443477538068323 -0.09253514649220038 -0.043645291095257485 -0.30788260426354497 0.17088462348682396
2754125000.0 -0.3237861551239684 0.15767546678037778 -0.09323328855460689 -0.04166585634374687 -0.09377825847279693 -0.04097122509221321 -0.3071795210729075 0.17569762359896016
2755188000.0 -0.3222242846062136 0.1584108995162158 -0.09479299517107802 -0.038886127657674845 -0.09478027179407629 -0.038029835522134715 -0.30767146051807936 0.18047550115981492
2756250000.0 -0.32055878766835044 0.1592406041091094 -0.09589538449703447 -0.03601452147648423 -0.09582920596213657 -0.03522813919649966 -0.30890580553966973 0.18450063489936813
2757312000.0 -0.3189891452822509 0.16000277820838651 -0.09693896412370777 -0.033082717241366924 -0.09662841975275853 -0.032507019732269105 -0.31062026456319713 0.1877034424892192
2758375000.0 -0.317449399997319 0.1609582135643557 -0.09786600086157628 -0.030200669762856788 -0.09747862468165086 -0.02969627263093544 -0.31309065132042396 0.189772496589976
2759438000.0 -0.3159582632411123 0.16146327911819128 -0.09869448281949844 -0.027160885374245325 -0.09828801613539022 -0.027050663208411107 -0.31567123396811164 0.19138366062578888
2760500000.0 -0.3145534910163768 0.16227105613187986 -0.09934542546408696 -0.02404367464401056 -0.09908131404763437 -0.024261436389154095 -0.31788146690826274 0.1915326868013381
2761562000.0 -0.3129379465902438 0.16305232266163225 -0.09989841726571264 -0.021008155278551047 -0.0998996500354589 -0.021277356528050576 -0.3195565725788451 0.19097082832556442
2762625000.0 -0.3123204737179397 0.16362992355377742 -0.10034169564780196 -0.01821157890423825 -0.10056510549068867 -0.018429697805441483 -0.320819800143504 0.18924074642612174
2763688000.0 -0.3111284243467321 0.1640866280439386 -0.10059731887797696 -0.015123631761659973 -0.10123293193379333 -0.015498391854224082 -0.32057955033292823 0.1875905689143741
2764750000.0 -0.30997055676402563 0.1646607534010086 -0.10081444625628949 -0.01207868275911871 -0.10156518174535925 -0.012318752132551604 -0.319697536364416 0.1850785817666263
2765812000.0 -0.3091727041502896 0.16519678073098598 -0.10111279945335011 -0.00933400013623096 -0.10190471541052651 -0.009133137738805468 -0.3173541446888747 0.18367452141939714
2766875000.0 -0.3079835202502875 0.16559968771297987 -0.10111171159897973 -0.006352104492060905 -0.10203713210645896 -0.006030506292660569 -0.31406964338193794 0.18161593474620288
2767938000.0 -0.3068792388444411 0.16619258601495354 -0.10124220002367837 -0.003095907956453465 -0.10194177256701133 -0.0026326537614775147 -0.31045244731478827 0.1814300816044553
2769000000.0 -0.30602637723252124 0.16641330135900145 -0.1013208085875914 -0.00033899403003594987 -0.10173877420949748 0.00040064066084901723 -0.30687630720408976 0.1812314517149023
2770062000.0 -0.3052730993957631 0.16660821345943536 -0.10119365682448635 0.002593106637577949 -0.10154224802021415 0.003414579590727593 -0.3027948284428802 0.18210577879621037
2771125000.0 -0.30413832126542584 0.16661563664389506 -0.10101594350997888 0.005580320474076171 -0.10102852663733664 0.00644278003913976 -0.2988765030395452 0.1839097675431124
2772188000.0 -0.3032559970801487 0.1667636770285029 -0.1009100118927783 0.008686401579353863 -0.10072376579005841 0.009425095957921346 -0.2958315405841678 0.18671127912005275
2773250000.0 -0.3020408562686769 0.16685732786264384 -0.10063780539647835 0.011614166536405122 -0.10024986590713247 0.012222278767420745 -0.2935449244734386 0.1895346670960724
2774312000.0 -0.3011535007911276 0.16689893411050108 -0.10020889570802895 0.014574085566516463 -0.09990424440204641 0.014995887999644998 -0.29206619373582493 0.19358885745231455
2775375000.0 -0.30000114187395266 0.1669749849663707 -0.09977645704223019 0.01751769255957068 -0.09946784361715094 0.017839697992737148 -0.2923114674059087 0.19661432003881454
2776438000.0 -0.2989097955443494 0.16710507340835773 -0.09916826605834696 0.020595353153619954 -0.09903503139981673 0.02069377468092212 -0.2938651794996912 0.20019883464855268
2777500000.0 -0.29799166056266524 0.16763859728032923 -0.09868293044367288 0.023598489616544743 -0.09859329251435742 0.023421917949641147 -0.2957123824776702 0.20296963070327545
2778562000.0 -0.2971135816099341 0.1680446828480899 -0.0978722332127855 0.026495215288746106 -0.0980210489407648 0.0263933400962291 -0.29813819262276214 0.20513312979965334
2779625000.0 -0.29618680124813745 0.1681450529390718 -0.09710353307438645 0.02949666566927851 -0.09736649296706866 0.029362505495281927 -0.3019354137634846 0.20623757008656038
2780688000.0 -0.29534512315666306 0.16865066091577122 -0.09610144539208731 0.03216511339997997 -0.09650437856479716 0.03249074347100009 -0.3050007985456353 0.2068462367253755
2781750000.0 -0.29449648520226973 0.16889625098196973 -0.09509567573298883 0.03506480821522575 -0.09550820826020978 0.03546325021819056 -0.3089144287665454 0.20516067045291192
2782812000.0 -0.2934865503309082 0.1694548064781942 -0.09397976084429648 0.03805811785136647 -0.09437164180765903 0.038458821598728134 -0.31251114406422786 0.20346893848965036
2783875000.0 -0.2927461646171296 0.1700678840922448 -0.09287300640431159 0.04078420107879367 -0.0931015367344176 0.04131701518003145 -0.31459410011285954 0.2002968577852114
2784938000.0 -0.29197379096390635 0.17037563460824734 -0.09147871923367683 0.043442726565085917 -0.09174271590540584 0.04412578997455624 -0.3161305264623014 0.19683089822397873
2786000000.0 -0.2913681268383463 0.17089453474925095 -0.09015135018170595 0.04624056919154531 -0.09023334139408523 0.046740231773069865 -0.31648660833357306 0.19275241489063433
2787062000.0 -0.2908152374155488 0.17143635311252187 -0.08881200967539715 0.04869360210524163 -0.0886136816559746 0.049275663673010235 -0.3160421438116353 0.18887155237542574
2788125000.0 -0.28985944562999877 0.17186855351269037 -0.0872318877223456 0.05117928713697824 -0.08711027372707394 0.05165857971637877 -0.3138154436203655 0.18417919463550736
2789188000.0 -0.2891783335578696 0.17261773717373885 -0.08559193919421469 0.053582648427644625 -0.08549297231643938 0.054093447495720474 -0.31078849019919685 0.18077186042207366
2790250000.0 -0.2882108317040614 0.1728303053714563 -0.08397331797394524 0.056134654353612506 -0.08365689995692965 0.05625947079285539 -0.3065091561932941 0.1777375684895653
2791312000.0 -0.2879885057135095 0.1736366740455466 -0.08239950261719783 0.058467792903950475 -0.08206514675908108 0.0585709480515221 -0.30149671909109116 0.1759092971538478
2792375000.0 -0.2873472458937842 0.17398695182856894 -0.08055242611845485 0.06080412927956236 -0.08024682367861775 0.060998858940022195 -0.29620396263361914 0.1752437849122714
2793438000.0 -0.2867160208050873 0.1747429696531471 -0.07861517698338455 0.06286738758015283 -0.07847395021917228 0.06331942729643447 -0.29039191035007655 0.17531616477685058
2794500000.0 -0.28624632845316483 0.17522849365735016 -0.07673802945495252 0.06528075072729173 -0.07659750460155212 0.06563963802440544 -0.28529137538361427 0.176894065973963
2795562000.0 -0.2857481422099117 0.17593712129201014 -0.07477865081685527 0.06753675591027077 -0.07471024074088356 0.06794474506409594 -0.2803625770294276 0.17926903732722285
2796625000.0 -0.2851591871244113 0.17664680329552887 -0.07281724623531459 0.06978182389187727 -0.07258845836992162 0.07024444414084341 -0.27666793439596554 0.18216728422378614
2797688000.0 -0.2845568323051219 0.1773388884959652 -0.07054118767943518 0.07198312505176115 -0.0702918094503797 0.07248815930649785 -0.2734504073047104 0.18584441896732704
2798750000.0 -0.2839653711119389 0.1778348298820254 -0.06826449268731659 0.07414974906553191 -0.0678642970863187 0.07451932544132656 -0.2709074801554093 0.18939335093932205
2799812000.0 -0.2832219636323648 0.17850281792228126 -0.06592275372036976 0.07597964172404924 -0.06547831803191986 0.07638589050383668 -0.26946751526907425 0.19283210507470694
2800875000.0 -0.2826158263425606 0.1790759603574725 -0.06334153416992853 0.07804340336024874 -0.06289374360914453 0.0782635965183606 -0.26847929215469785 0.19655030416476532
2801938000.0 -0.28179110025749876 0.1798028359342299 -0.06080539961929257 0.07995818786188331 -0.060289678156227884 0.07990031194640129 -0.2687090710990797 0.19930716090020542
2803000000.0 -0.28102669451275525 0.180459286689423 -0.058131031840980334 0.08183638910570587 -0.05782256035531686 0.08150211510589327 -0.2691839101717849 0.20178345841239786
2804062000.0 -0.28049660385933417 0.18094293956107493 -0.055623838858117475 0.08332479840996773 -0.055323474707871495 0.08291157213068097 -0.2696449319377402 0.20377268211045177
2805125000.0 -0.2793374044130309 0.18167977066671534 -0.05277670107837156 0.08467793297901789 -0.052882300031862076 0.08428324071447152 -0.2701695245631894 0.20436573325261245
2806188000.0 -0.2786581241587574 0.18292876423476537 -0.05021707635932912 0.08605601963643943 -0.05047654844471067 0.08575484421741772 -0.2706135726973159 0.2043716976460261
2807250000.0 -0.27760048403641374 0.18381725917646324 -0.04727484496304991 0.08717082035371648 -0.04796811351743893 0.08714523927413068 -0.27055931063183797 0.20460958950791786
2808312000.0 -0.2775929226523139 0.18491178860016177 -0.044939674025920216 0.08832326748998127 -0.04538610850660163 0.08864215285432904 -0.2702582525376913 0.20423294866309968
2809375000.0 -0.2762763547940889 0.1861966617218276 -0.041965766504034656 0.08912041055992881 -0.042749906601180755 0.0899615127207431 -0.26786809130529254 0.2041127539688374
2810438000.0 -0.2755531559777128 0.18731402345910603 -0.03940569820479173 0.09022866673316222 -0.03998095503482773 0.09116038337925776 -0.26591086925463625 0.2038008264823149
2811500000.0 -0.2745330084663345 0.18869450930541815 -0.03694946469983013 0.09120266806958173 -0.037125758585042495 0.09245367590508921 -0.26308751694323496 0.20426796803224348
2812562000.0 -0.2736307016106713 0.19000096896539 -0.03430884027171093 0.09201976509989132 -0.034107728016855014 0.09346601013975835 -0.2598899646959193 0.20471181234050995
2813625000.0 -0.2731629650062889 0.1913284928456458 -0.03180045331405617 0.09303452556261906 -0.03105227240222176 0.09438829328219026 -0.25630398746822075 0.20659095033645453
2814688000.0 -0.27236380906140323 0.19265941351148083 -0.029263670978626234 0.09392432217100506 -0.028073660328305442 0.09512687608298671 -0.2526566703225815 0.20858336247205267
2815750000.0 -0.271826406192228 0.19389669704410378 -0.02669739712283075 0.09494013528262374 -0.02523647760000532 0.09559127799970969 -0.24886640848434427 0.2115482509325017
2816812000.0 -0.27110110392633263 0.19510948746922274 -0.02404994593705516 0.09571195899258701 -0.022305165546893664 0.09593621501497829 -0.24510818583268965 0.21570413024153204
2817875000.0 -0.27093379937973366 0.19638403157951048 -0.021109988350513136 0.09658875266612328 -0.019801343210260062 0.09624266938923948 -0.24240151474097646 0.2208121600179026
2818938000.0 -0.2703479094687537 0.19746563967923822 -0.01823299365894937 0.0972638665924139 -0.017109049157980057 0.09643196402897701 -0.24038130789694964 0.22643751753799868
2820000000.0 -0.269751593082697 0.198714598547119 -0.015242916907653706 0.09772157034883476 -0.014471714414720133 0.0967047671702911 -0.23961163163446625 0.23226809255011951
2821062000.0 -0.2691848125860777 0.19964887945428095 -0.012197569182007624 0.09807349658610755 -0.01208243270411784 0.09696345888837668 -0.2398012158923072 0.2391285738034322
2822125000.0 -0.2687746316464336 0.20105680486072153 -0.009406235142460832 0.09841330279931614 -0.009629845667456102 0.09729449243810147 -0.2416448658407914 0.24508404231123254
2823188000.0 -0.26812830653486946 0.2026199938919156 -0.006339513128163914 0.09861964875547478 -0.007000098958088114 0.09776984521382434 -0.24426648213469845 0.25056750158464786
2824250000.0 -0.2677923119168981 0.20364220944331093 -0.003434246262776042 0.09860478620695105 -0.004443496597057072 0.09814528353324255 -0.2481211730380924 0.2547927254357515
2825312000.0 -0.26684646147910895 0.2047728131867336 -0.0005772808783009626 0.09822041440648112 -0.0015912974580245467 0.09845891786045156 -0.25216411343072415 0.25850508136516004
2826375000.0 -0.26585954716589427 0.20547282270398687 0.0023279971421213447 0.09796690576075658 0.0011511132958431209 0.0986156131425932 -0.2566801777234154 0.26104805662583874
2827438000.0 -0.2651988561167323 0.20667358006062012 0.00511266167709363 0.09776808083891975 0.00420763880916575 0.09858615716386206 -0.2607806333362947 0.26223001184243555
2828500000.0 -0.2642587991932919 0.2078239995476674 0.007727540596855562 0.09696393446064236 0.007337714796022555 0.09841029522589777 -0.2648755423979198 0.2625564161574295
2829562000.0 -0.2633489077390242 0.20864638812824723 0.010319466837740836 0.09647046823468726 0.01040521742390165 0.09807659099952001 -0.2685217361203561 0.2617424680907406
2830625000.0 -0.26243177931915973 0.2095385029248307 0.0129810478087499 0.09572574448345036 0.013666651613228133 0.09740244688010757 -0.2708823966856187 0.25985921342809176
2831688000.0 -0.26154184125215824 0.2104844908400503 0.015594777741928207 0.0949962214499099 0.01664948674340105 0.09637894271011233 -0.2724255977409376 0.2575516770491627
2832750000.0 -0.26073531651231735 0.21116082171899977 0.01818196504750876 0.0942832469319355 0.019636250317466946 0.09525463850432203 -0.2731414419821869 0.2547788887829342
2833812000.0 -0.2597915938153346 0.21242266836707707 0.020640091395051106 0.09381803692217068 0.02222481385702991 0.0941866388798175 -0.27243568414092806 0.251287188063937
2834875000.0 -0.258720553020493 0.2131847122576161 0.022997965844549655 0.09295514724839045 0.02476844553099398 0.09288060794507444 -0.27158551054721336 0.24812998202491732
2835938000.0 -0.25768153468564947 0.21431088258932596 0.025698776137385203 0.09233412410883844 0.027121326982837316 0.091763792311275 -0.26917482575025525 0.24631544665652097
2837000000.0 -0.25671614305883966 0.21558193522182698 0.028208184254886578 0.09142130463827892 0.02943019150544642 0.09048406106648604 -0.2656116806030118 0.2436480283040733
2838062000.0 -0.2556012842507359 0.2166261555091982 0.030931779577263504 0.09052104343806654 0.031449505495840566 0.08939257461003576 -0.2623141377285838 0.24213556498463226
2839125000.0 -0.25461576204018577 0.21775155522150869 0.03361102173234726 0.08954123383942986 0.03382701868984109 0.08835919014246328 -0.25830666781682515 0.24132074842760654
2840188000.0 -0.25353118944967024 0.21925688010590624 0.03618097023128637 0.08831251944951642 0.03607998730991226 0.0873108564047433 -0.2546790215601398 0.24216318663913214
2841250000.0 -0.2525166113826272 0.22043027006897348 0.03883826755707396 0.0870513376167169 0.03851284862668501 0.0864400015559441 -0.25140975889810707 0.24318904695354152
2842312000.0 -0.2517788689714424 0.2219897512843527 0.04161986280379742 0.08579308324901253 0.040940990766629645 0.08541664510921548 -0.24780132652062875 0.24511957702583287
2843375000.0 -0.2508704856699747 0.22347993658108795 0.044064041395944074 0.0844065337690357 0.043639796241079276 0.08454888785129347 -0.24667415862661224 0.24770063852854304
2844438000.0 -0.24992532447682095 0.22464078828014272 0.046655328805965915 0.0829565336551797 0.04611327287038653 0.08321421213366005 -0.24547286017427103 0.250744244330306
2845500000.0 -0.24929478734849536 0.22598659771810756 0.04908593437278999 0.08152288891987235 0.04866797276702576 0.08201203967262777 -0.24580900419671614 0.25325988686235495
2846562000.0 -0.2487832485561105 0.2271050102872294 0.051497193639749445 0.07976780547564068 0.05132122638722552 0.08055535165347498 -0.2461706406525113 0.2559820081623899
2847625000.0 -0.24807083387591156 0.22838786565328723 0.053542868948782185 0.07822814501253053 0.05392407710773505 0.07890742902471314 -0.2477061626414942 0.2566858483312286
2848688000.0 -0.24778114520147043 0.22930074443803655 0.05564423572092212 0.07659283720895198 0.056144136722250625 0.07720390395676137 -0.2495035114737196 0.25813289810155915
2849750000.0 -0.24719810712120355 0.23058662621473164 0.05786788101244537 0.07479133322606832 0.05855090569540423 0.07519904354353223 -0.25038951081963984 0.25858554115444016
2850812000.0 -0.24689872639029664 0.23153443539798818 0.059953930406797196 0.07306972293656087 0.06083163955809645 0.07322744231013527 -0.2530235291969922 0.25854928237830904
2851875000.0 -0.246367281349801 0.23243559195200109 0.06155494956079037 0.0711432410147809 0.06256961188461874 0.07127043946451882 -0.2537626591713501 0.25641662023385803
2852938000.0 -0.2458771936499056 0.2334862442125997 0.0634968080442733 0.06929388317808761 0.06441592414754344 0.06924853333079964 -0.25452642066648606 0.25425242791698205
2854000000.0 -0.24539939133000915 0.23424922116956887 0.06543588937965723 0.06745082318018593 0.06608076823372344 0.06713804962999538 -0.254144112277309 0.251312759950535
2855062000.0 -0.24482171225608307 0.23517821691879826 0.06715013765456686 0.06569756195857743 0.06772876602121071 0.06515939416715938 -0.2526585866153523 0.2482758413701993
2856125000.0 -0.243971175673842 0.23573392547466532 0.0689142066330562 0.06361722340392464 0.0692833852437686 0.06317207681385945 -0.24994062815688436 0.2449151118156581
2857188000.0 -0.2433669584057619 0.23654191630568278 0.07076580194223425 0.06158894032924009 0.07093773283672432 0.06120408771463803 -0.24625480303666422 0.24156152788120058
2858250000.0 -0.24261096693999928 0.2372392942354474 0.07249400256095047 0.059532349106253775 0.07252221050124234 0.05913442465187412 -0.24186739663307352 0.23840484945722334
2859312000.0 -0.2420692356891122 0.2377663183495434 0.07397284927340132 0.05728596999437362 0.07424945298952139 0.05696088742726859 -0.2362072770030301 0.23649723418159738
2860375000.0 -0.24119554031480217 0.23853859000904964 0.07569035649403612 0.05504699355897716 0.07573548407650349 0.05482857611951261 -0.22996423909454675 0.2348842900736839
2861438000.0 -0.24039331356108334 0.23922893551546454 0.07725277487784271 0.05268494856894765 0.07732245718227099 0.052583535564293224 -0.22343658762538413 0.2346235194691091
2862500000.0 -0.23949608557225363 0.23971023880008716 0.07864782209022214 0.05031692464937433 0.07892068547719806 0.05009560859252076 -0.2166741716359292 0.23562709697808468
2863562000.0 -0.23862662057168163 0.24030979359487 0.07995777352237204 0.04773292070892688 0.08031409597721971 0.047553993093676306 -0.2103369063225248 0.23792035473149473
2864625000.0 -0.2377168581212308 0.24103518615484706 0.08138396034818636 0.04546194732925598 0.08164949621808881 0.04499485781668704 -0.2047236875330451 0.24061479623954393
2865688000.0 -0.23655928700453688 0.24153284731913452 0.08269436437063007 0.04282771086819567 0.08301792037256502 0.042417858825427465 -0.1997974968222785 0.24469228184521757
2866750000.0 -0.23556270309512123 0.24240525977699287 0.08372608205506803 0.04019357401275474 0.08401274739999989 0.039880445252911935 -0.1960030833759113 0.2491534179821716
2867812000.0 -0.23429785881631554 0.2431231891144051 0.0847921926451493 0.03778205654772717 0.08495656769616299 0.03743044060380556 -0.1932947609610383 0.25440235681777296
2868875000.0 -0.23310454041031964 0.2439183944494476 0.08584197990500053 0.035196142447885506 0.08579481761528954 0.03489276804246573 -0.1918661828078276 0.2592688084087481
2869938000.0 -0.2319839632832918 0.24465234185411786 0.08667595911620334 0.03262606985558384 0.08663135595454773 0.03242482384895695 -0.19160771180578318 0.26375453779903374
2871000000.0 -0.23090518551778072 0.24564600676303341 0.08738009082238672 0.029885661053843663 0.08737802603571188 0.0299309843549881 -0.1919861573909347 0.26791754296899045
2872062000.0 -0.22971455366005683 0.24651800279216993 0.08791133902580203 0.027438727709170087 0.08807243467735099 0.027451291058641664 -0.19324714119767292 0.2714046332922069
2873125000.0 -0.22866722487390148 0.2475712931401005 0.08854167056313712 0.02481247097449411 0.08880870626307108 0.024928366274018815 -0.19510213065640283 0.27389050181349534
2874188000.0 -0.22764329698754412 0.2484708625403447 0.08907611634515543 0.022257231330322324 0.08943965559516207 0.022377418528187806 -0.1969462451242413 0.2753835859114846
2875250000.0 -0.22683778813936714 0.2490674017500204 0.08966879566724513 0.019736296729312836 0.09010797545979636 0.019793342433068763 -0.19863257055059655 0.27581130165310347
2876312000.0 -0.22597487986455708 0.2501126346490115 0.09007791826193833 0.017209229679914246 0.09067877800743013 0.0171241457322215 -0.20037111092789286 0.27585110781750327
2877375000.0 -0.22515127563627643 0.2508772290810265 0.09043445099050669 0.014667649238815654 0.09088445860736015 0.01441207424160313 -0.20124253354106567 0.2745544292210994
2878438000.0 -0.22426748013630615 0.2515625090510289 0.09080976632007907 0.012080191514480528 0.09130080159609417 0.011804716978337413 -0.20132269722387164 0.2731209017251721
2879500000.0 -0.22349066692202652 0.2522391847811864 0.09103670281039596 0.009628690148676646 0.09145982678572395 0.009115740554042916 -0.20052263133437778 0.27124424517148354
2880562000.0 -0.22282130758881463 0.25290443975181276 0.09126837279415626 0.006938026198939742 0.09149288520646848 0.006453108448821419 -0.19906903399463136 0.2696702834428306
2881625000.0 -0.22194402465013963 0.25337161402469827 0.09124072557657027 0.004219125397598077 0.09145612680016776 0.003629439522640186 -0.19676913043871536 0.268090207535748
2882688000.0 -0.22118589971186856 0.2538662648624461 0.09127421349275873 0.0016772798196204287 0.091327702244612 0.000983848180931656 -0.1935322689363827 0.2677019161825503
2883750000.0 -0.22033457164150735 0.25464678931627427 0.0912454887224451 -0.001324886358518451 0.09118975991403455 -0.0017005382096097615 -0.19061697756990192 0.26769427525285405
2884812000.0 -0.21981101403327746 0.25508811314506447 0.09105858418623129 -0.0037283118344541423 0.09100262677927799 -0.004308341832682122 -0.18797460670250435 0.26897135756429214
2885875000.0 -0.21886249310193423 0.2554051712394436 0.09079946889299918 -0.006623220940373002 0.09080694469035215 -0.007057710336043308 -0.18500459815496012 0.2709177233942994
2886938000.0 -0.21812762620169548 0.25577540658508585 0.09062723339810923 -0.009420681393171981 0.09055755500270013 -0.00947941730680478 -0.1828562157897529 0.2732931522777219
2888000000.0 -0.21732086323476027 0.25603260411971845 0.09011762124260388 -0.012029974851801113 0.09031786478788427 -0.012182662246090319 -0.18149663912113728 0.27693170429741776
2889062000.0 -0.21630363291372529 0.2563401829343345 0.089707745420447 -0.014605089726175278 0.08981767475119581 -0.01472409175919575 -0.1810523362176814 0.28056169047378166
2890125000.0 -0.21556621829330205 0.2567826212160544 0.08922118103689322 -0.017192695001892706 0.08937324008542478 -0.017414629022597237 -0.18178754785274123 0.28446824003980636
2891188000.0 -0.21470735341437744 0.2569139341885159 0.08860391679757461 -0.01968515857210636 0.08881478168470684 -0.019960961562896496 -0.1834819203630269 0.2884335283512763
2892250000.0 -0.21368094681188113 0.25721902201559227 0.08804877522714541 -0.022114837229828124 0.08819044595761413 -0.02253762966535534 -0.18626072718452263 0.29232803101974214
2893312000.0 -0.2131715707661489 0.2575502290873478 0.08731008474753245 -0.024330093829990483 0.0874170015344981 -0.02505254737168967 -0.1899957919412733 0.29446393884269245
2894375000.0 -0.21214845506745028 0.2580285789133599 0.08649753429949474 -0.02686487667489315 0.0866092992749848 -0.027507956319192648 -0.1943251542862989 0.29617954810830177
2895438000.0 -0.2113459531818737 0.25832633806311567 0.08581431349678044 -0.029323404168461763 0.08568912021839105 -0.02980988739746353 -0.1996674468610196 0.296942133242364
2896500000.0 -0.21016415660421187 0.2588030999402572 0.08484915289720489 -0.03170275329320709 0.08470155567879702 -0.03228115389696359 -0.2042557549226921 0.2967478095862732
2897562000.0 -0.20933651156992034 0.25897990610271826 0.0838858725019247 -0.03403422394774954 0.08378069294514917 -0.034604898042488313 -0.20874582545322898 0.29460979627311656
2898625000.0 -0.20848270337406105 0.2594425908167064 0.08303249896554755 -0.036381913553377936 0.08254879778745493 -0.036804131453379005 -0.2124885854371942 0.29134462333666067
2899688000.0 -0.20773742794347272 0.2603536678403698 0.08174508333150156 -0.038747764880250266 0.0815385423817652 -0.03892580476777008 -0.2150897520192083 0.2880026840648084
2900750000.0 -0.2065962036912267 0.26066563183753033 0.08041586108039465 -0.040967341949352316 0.0802536873559908 -0.041222360268316424 -0.21667386016922927 0.2830191404552526
2901812000.0 -0.20621605631286746 0.26108713119242916 0.07904088350858798 -0.043347626732832 0.07905812316863058 -0.04334152935945428 -0.21693844816891494 0.27868394360111676
2902875000.0 -0.20527636032170227 0.26188901346419735 0.07771364347363569 -0.045445846586413596 0.07759302784121784 -0.045638360571536876 -0.21561306319386975 0.27418008639436847
2903938000.0 -0.20457118098121008 0.2624916204906044 0.07615339120531611 -0.047742058648780346 0.07612075491866307 -0.047740355493787925 -0.21292035924870162 0.2701311085979058
2905000000.0 -0.20404367448264407 0.26319217248122584 0.07441603073971627 -0.04975568012180339 0.07457704211527598 -0.05005078183461417 -0.20995759329158076 0.2664159184667897
2906062000.0 -0.20339243553080186 0.2642735282073177 0.0727354542431482 -0.051863402038891976 0.07289734444739226 -0.05224123273891176 -0.2053023941043741 0.2639281612321985
2907125000.0 -0.20271652284913108 0.26515392806407617 0.07084295879577358 -0.05392546546058807 0.07100908754250977 -0.05435319391260193 -0.2004341338149888 0.2626283331325124
2908188000.0 -0.20229062393557617 0.2659161631209883 0.06908232483388303 -0.0560484493237933 0.06911778561082674 -0.05642158551334841 -0.19600608324515661 0.2626096136057415
2909250000.0 -0.2019354576978535 0.2666124174052732 0.06718795855850716 -0.05767789422616163 0.06717803372478527 -0.05831773417572989 -0.19106602824612223 0.2627585545906475
2910312000.0 -0.20130853144643765 0.26771061210896974 0.06528197219396599 -0.05968038266276575 0.06507429635492946 -0.06022830519453865 -0.18709649750669477 0.26451627426660196
2911375000.0 -0.200944049088517 0.2682376683443257 0.06332037808439035 -0.06142278250212485 0.06302770846555002 -0.06185798517207639 -0.18376150856258566 0.2667536491282293
2912438000.0 -0.2004693289165717 0.26910590887018493 0.06121203072427006 -0.06285056440821389 0.06101511139449864 -0.06348337088889593 -0.18113296419880812 0.26921742321459374
2913500000.0 -0.20002425760281461 0.2699870204230082 0.05917571917269617 -0.06444989399021418 0.05890161251899892 -0.06489317276420373 -0.17984982419978573 0.2726595053056998
2914562000.0 -0.19966322173288986 0.2708583969145945 0.05722031188959516 -0.06609953789900197 0.05687317765239031 -0.06632092646743815 -0.1790214910925303 0.27545560330265
2915625000.0 -0.19933090147885094 0.2716462595004429 0.05512766705857937 -0.06759656167228917 0.054835524417252736 -0.06790505976524122 -0.17919337054939694 0.2784764602605017
2916688000.0 -0.19888532947919269 0.27256214389902506 0.05317370637126932 -0.06909488996991756 0.05288529935471212 -0.0692361523696705 -0.18053196102037272 0.28095302311190024
2917750000.0 -0.1983980534476906 0.2736440740262795 0.050996569510383796 -0.07053341371256208 0.050776424675681935 -0.07061976997865993 -0.18142832519328547 0.2829540874454893
2918812000.0 -0.1981750282751085 0.27473168833238726 0.04890371955055926 -0.07186766921490684 0.048873939034453154 -0.07211095492851359 -0.1827948022298084 0.28414453656249594
2919875000.0 -0.19768225681903773 0.2758928962976831 0.04669415907380753 -0.07322408417079954 0.0467063929435077 -0.07349612297788964 -0.1843432771442587 0.28445605650372147
2920938000.0 -0.1974901174808503 0.27719045110998836 0.044514783744127914 -0.07462910283434317 0.04460422674325962 -0.07485818453217752 -0.1852179864187559 0.2846107177745429
2922000000.0 -0.19696496817854725 0.27857638437643495 0.04231305514258724 -0.07575236059603072 0.042321842568338354 -0.07612180154861749 -0.18578626808063906 0.28359342270159626
2923062000.0 -0.1965340880428937 0.27987082404597924 0.04011346833405777 -0.07693181481895216 0.03995279610306845 -0.07729773318290371 -0.18530959598864324 0.28221970045552475
2924125000.0 -0.19616100675773068 0.28111618453129983 0.037774921803416066 -0.07797649640835624 0.03748300004625433 -0.0783126732347694 -0.1839525067091754 0.28056657006304775
2925188000.0 -0.1958964853571265 0.28251947853283216 0.035346467135531655 -0.07895535090068598 0.03505806760463079 -0.07920763863500833 -0.18152358489469045 0.2793930307711648
2926250000.0 -0.19536832058271705 0.2840200958208331 0.03278516633579371 -0.07975755440670362 0.032518628051118145 -0.07999046627157676 -0.178358837908895 0.27855707869978524
2927312000.0 -0.19474707588556925 0.28566879191025707 0.03037208042274003 -0.08052869956842376 0.029941919656265425 -0.08066292744661967 -0.1742217485581419 0.27875450515253436
2928375000.0 -0.19454518631456397 0.28699034163580794 0.02781822726491074 -0.08122219129971536 0.027536422265744043 -0.08110572912589169 -0.16958077648069828 0.2793914178591157
2929438000.0 -0.19420289961122705 0.28844997279046053 0.025421232192241267 -0.08166880303221781 0.025203639793532625 -0.08157410886250588 -0.16520155333974718 0.2812075977806772
2930500000.0 -0.19368539304218324 0.2902421697259257 0.02289173646518312 -0.08211138274896217 0.022767990380988777 -0.08198650166888423 -0.1606568941904982 0.28421418206449245
2931562000.0 -0.1938085319703988 0.2919731154954976 0.02050537394670515 -0.08249530559977263 0.02064623566227873 -0.0823092428218592 -0.15655394272195236 0.28780829665105634
2932625000.0 -0.1931927519060152 0.2936019971189565 0.018066313894582263 -0.0827323801381056 0.01832166432597533 -0.08261697308929018 -0.15322135097487796 0.2926243547043194
2933688000.0 -0.1925613627167302 0.2951122085434183 0.015691935095962173 -0.0827113621815562 0.01597111224139701 -0.08300685527279544 -0.15054405953340189 0.29804787712937386
2934750000.0 -0.19223307058500266 0.29701693078817976 0.013346250839475266 -0.08284268600953273 0.013640558143377146 -0.08335544390867185 -0.14906648388570778 0.3039795442081709
2935812000.0 -0.19189117790406937 0.29878566425107983 0.010920326310132001 -0.083038917227157 0.011100760249449464 -0.08363927675395466 -0.14843885797510067 0.31000515364864834
2936875000.0 -0.19149867043893026 0.3003542880064341 0.008659247864052028 -0.08319406361446888 0.00878817153446656 -0.08383439602520808 -0.1488894628287372 0.31615348562753987
2937938000.0 -0.19117961925532956 0.3021273862776334 0.0065116200778654685 -0.08312544362385804 0.006194649588416985 -0.08398476764868852 -0.15021963986621245 0.3220463365230612
2939000000.0 -0.19040637785374007 0.30354492737895494 0.004217632711882887 -0.08313900377563833 0.0038822870414157353 -0.08401133681730262 -0.15274483492123794 0.3268668446352227
2940062000.0 -0.18982471155036518 0.3053559422408699 0.002068425867939929 -0.0832787932503495 0.0012560765665414542 -0.08395097513132849 -0.1554198750235231 0.33118053040967366
2941125000.0 -0.18930989454127078 0.3069915215163352 -0.00020953270690211233 -0.08311862082718297 -0.0011155516354701208 -0.08363093487727245 -0.1588120932187667 0.3344739728948968
2942188000.0 -0.188455737362977 0.3086554656403766 -0.002539460373829475 -0.08297893901160282 -0.0034810981296028694 -0.08328403386092466 -0.1617017821338951 0.3368718416583317
2943250000.0 -0.18787231716243938 0.31018232218224867 -0.004727704762795639 -0.08273952350419174 -0.005748161408108421 -0.0827095784821308 -0.1644506120733431 0.33825230595320455
2944312000.0 -0.18680845018608408 0.31169318723853745 -0.007058639930148259 -0.08255164177134276 -0.008038857372820434 -0.08216643828125622 -0.16664181542643242 0.3382142487520874
2945375000.0 -0.1860096778712959 0.3136186006906127 -0.009571932614328338 -0.08210296893710713 -0.010144851442645464 -0.08158845784968341 -0.16836711320505496 0.33783912444156
2946438000.0 -0.18496240262562816 0.3151389550858246 -0.011960352816066375 -0.08162328693135498 -0.012361915697328498 -0.0809736465075113 -0.1685893631172719 0.33711129154219405
2947500000.0 -0.18438249201673326 0.3169851974422132 -0.014307703965090665 -0.08114216478098628 -0.014358629906790092 -0.08046015130806791 -0.168608901781677 0.3360672450207637
2948562000.0 -0.18293495992452993 0.3188059490507766 -0.016625277647025854 -0.08044754352450803 -0.01647216366198546 -0.07992747630134492 -0.16792354063027243 0.3351518134762211
2949625000.0 -0.1820534310639305 0.320589576796645 -0.018872950539316702 -0.07966578016803233 -0.01852116759273342 -0.0793834640405475 -0.16630822001738738 0.33445448832393576
2950688000.0 -0.1810080803481625 0.3224001647005186 -0.020984170527122682 -0.0788024964803072 -0.020680293735922114 -0.07874983062649807 -0.1637775493617535 0.33384523929989435
2951750000.0 -0.17968099261836376 0.32451115221110033 -0.023087016334370047 -0.07786547913318677 -0.022707740352051604 -0.07810299390234643 -0.16039447803271756 0.3342398900087923
2952812000.0 -0.17856424513771604 0.3261657266712285 -0.025144099955353043 -0.0769619635408116 -0.024876463223164513 -0.07744290737293359 -0.15765200202021978 0.33585757151861145
2953875000.0 -0.17744771338422255 0.3281357054882912 -0.027135049603342825 -0.07588195971218487 -0.027106137278224213 -0.0765242471127271 -0.15426668300113222 0.3379151526949725
2954938000.0 -0.17621913636666678 0.32997157850939457 -0.02911489797414656 -0.07486689429192149 -0.02926884201405193 -0.07569306303525852 -0.15214877420601322 0.3416781150203603
2956000000.0 -0.17512974680832152 0.33195002778354693 -0.031059691169999803 -0.07386960243677863 -0.031517795320814404 -0.07459870381455776 -0.14951124364447482 0.3460652407856261
2957062000.0 -0.17370047545015513 0.3337136505047193 -0.032858473132041356 -0.07292782490333903 -0.033514490433356275 -0.0734678890141544 -0.14951340219141449 0.35056235276165837
2958125000.0 -0.17272072920524184 0.3359452467764403 -0.03477529736029733 -0.07209997169946783 -0.03564039428942561 -0.072409964873627 -0.14948852522079745 0.35588178661338177
2959188000.0 -0.1714577526819607 0.3376554405766788 -0.036630266516783416 -0.0710343587487105 -0.037586203672913425 -0.07112542873452858 -0.14907155236774083 0.36034406731194474
2960250000.0 -0.17007777053025525 0.33906431061546877 -0.038499882328915117 -0.0702451220922747 -0.03934710419705378 -0.07012053291385525 -0.1519578187579899 0.36502079716365965
2961312000.0 -0.16895717725521905 0.3411141031612095 -0.04031688670247405 -0.06916693798101077 -0.04114923492830822 -0.06887167144988908 -0.15368453498786136 0.36865382460953317
2962375000.0 -0.16753570207599636 0.34298017569548467 -0.04217396347789564 -0.0681835692555006 -0.042898902299828165 -0.06771131835507549 -0.15631587429800128 0.37276648406230045
2963438000.0 -0.1661652026369837 0.34461976394726623 -0.04393359481151218 -0.0669596476880161 -0.04448799164566278 -0.06646946692646834 -0.1598929050664963 0.37454216976395605
2964500000.0 -0.1649336711316524 0.3464186605791079 -0.04574254302269757 -0.06577471032763994 -0.04604778128716609 -0.0651493772672222 -0.1626658641145123 0.3758073098636667
2965562000.0 -0.16346435474906365 0.3480342602116545 -0.047473995943059184 -0.06441885861875057 -0.047725205291942595 -0.06397490654154113 -0.1644508000854751 0.3760529435742474
2966625000.0 -0.16227576020486625 0.349801037669318 -0.04918141079787517 -0.06303819331723469 -0.04928743006625759 -0.06260699086807274 -0.1661295892787973 0.37481502424218327
2967688000.0 -0.16078815839905172 0.35119109870684345 -0.050770219499469804 -0.06157328838918449 -0.05077762002967858 -0.0613052225062136 -0.16730293338713498 0.37245546220737347
2968750000.0 -0.1589134408392835 0.35273162068083325 -0.052412917344722885 -0.060033965891557774 -0.052250141923363275 -0.05990288602789663 -0.16664633766953363 0.37008085347637676
2969812000.0 -0.15739922192189712 0.3540586272083929 -0.05384768675999637 -0.05835515326173267 -0.05378971852352164 -0.058301144461981924 -0.16421702341539832 0.3663976488062492
2970875000.0 -0.15550801427492644 0.3555149757298144 -0.05539638993832234 -0.056631220459361184 -0.05543745377356353 -0.05659128817687045 -0.16185946030384873 0.3633075596340434
2971938000.0 -0.15391608449431685 0.3569682911549571 -0.056740662240671286 -0.05499438548131551 -0.05671060856092225 -0.05508567750889246 -0.15769530960351527 0.3602373428301834
2973000000.0 -0.15206434190433904 0.3583011176722718 -0.05799745740230397 -0.05323999127425266 -0.05816883331549911 -0.05321885197495845 -0.15238770124917958 0.3574440707628719
2974062000.0 -0.1499186848843078 0.35934587370561955 -0.059166943601097415 -0.051363440392328985 -0.05947983999383739 -0.051488247221421715 -0.14652289915950176 0.35442682590557306
2975125000.0 -0.1477293410881928 0.3607086006286092 -0.06033733800803133 -0.04959153801466003 -0.06064610105089248 -0.04971444136149802 -0.13960349595001184 0.35296573265235837
2976188000.0 -0.14595058119859186 0.3618866392853807 -0.061373675437342505 -0.047700948971904425 -0.06175681916261768 -0.04766007636139484 -0.1322778490881653 0.3529012309115689
2977250000.0 -0.14369025315567188 0.3628936607258612 -0.06236576562973107 -0.04579461386885902 -0.06276018758952912 -0.04564340378275887 -0.12504510215514664 0.35336829711993756
2978312000.0 -0.14128200091899726 0.3643946547184553 -0.06350090012754198 -0.04385436725481303 -0.06375709808350274 -0.043729352872341656 -0.11799846676094833 0.3555625734412479
2979375000.0 -0.13874311395493433 0.365661905647551 -0.06447530775217235 -0.04196580862060011 -0.06483678029769228 -0.04179738604323653 -0.11166620837835811 0.35811592603736236
2980438000.0 -0.13644724749466292 0.3669756586660925 -0.06554905215224617 -0.040072674240183154 -0.06580502524373875 -0.039807250201329046 -0.10584193360370561 0.361723883020706
2981500000.0 -0.13394038278449086 0.3684055837469101 -0.06654971926110431 -0.03817003912572012 -0.06681017958869433 -0.037955962600844224 -0.10128137635901496 0.36568656946002254
2982562000.0 -0.13156986908787494 0.36953718883792225 -0.06756261231350925 -0.0363988158324265 -0.06767099347732597 -0.03603977978826947 -0.09836468572545823 0.3702591072524858
2983625000.0 -0.12902115440937195 0.3705781394098234 -0.06843610062387905 -0.03439022755868916 -0.06864518693185738 -0.034095509500583945 -0.0950801767172202 0.3745790099213691
2984688000.0 -0.12653982755025436 0.37192156691027145 -0.06930966761300635 -0.03252732293851507 -0.06944879167677734 -0.03221595931195239 -0.09412931379019412 0.3790810093024179
2985750000.0 -0.12409493353287306 0.37318520381847725 -0.07014443302405184 -0.03064334877156798 -0.07030268795671174 -0.030286644450374427 -0.09323007785453462 0.38184836788724913
2986812000.0 -0.12145309692361624 0.37431084566831485 -0.07089566196192872 -0.0286495366311659 -0.07099230907111306 -0.028393492422099913 -0.09257438410064192 0.3847744774742308
2987875000.0 -0.11915020344946221 0.37545085356862984 -0.07158789924646326 -0.026719855706808546 -0.07170288257886999 -0.026410597726786944 -0.09255335052646989 0.3865015044902186
2988938000.0 -0.1168454667321319 0.37672969255203015 -0.07221216723597425 -0.0246971619244581 -0.07233625276006007 -0.024467876467873042 -0.0926701206395982 0.3882444224184828
2990000000.0 -0.1140221189864813 0.37777971430279955 -0.07277125640276391 -0.022636993090519433 -0.07290137978991332 -0.022481450362227356 -0.09207666489034855 0.388106213079705
2991062000.0 -0.11148674831702095 0.3790001928514261 -0.07333303908823102 -0.02062216942863616 -0.07334804879754929 -0.020462585485988224 -0.09162602826418703 0.387605182106974
2992125000.0 -0.10901067120853018 0.3803316152074409 -0.0738215757427482 -0.01862240239222546 -0.07396019649569248 -0.018488920886858936 -0.09069958007059149 0.386802000489728
2993188000.0 -0.10656516650148144 0.3813303164193384 -0.07420296143156759 -0.016675344442790955 -0.07423960276665217 -0.016531106682464783 -0.0888516945429109 0.3853936204153357
2994250000.0 -0.10425563999199254 0.3823069717028233 -0.07454324668058127 -0.014653125766450727 -0.07463502091851594 -0.014599909027696638 -0.08644630561007567 0.38397029281856637
2995312000.0 -0.10126551423272191 0.38317393291110113 -0.07479484999806645 -0.01273617090437777 -0.07492135069101391 -0.012634279776811527 -0.0824432080807093 0.38220950329611564
2996375000.0 -0.09906278618040915 0.38416695943691703 -0.07492726131969826 -0.010739664812160266 -0.07526550853063387 -0.010503911688994184 -0.07858835996698817 0.3808395171710428
2997438000.0 -0.09695116534159771 0.38511969911891936 -0.07507787701776511 -0.00875849052140389 -0.07534247964594767 -0.008580120025460821 -0.07353342195137855 0.3802200830613522
2998500000.0 -0.09437107282670071 0.38582300561245203 -0.07519289149979014 -0.006792555747797097 -0.07546200819150996 -0.006486068967838572 -0.06856104970990101 0.38062715376156403
2999562000.0 -0.09196411354909652 0.3864662021899422 -0.07525160131507484 -0.004767837984981269 -0.07557274819244386 -0.004397891991071449 -0.06356701429782854 0.38177230302602594
3000625000.0 -0.0900441465440845 0.3862786742862202 -0.07525194893054153 -0.002934412189557845 -0.07554555965050738 -0.0023350486618048632 -0.05914112787196447 0.38371342605822506
3001688000.0 -0.0876250460694719 0.3873727357091529 -0.07536132931321898 -0.0009010151363359226 -0.07547583212910859 -0.00023054146038822596 -0.05468424087791373 0.3867258831065818
3002750000.0 -0.0851405516650792 0.3879521422626863 -0.07539627933598284 0.0011821211241315167 -0.0751601373871703 0.001786138185851363 -0.05080350860330872 0.38961772355148694
3003812000.0 -0.08252768183176927 0.3890085013637341 -0.07545349715680583 0.0032598197681102956 -0.07516234464431716 0.0037844362173543905 -0.04824488172839033 0.39413852805213845
3004875000.0 -0.08004181716189823 0.38901674546468445 -0.0752805600260209 0.005309777122923944 -0.07501774452723017 0.005715288320509575 -0.046299416623203624 0.3981834922779383
3005938000.0 -0.0778093364025458 0.3895381662685456 -0.07513325790582018 0.007364094204082066 -0.07491082837145933 0.007623903850721524 -0.04607518850113089 0.40237435012719525
3007000000.0 -0.07534435296529379 0.3900018598026733 -0.07494283931714464 0.009380032500154309 -0.07480748482627113 0.00948434599285758 -0.04688352937926733 0.4063003012403566
3008062000.0 -0.07251236219702041 0.3904203899759716 -0.07465301493632502 0.011376454695103606 -0.07465066996449266 0.011426152449074784 -0.047956882466784374 0.408900288481298
3009125000.0 -0.06979010190394117 0.39099914933626234 -0.07428965375548202 0.013480694480093305 -0.07451485563641592 0.013449448984868781 -0.04990025598054738 0.4109499914779366
3010188000.0 -0.0673214275071293 0.3911188989388165 -0.07390583373660124 0.01551845652424354 -0.07421879262619918 0.015435989274126915 -0.05172006466671043 0.41225143228245836
3011250000.0 -0.06476801628145865 0.3920370275794421 -0.07344075561984649 0.017514748037647996 -0.0740945008331206 0.017557251720293997 -0.05444869470472095 0.4121669725142803
3012312000.0 -0.062106406610626996 0.39192553821086623 -0.07300262150615819 0.0195137210451471 -0.07354771696229424 0.019745874333805452 -0.05598243189773736 0.4113893951668759
3013375000.0 -0.05939161258878538 0.39252014912610167 -0.07243065955676269 0.0214404937130872 -0.07312708232616749 0.02184424740648182 -0.05753900126654628 0.4091913233287889
3014438000.0 -0.0568415432574186 0.39312650712366176 -0.07191836456516768 0.023437258440626118 -0.07243628025286127 0.0240502872887994 -0.058397524748053264 0.40664596006032927
3015500000.0 -0.05438656064050904 0.39329627782348486 -0.07123404048644608 0.02533277823542762 -0.07187832633857957 0.026194155613335327 -0.058306498225662536 0.40352743080189085
3016562000.0 -0.051899347756113275 0.3938621282741813 -0.07066221202990335 0.027197653225585382 -0.07095317878862714 0.028173890116939323 -0.057550658267202924 0.39983772200015943
3017625000.0 -0.04955875959296676 0.394481876097169 -0.0699452689680571 0.029018988180172935 -0.06989763602340576 0.030031310459532508 -0.05577791561830003 0.3964058140633172
3018688000.0 -0.04720738402523671 0.3946207954038017 -0.0691215395093676 0.030988296890294087 -0.06884770165913391 0.031996048176330075 -0.05226708932779023 0.39191034167209543
3019750000.0 -0.044817152520058794 0.3953987412687322 -0.06826891566480996 0.03288414602663071 -0.06768617796865921 0.03379803309013729 -0.04845310499801726 0.38943890093435923
3020812000.0 -0.042263655450579474 0.3953378710567725 -0.06711968328147674 0.03464677687021895 -0.06660052917034444 0.03539196935432465 -0.04429204959886473 0.3866428492442501
3021875000.0 -0.04061173236452259 0.3955325610922937 -0.06616694175866629 0.036649609998366826 -0.06546887039482338 0.03710722375171748 -0.03870266328177275 0.38584041536579083
3022938000.0 -0.038366769180664145 0.3960324518473762 -0.06498835015983755 0.03855591565603662 -0.06443333015816151 0.03872392945282773 -0.03346731084169954 0.38404838877550396
3024000000.0 -0.03628293378673199 0.3960214492963064 -0.06381986758506224 0.04042757820159405 -0.06322996749265523 0.04050345536761419 -0.028368787916346016 0.3847847499465444
3025062000.0 -0.03426247635768732 0.3959790560506937 -0.06255073220376298 0.04222751912124939 -0.06226038937369572 0.04206627606691265 -0.023827220858319804 0.386082916281573
3026125000.0 -0.0318974042887279 0.3959762111597471 -0.06124816176311427 0.04411659754493337 -0.06115454097025913 0.043806021115084 -0.019709581498517117 0.38784690381108006
3027188000.0 -0.029972930301242977 0.3961050878960496 -0.05991197957516987 0.045890530238571696 -0.060092901816090824 0.045534754822589486 -0.016712773044501743 0.3903053668470333
3028250000.0 -0.02768393537432115 0.39587622859743044 -0.05853976098797706 0.04755493600591965 -0.058693108006669235 0.04741946055558116 -0.014888119147727202 0.3929290994126509
3029312000.0 -0.025966223235612686 0.3964695675653559 -0.057172177750129206 0.04913835435428117 -0.05748017628272695 0.04906900863535285 -0.012893339793406577 0.39487859646423057
3030375000.0 -0.023940399101147956 0.3964861838817565 -0.0556186346530051 0.05064089769892285 -0.056048018834691495 0.05092796973884348 -0.012717954723952235 0.3967145204003607
3031438000.0 -0.021925799497528764 0.39685710476549746 -0.054051802280656175 0.052151725186615795 -0.05449350012674673 0.05259888912349804 -0.011805306939274693 0.3982676893275683
3032500000.0 -0.020213171953505867 0.39689162569890274 -0.05257676834054416 0.05358841875777392 -0.05277531831030509 0.05429055192060216 -0.011851356137776048 0.3990765422597857
3033562000.0 -0.018482945909538504 0.39705068946601774 -0.050839326782039757 0.05500327085032414 -0.051078009034560126 0.05586745630409564 -0.012102361261662682 0.3990921334994619
3034625000.0 -0.016706052236224126 0.39731169890094287 -0.049337033406587835 0.05634256751520177 -0.04931676772470978 0.057138368250075525 -0.01323948641423326 0.397546515122385
3035688000.0 -0.014982110669617922 0.3977190847430112 -0.04775172879883637 0.05775475648718175 -0.04744822620858499 0.05843461502936022 -0.012345785114514804 0.3961632934224143
3036750000.0 -0.013038763280009682 0.3976905545093838 -0.0460650211859803 0.058948244346720975 -0.045675971789860076 0.05957293502962066 -0.011796754507061104 0.39391226959335784
3037812000.0 -0.011660388131127455 0.39742557026995023 -0.044440484572582775 0.06018092372816076 -0.04384508426723676 0.06062944929489082 -0.010111154990951719 0.39025012664741837
3038875000.0 -0.010037848423066853 0.3977752120789251 -0.04278616309114156 0.061358793255986054 -0.04230001469501556 0.06167869640708093 -0.007974254981026385 0.38687974051366636
3039938000.0 -0.008457969964595264 0.39771762466579214 -0.04102682165586774 0.06243929945117549 -0.040508018881471514 0.06250869854475635 -0.00456652812743204 0.3835381969050916
3041000000.0 -0.007019399725579868 0.3977277265647121 -0.03939073235809742 0.06343630793976443 -0.038906188912826996 0.06348749852350609 -2.0634579619611513e-05 0.3800331918575812
3042062000.0 -0.005292390508696043 0.3976054721870166 -0.0375510330731019 0.06437610219395037 -0.03715894849599755 0.06444127114043423 0.004945703573531809 0.3780817979426074
3043125000.0 -0.003547110731533107 0.3981690053828334 -0.035647396920716744 0.06533562932673553 -0.03548435307045946 0.06535326010309944 0.010590133752658198 0.3754970959969242
3044188000.0 -0.0018619574819639657 0.3978489505860034 -0.03376761307689018 0.06617886388574597 -0.03351876734419445 0.06624120080223554 0.01674946237997773 0.37462971540084916
3045250000.0 -0.0005396460203108217 0.39803092464122275 -0.03181317685214632 0.06696544021980415 -0.0317153382039377 0.06712600497181131 0.022923155456802152 0.3753410193166279
3046312000.0 0.0010574405346695879 0.39795731923801725 -0.029787011067959213 0.06768530174181239 -0.029685929980231777 0.06794201072476207 0.02869099389647282 0.37659646317050094
3047375000.0 0.0023600817591909623 0.3982556644064194 -0.02779656097611684 0.06842007875385295 -0.02763182819610392 0.068763101829193 0.03422491286359621 0.37766533875814656
3048438000.0 0.0037342197110217276 0.3983607259391469 -0.025759717211204878 0.06913148171418718 -0.02553213721588688 0.06948716082536532 0.03948344558198118 0.3794574779026187
3049500000.0 0.005353034895418829 0.3981145383596708 -0.02367259418708203 0.06981130891498723 -0.023420966261876987 0.07004008094412797 0.043550705838289065 0.3829650290023396
3050562000.0 0.006912135468283079 0.39844165544467525 -0.021541448219336734 0.07036303539203176 -0.021342988247721458 0.07044998105259953 0.045867328190248975 0.3866870398548676
3051625000.0 0.00796983870557946 0.3982871309129723 -0.01953024874069594 0.0707116421557284 -0.01911845937742685 0.07093110787305051 0.04752491137584127 0.39026970380307546
3052688000.0 0.009548151401596486 0.3983503467103562 -0.017352899730336876 0.07111423423709282 -0.01691823345575427 0.07114151087470955 0.04881850926316163 0.3925812839518142
3053750000.0 0.010914485306521829 0.3982891450517221 -0.01522462536685508 0.07143991659079288 -0.014876611910484118 0.07143154232888149 0.04908035918215445 0.39582417898920824
3054812000.0 0.012804227567889884 0.39780180911371155 -0.013035025309088942 0.07162253681110563 -0.012795687395273505 0.0715386292850484 0.04840548065222122 0.3975743259600319
3055875000.0 0.014209110768693205 0.39781252688403285 -0.010894259481020315 0.0717886848864186 -0.010763493158140321 0.07184236108594783 0.04798440091118186 0.3995173527657953
3056938000.0 0.016456879639008517 0.3976603041011578 -0.008685125828004795 0.07189863668191662 -0.008674330211728781 0.07205503305049006 0.046841384227912154 0.3994604473930436
3058000000.0 0.01774221639665092 0.3979992923467059 -0.006675237751636519 0.07200906334946246 -0.006729768692098589 0.07225908618138267 0.045283387361902884 0.40021245101380576
3059062000.0 0.019629799284408365 0.39752787625132385 -0.004724296267791811 0.07204057654504054 -0.0046641253966050455 0.07236235325282507 0.04425541941126395 0.39907621268901844
3060125000.0 0.021275650770045677 0.39774537286923445 -0.002691787015140782 0.07195147094444569 -0.002709477401072829 0.07245607183385598 0.043575364362919866 0.39785472362740354
3061188000.0 0.023158323328669007 0.39782989184202777 -0.0007682012371165906 0.0720232808524237 -0.0004888485388654945 0.07242870095829124 0.04415166525966295 0.395316843879194
3062250000.0 0.025033298870236902 0.39810778364365745 0.001223841687117474 0.0719020351302015 0.0014033089761041739 0.07261053525085014 0.04481047858940444 0.3932496609325806
3063312000.0 0.026850156486612892 0.3981595866484228 0.0030818548095173817 0.07185680287045915 0.0036309281234919544 0.07235943085949435 0.04664349750548383 0.39035081202810695
3064375000.0 0.029038766993441503 0.3989283231711464 0.0050888259703886 0.07166066558871356 0.005604611776669949 0.07219915405281632 0.04895332848695243 0.3882923776264162
3065438000.0 0.0309072417826529 0.39876737134340023 0.007068267969411979 0.07153750557097746 0.007784599886648254 0.07176553637485875 0.05235420291664019 0.38682583950841437
3066500000.0 0.03263214714705231 0.39908192588189884 0.009000020780424304 0.07130180976747211 0.009650508543511703 0.07152080693694803 0.05575684347998721 0.38659995906111666
3067562000.0 0.03436998774787208 0.39920038528443164 0.01093432457772417 0.07103747864462927 0.011746340087694675 0.07100262694176343 0.05914402392523561 0.3863152716881174
3068625000.0 0.035860800791539756 0.3997197036464559 0.012882927605056755 0.07074692323262505 0.013519187527565145 0.07056424365500172 0.06282473884863124 0.3873276834869563
3069688000.0 0.03790216879983542 0.3994420577640107 0.014893461133903208 0.07031041478501905 0.015432589029113705 0.06996536140106784 0.06570918944963845 0.3886807568341201
3070750000.0 0.03976169188407179 0.3997556698138299 0.01686252197816144 0.06979246342081 0.01725277311052972 0.06945709223861193 0.06902357785564563 0.39109842709097165
3071812000.0 0.0417735865076692 0.39993513975295547 0.01888328579411628 0.06923530265012305 0.019133281312720758 0.06894538014334013 0.07162633669519392 0.39290296557698406
3072875000.0 0.04331939976123457 0.4004128482816584 0.020845428205173988 0.06855542183305569 0.020944248479903175 0.06831912656472926 0.07316157803037743 0.39546267841627275
3073938000.0 0.04534530843257055 0.40032232049548655 0.022804406614802018 0.06788364420447016 0.022868889700073183 0.06766489547014136 0.07466052258946472 0.3987519319424052
3075000000.0 0.047252789463384126 0.40042514733769274 0.024689160260950013 0.06694909184226112 0.024781700350457087 0.0671151914829443 0.07481722689832528 0.4015926544548498
3076062000.0 0.04900167895379875 0.4002555922474127 0.026573014684240243 0.06609610868524209 0.02664535898295896 0.06631344013664865 0.0748853034933757 0.4039892824347647
3077125000.0 0.051066144624044615 0.400300561568096 0.028441412997687866 0.06517734831369422 0.028501762532746527 0.06559471019698761 0.07346610738025927 0.405996421501785
3078188000.0 0.05293742386472578 0.4002719285358575 0.030096757105954275 0.06424400874185392 0.030408478880151482 0.06458893835659145 0.0724252586156889 0.4072282484555726
3079250000.0 0.05498685922257645 0.40042236070928644 0.031749088715907425 0.06330067346484237 0.032196678244728306 0.06366359306406819 0.07102123855376062 0.407518222020303
3080312000.0 0.05698916060133563 0.4003406135339002 0.0334154870366605 0.06232331217617217 0.03395138136605968 0.06252762340762595 0.06954167919270621 0.4067379981398746
3081375000.0 0.0588657122834691 0.4001973127591378 0.03497566163064353 0.0614112238471617 0.03562988630387252 0.061477904093052295 0.06783831839758839 0.4057899800236428
3082438000.0 0.06052744751409194 0.39995335122529935 0.03646809340957388 0.06023111971607277 0.03715055400135755 0.0602060546156929 0.0675179579432393 0.40260809621754146
3083500000.0 0.06266189929067004 0.39978788691813877 0.038046612092864245 0.05914298488583006 0.038671578519451896 0.058992026959238185 0.06811553665984628 0.399143102452491
3084562000.0 0.06459306591412028 0.3993687789314406 0.03960287262538203 0.05800388133345443 0.04014661111388158 0.05766992419539394 0.06946621316894956 0.3954383106245898
3085625000.0 0.06707485313962462 0.39894553225426566 0.04111897919226771 0.056800545149811164 0.041556816547962956 0.056457890893186355 0.07155119680701832 0.3919066572029771
3086688000.0 0.0692327113399317 0.3987179131599189 0.04265201029012396 0.05552185203113677 0.04297220413713348 0.05519143674365736 0.07468480710889919 0.3880289932911668
3087750000.0 0.07114130698473056 0.3985949867112334 0.044091130423406726 0.05426683596018283 0.04436481044897727 0.05397155612608296 0.07886568410497515 0.3849098297987687
3088812000.0 0.0734873363641037 0.3980960299928042 0.04546896427372573 0.05293469407726795 0.04558989483301354 0.052582569507287805 0.08324373731044042 0.3822034903327694
3089875000.0 0.07641774895521658 0.3976498356485657 0.046800909330437304 0.05152604985416953 0.047022025289828115 0.05128200232414359 0.08770478368389184 0.38096581189064116
3090938000.0 0.07873158398326215 0.3974872587774406 0.04811690186246422 0.04998874952143095 0.04821529582907674 0.049849920903064504 0.09307752608110008 0.3788549651234861
3092000000.0 0.08123851408654394 0.397254298563298 0.04927964854656602 0.048483027161447714 0.04962890127489455 0.048416838732058584 0.09897210988161617 0.37910014462335
3093062000.0 0.08384243027580303 0.3973965653142396 0.05053491337185751 0.046958201162565764 0.05088990628673328 0.046864155297613674 0.10423063389194678 0.3805872174507444
3094125000.0 0.08655135727256073 0.39748740184738024 0.051644071698499536 0.04531692334182366 0.05202549106382929 0.04523009737867942 0.1092181649675706 0.38064949996393593
3095188000.0 0.08918732710334276 0.3977716144637577 0.05276777170339022 0.04375565663453538 0.05325399979385407 0.04361549386247594 0.11323464705711424 0.3829811296020717
3096250000.0 0.0917689849653817 0.3976044569465863 0.053780955431315974 0.04216071390451008 0.05429307241975282 0.04198886995663709 0.11655962647413676 0.3858278552142819
3097312000.0 0.09400648615637362 0.3978928048786041 0.05491026855104003 0.04059404453724354 0.05528477524360573 0.04025715809794116 0.11982669924599497 0.38847511402687807
3098375000.0 0.09672368945129985 0.39839931663055167 0.05586147702894599 0.0389796895442695 0.05631871469520791 0.03867679497625148 0.12245500309655555 0.39099062803586043
3099438000.0 0.0992941587881954 0.39860170336666967 0.05678685142329738 0.037462675609377105 0.05713886317107017 0.03709046519994142 0.12377946744047069 0.39412217660514226
3100500000.0 0.10110638179240677 0.3988821798615743 0.057619836619889044 0.03586645873548507 0.057940803491468414 0.03558647180478388 0.12450261066880788 0.3967012365038751
3101562000.0 0.10388678151134775 0.3992064827578623 0.05854287205376889 0.03428518829868395 0.05861918190785189 0.033947045500612956 0.12451724442598472 0.39801957077611466
3102625000.0 0.10607841678585393 0.39921294250271494 0.059393688024825954 0.03269061662316026 0.059506289615884216 0.03245989372352296 0.1245874923125107 0.3990868826241288
3103688000.0 0.10824106039261051 0.3991997845145143 0.06015558195663234 0.03112380891949661 0.06021288596653564 0.03086205871973056 0.12425614717611849 0.39933174939009186
3104750000.0 0.11115199558978069 0.39943223584103194 0.06086284101835452 0.029404434433933615 0.060934593862222844 0.02927517140389655 0.12435057022811628 0.3973092809975904
3105812000.0 0.11308013679098197 0.3995298061437811 0.0615499158511206 0.02785707809210161 0.061648103920189316 0.027680280184992814 0.12458720697333797 0.3964745893412469
3106875000.0 0.11549215339934642 0.3997559910441799 0.06223893962682525 0.02617391039047371 0.062450759617184284 0.026059605268562606 0.12593616313203157 0.39418884037025004
3107938000.0 0.11820900057403544 0.3997369228935629 0.06278686473528203 0.024395424382352572 0.06306033548699315 0.024182601854340853 0.12711603764282225 0.3910268086822121
3109000000.0 0.12046519339895516 0.39967061899511036 0.06334623125320038 0.022689097248689404 0.06373749165626019 0.022500051492548263 0.13015596862523068 0.3883600525246994
3110062000.0 0.12285043501978173 0.3996728694788102 0.06377401966667136 0.02088792810575268 0.06423772796914372 0.020657033880850818 0.13316894049561845 0.38569157080709326
3111125000.0 0.12541969327076302 0.3995906051852342 0.06420079720721412 0.019163459663089976 0.06453061180071437 0.018878257179879933 0.13746999104212854 0.38391825810419017
3112188000.0 0.12801884995322876 0.3998053699297369 0.06458674173910904 0.01743789624831798 0.06474917567554342 0.01704516996969488 0.14147298045425694 0.3816174830998773
3113250000.0 0.13021830589220057 0.40002597477885526 0.06489652579666423 0.015661053821389628 0.06491582067257021 0.01537149648856135 0.14647733552636766 0.3808567307514743
3114312000.0 0.13313354616933404 0.3998270981081079 0.06500556730391596 0.01387498478853427 0.06501417842987725 0.013564200626677271 0.15089356251779287 0.3801143246995171
3115375000.0 0.13532243753855358 0.39946642193108894 0.0651375444424077 0.012068725683103349 0.06507586810143831 0.01190098520565729 0.1561523497688019 0.3803307701049289
3116438000.0 0.13767597204208704 0.3994619677122589 0.06524090652411706 0.010395781148396508 0.06517385325150622 0.010296388277290382 0.16066281145755643 0.38151916422562343
3117500000.0 0.1404685833527721 0.39905615587571625 0.06523187463289559 0.008552707906551568 0.06527389922310332 0.008508060351357916 0.16525866687007532 0.3825337041643752
3118562000.0 0.14336162030097488 0.3986791307461684 0.06514893619651577 0.006812806200401109 0.06534714751728794 0.006808162646718417 0.16855014268292903 0.3847415493625177
3119625000.0 0.14607455835269953 0.3982595712282432 0.06516070173293201 0.005142996374395552 0.06542781474926675 0.005159208569639829 0.17170924268580973 0.3877293426556179
3120688000.0 0.14843680768831513 0.39771991939660445 0.06517946517638341 0.0034255110984541533 0.06555933268774475 0.0034472962464709026 0.1741215371443066 0.38889628392197645
3121750000.0 0.1514296911128597 0.397695342987159 0.06503583679743216 0.0018192740319475903 0.06563236365392512 0.0017008402501750368 0.1753954008896329 0.39155728566012193
3122812000.0 0.15438971675822877 0.39700532608157785 0.06498392331762615 0.00017916490365379456 0.06559262032414653 -0.0001208320987954767 0.17552019270237054 0.3927024329337412
3123875000.0 0.15707276512408877 0.3966259531806693 0.06493479072747681 -0.001494400782507335 0.06552957268808933 -0.0018289777906225677 0.17561120719389167 0.3933488406234275
3124938000.0 0.16006975221851721 0.3964208214711403 0.06490265750903847 -0.0030707971043943934 0.06536311067306415 -0.003743265650865707 0.17607393477012537 0.3930777248879959
3126000000.0 0.16318704902082784 0.3959662029531593 0.06479336912683213 -0.0047736827016550435 0.06520045075070155 -0.005581139064083935 0.17571241887988445 0.39163556734363564
3127062000.0 0.16548578470099448 0.396003761584239 0.06471509210783143 -0.0064055085830693765 0.06490635981738689 -0.007261769214273815 0.17604587005668026 0.3899072787028939
3128125000.0 0.1689247750206943 0.39532340220194295 0.06452312936821156 -0.008193123022551605 0.06448472765550495 -0.009073972068715661 0.17646432102531615 0.3872911609177686
3129188000.0 0.17122602595279457 0.3954582077513197 0.06439540871101143 -0.009887796267057375 0.06398998540998815 -0.010621658336728373 0.17758634778761245 0.3845300266883844
3130250000.0 0.17411942184633494 0.39482447044298136 0.06413635457077067 -0.011647655775509932 0.06363082440226218 -0.012269038231910756 0.17966356262841202 0.38040792282424685
3131312000.0 0.17676499674966453 0.3945981389912133 0.06382266732823881 -0.013356381696381793 0.06335512635297594 -0.013678510060906745 0.18183926257470093 0.377449671924424
3132375000.0 0.17891316521986214 0.3939431640914009 0.06344797504992712 -0.015027163592640945 0.06293050561779023 -0.015198485023516157 0.18510931386013255 0.37324308265619155
3133438000.0 0.1820598728095151 0.39334928490689514 0.06292647945888526 -0.01673380994223281 0.06253456386650634 -0.016688631345276175 0.1888960269427105 0.3703462643137081
3134500000.0 0.1837190429795475 0.3923854955732135 0.06227342099903385 -0.018402048551786256 0.0620664956807125 -0.018230553418394094 0.19416449537190558 0.366308034688133
3135562000.0 0.18653939641792378 0.3917309088280006 0.06158138607485921 -0.020118421213376692 0.06162142046465544 -0.019735785778489858 0.19988728641330744 0.3632826816037273
3136625000.0 0.18887771299762163 0.39056012231149884 0.060786353033689226 -0.021669451142387535 0.06116499385299672 -0.021407864330108703 0.2055341556238021 0.3614845747710281
3137688000.0 0.191147421974214 0.38919080740248335 0.06002540841431631 -0.023143233823582226 0.06055228250526422 -0.023027333370997768 0.21175800452453747 0.3612597812471992
3138750000.0 0.19417337355247966 0.3880986695310141 0.05930038839159692 -0.02466594866404342 0.05993902506636737 -0.024707210495294694 0.21809220982219066 0.36173186702374277
3139812000.0 0.1966077140279266 0.38699700425707106 0.058536076004956354 -0.026060863538140296 0.059252042296079055 -0.026322580910572272 0.22339111542507645 0.3629855506146817
3140875000.0 0.1990579062332106 0.3859072683191232 0.057823756925576904 -0.027401472633594257 0.05853327340506614 -0.0280086151251093 0.22844642570758641 0.36546015401974735
3141938000.0 0.20190124139726032 0.3846510606145658 0.05703183840733022 -0.028779243261433746 0.057557880740836224 -0.029588980327697294 0.2324255335742041 0.36739358759670454
3143000000.0 0.20438060101636585 0.3836935495213305 0.05633174324486783 -0.030141118267747225 0.05665317407359727 -0.031076980359941005 0.235673179618514 0.36965298409479486
3144062000.0 0.2068337141726093 0.38254128946113514 0.05558980835258038 -0.031369505345294056 0.05568578205540313 -0.03246203032454662 0.2368429908413181 0.37190423998363875
3145125000.0 0.20947430429788091 0.3813485452159866 0.05488332830800927 -0.03275294038876375 0.05468341199378506 -0.03385118068511182 0.23817419096147158 0.3736313231796188
3146188000.0 0.21200025753104548 0.38025287391841217 0.05411276575761474 -0.0341484953575137 0.053711149208806055 -0.03514808879107844 0.2382821642649643 0.374370559330309
3147250000.0 0.2143240618140348 0.37891399306518087 0.053312765156995325 -0.03559563049036121 0.05272568163554573 -0.03639962745346122 0.23865377224984907 0.3738732413126944
3148312000.0 0.2165905999210552 0.3777414924191133 0.052525290722382476 -0.037053337313444096 0.051821818175056655 -0.037565460293730604 0.2380685545507946 0.37338851587530236
3149375000.0 0.21848295108848773 0.37634448626991324 0.051569814890682526 -0.03847631592746663 0.05103077279900531 -0.0387516066653661 0.23780410899999602 0.3720807314009809
3150438000.0 0.22073561689536828 0.3745005960356075 0.050628783160697535 -0.03986816320297785 0.049992330317360396 -0.04004710032018313 0.2377437074920382 0.36915033884703374
3151500000.0 0.22341002970228338 0.3729333946256891 0.04958031000682694 -0.04132285604568148 0.049023981158024255 -0.04118763435382573 0.2378824002969349 0.3658262200032831
3152562000.0 0.22521278815537912 0.37124969551949716 0.04850646146182029 -0.04260772160629448 0.048167557573571364 -0.04233460172525594 0.23756608000973853 0.3628205840182367
3153625000.0 0.2277655829879248 0.3698645245182832 0.047231647144896395 -0.04396293317306219 0.04710620280040048 -0.04373520160277135 0.2392501325832136 0.35796500247036134
3154688000.0 0.230116338682399 0.3683887353422258 0.04597728763200993 -0.045223888054188685 0.04603037507565178 -0.04504976816054391 0.24120876933593335 0.3531194676432941
3155750000.0 0.23223554281914544 0.3666043117662505 0.04466458850978247 -0.046327161798421904 0.04484562295852298 -0.046214863552387755 0.24355459847434963 0.34829851748786106
3156812000.0 0.23448459180717643 0.3652624240183378 0.04328905701385381 -0.047461398620907716 0.0434192592088102 -0.047473952496608 0.24754109476056152 0.3436670934788076
3157875000.0 0.2365112569349474 0.3635892286316128 0.041921067360139085 -0.048428524805266056 0.04207983219787984 -0.048614981439330324 0.251878970926212 0.33946743463580603
3158938000.0 0.2387627713922466 0.36195714608712065 0.04055110049604341 -0.04935741091396815 0.04074106415466064 -0.04977008703408121 0.25661484718141164 0.336845400461653
3160000000.0 0.24122009801147792 0.360417153675515 0.03918882862621602 -0.05027894838204457 0.039268703676570586 -0.050767880352571154 0.26153210622423306 0.3341009969810287
3161062000.0 0.24293313370084085 0.3588679086260388 0.037882156568319045 -0.05101961608643697 0.03786497393743095 -0.05164878827028068 0.26659111858981976 0.33295613283074477
3162125000.0 0.24466251481147144 0.3570751646495662 0.03651841461438039 -0.05188632575328338 0.03643588164005925 -0.05245525165749521 0.2715047859524716 0.332222720671933
3163188000.0 0.2466659159660917 0.3553001883103994 0.035260893675316984 -0.05267676024354318 0.03508396913034292 -0.053173725082245576 0.27484868884068564 0.3331491285847054
3164250000.0 0.24807776241236573 0.35330725689096976 0.033937869028958574 -0.05354286189265338 0.03374615911103947 -0.05393378361915768 0.27792172683775157 0.33421651458991125
3165312000.0 0.24974253329516988 0.35131938970477766 0.03263763235389849 -0.05421925730565718 0.03232598808769008 -0.05473805482279309 0.2795455426915302 0.33478969119829194
3166375000.0 0.251935123546014 0.34911064752594256 0.031364690214006875 -0.05512713002130404 0.030925883616051066 -0.055469685518307416 0.28079635919366336 0.3360584101655548
3167438000.0 0.2535518215448553 0.34662474363284523 0.029830841295704905 -0.05596927511395591 0.029454234219274986 -0.05630299186957818 0.2808777798320304 0.33580018928183836
3168500000.0 0.25558873265526616 0.34424037081832926 0.028563130431589544 -0.0568419275672894 0.028189809139179105 -0.05712766656000864 0.2800343148223142 0.3364662157214681
3169562000.0 0.2574113348540716 0.34222678797094613 0.027052370276353613 -0.05771659252626876 0.026684198282016576 -0.057919811244261966 0.27956769074277305 0.33540763720571914
3170625000.0 0.2593211725654165 0.33986571383341624 0.02556101120727525 -0.05853796159471505 0.025178439707309215 -0.058783532989367795 0.27842034756780504 0.3327963385064772
3171688000.0 0.26149843406239787 0.33733232196620433 0.024053055004330675 -0.05933585534148056 0.023662135857380116 -0.05964245421706303 0.27793411666054313 0.3308045729459333
3172750000.0 0.2635054204392326 0.3353669124423365 0.02244140970543151 -0.06011401110251453 0.022091760676252677 -0.06026090600715027 0.2764672555449271 0.3279217557382995
3173812000.0 0.2661229656224078 0.33334162969564174 0.020891864748595584 -0.06084572624044922 0.020435895820570087 -0.06096024281286319 0.2759312653393999 0.3240393572483331
3174875000.0 0.268186856956454 0.3310286890169899 0.01917617334694063 -0.061459438064789915 0.018890423806386798 -0.06159376286658985 0.2755445120791818 0.31906644660174593
3175938000.0 0.27019164752482666 0.32911174913527136 0.01752078794092378 -0.06206328516749097 0.017344748478989133 -0.062012348642936296 0.2758449263310356 0.314153900423192
3177000000.0 0.2724025375891215 0.32710433254512356 0.015845002570667184 -0.06252312036734503 0.015703908950019926 -0.06256559443079258 0.27705993200456297 0.30832508518829405
3178062000.0 0.2741725507209657 0.325262815161918 0.014261517719808508 -0.0630262856863184 0.014108091381535593 -0.062946782969662 0.27945858072032365 0.30283844710360414
3179125000.0 0.27656122919808884 0.3231358024750306 0.012589574176034481 -0.06340806054785723 0.012514133468427816 -0.06333035404536336 0.2821030805563484 0.296989901184942
3180188000.0 0.27818223618200727 0.3210432410567177 0.010967101724720301 -0.06370017071145342 0.010863701609465972 -0.06366214067366781 0.28674761138814525 0.2924003230331466
3181250000.0 0.279885559663806 0.3189057150772509 0.009353359355103646 -0.06382925242242264 0.009350848763915088 -0.06397813700002146 0.29084745045468535 0.2877653167630973
3182312000.0 0.2817587879414661 0.31695620157358795 0.007758156552659652 -0.064043887755613 0.007697664689628577 -0.06439707462158446 0.29632255787249484 0.28486037876697184
3183375000.0 0.28345230165251933 0.31509912484262464 0.006154540542421145 -0.06428568214991738 0.006065125765208079 -0.06453212146848394 0.30182474246765356 0.2820792269392503
3184438000.0 0.2853493777763258 0.3136396133429667 0.0046881533352375 -0.0643792705291158 0.004449168771688753 -0.06480862395716132 0.3056647875279702 0.2816241033722089
3185500000.0 0.28695025899865895 0.3113784481710998 0.0029543765582455417 -0.06444432113438403 0.0027529978645461574 -0.06498367538695954 0.31045367160100884 0.2806602185237827
3186562000.0 0.2888056699505811 0.3095556411706486 0.0013592525816707869 -0.06452135901065989 0.0010090715289536704 -0.06502850315631435 0.31340159306936094 0.28054219741913244
3187625000.0 0.2907165813941855 0.3075554037614368 -0.00030572760676935275 -0.06464296024237218 -0.0007242441382808008 -0.06505151000230733 0.31649571311634017 0.28058494792638133
3188688000.0 0.2920302029479048 0.30581783964033843 -0.002062304440010387 -0.06472773699568656 -0.0025407288627315094 -0.06502229984305737 0.3185956482023212 0.28007075682108196
3189750000.0 0.29354719762110415 0.3039741609796742 -0.003778664887812531 -0.06481871098788812 -0.004422198831980496 -0.06495798232585122 0.3205629416239805 0.2805806898955594
3190812000.0 0.2949290147718389 0.30195348525062027 -0.005528759473744685 -0.06483054373221944 -0.006158122290762781 -0.06494672579556234 0.32138525256910233 0.28089422234217204
3191875000.0 0.29650980190769094 0.3003957759417618 -0.007278601932285414 -0.06483141162975774 -0.007844560046002027 -0.06481659942381775 0.322046488244094 0.2800276429953626
3192938000.0 0.29749702412803614 0.2983842043577069 -0.00907328547388706 -0.06474091634109504 -0.00964716194461498 -0.06465184500343472 0.3218311925207261 0.27878582323521905
3194000000.0 0.2987891818849748 0.2964949863570062 -0.010875678365116631 -0.06463425685128008 -0.011207463481540204 -0.06444527187028903 0.3213489943477016 0.2772817905596604
3195062000.0 0.30007902115264184 0.29439011724741976 -0.01271052405334331 -0.06429958231731002 -0.01300810121680884 -0.06415657043758921 0.3208911153771754 0.2748335128305559
3196125000.0 0.30167852222984476 0.2923549960239551 -0.014530594266625669 -0.0640192179422641 -0.014735727801235473 -0.06387787668773091 0.32024823438656624 0.27162237228763236
3197188000.0 0.30279669144526056 0.2906001640938599 -0.016316673597828173 -0.06357991545539211 -0.016566020744740378 -0.06339725783834944 0.31935210838286987 0.2672915977697346
3198250000.0 0.3038634265407195 0.2881769460873028 -0.018128105609278244 -0.06300982926767457 -0.018342847488024793 -0.06316408554006454 0.3203710354501346 0.2625449298267371
3199312000.0 0.3058121951920112 0.28606861383852694 -0.019978541025988058 -0.06256482186543841 -0.020060659387107424 -0.06267767672262582 0.32159876407166726 0.2579958863177818
3200375000.0 0.30685542065455956 0.28381541852915665 -0.021708727454816428 -0.062001742314235636 -0.021828899913482934 -0.06212938662364542 0.3240293486233363 0.25306634225135866
3201438000.0 0.3087364375901734 0.28188950446509414 -0.023366774739463154 -0.0614912935359316 -0.023628927774603507 -0.06162337802692113 0.32747375335026907 0.2488491967065121
3202500000.0 0.3104742134434443 0.27981002774023794 -0.02496696510162643 -0.060867591535764695 -0.02534994254118416 -0.06110731035675629 0.3306038482819178 0.24564437456294752
3203562000.0 0.3121478059937336 0.2775774877568173 -0.026575332902981707 -0.06025106793316254 -0.027047663671645683 -0.06034794730803133 0.3350293579614071 0.24254905675143001
3204625000.0 0.3141370002301151 0.27575003476409615 -0.027995601752891282 -0.05951397118366275 -0.02857403800101125 -0.05957369467484734 0.3382730199249271 0.24118117857996127
3205688000.0 0.315647704302503 0.2738724430916375 -0.0295246741069046 -0.05881029440373796 -0.03012003384565231 -0.05881823103866273 0.3422994370349899 0.2400751091717341
3206750000.0 0.3173044292744049 0.2724934917890328 -0.031090661482428148 -0.05809266698023457 -0.03166271155589437 -0.057966827223867756 0.34642354034753264 0.2397738747393743
3207812000.0 0.3194595778231146 0.2706095353664236 -0.032667763112559846 -0.05726139220336312 -0.03314973056940974 -0.05715608232111429 0.34977280398638094 0.24038181576630635
3208875000.0 0.32046146324529695 0.2692747806412416 -0.034240883509352824 -0.056492045456018034 -0.03464622008181059 -0.05632467231377761 0.3520503154035748 0.24078207269476617
3209938000.0 0.32235007138231436 0.26779058401271677 -0.03585736838410171 -0.055716104840462105 -0.036198381187052875 -0.05542155781729321 0.35467409906411473 0.24237664879826293
3211000000.0 0.3238385137426235 0.26629249045615433 -0.037547834963082005 -0.054772975379687255 -0.037779694797393286 -0.05452872816646961 0.3562650877205391 0.24408156953958673
3212062000.0 0.3253921680189472 0.26542519184975993 -0.03909462235534754 -0.053963593827805585 -0.039236977346119015 -0.053751136060693025 0.3566198543551435 0.24642370139179018
3213125000.0 0.3264536016263893 0.26391943056046224 -0.040679820217473746 -0.05291451747655184 -0.04086628928864825 -0.05267574658568104 0.3563954960249439 0.2477863820316976
3214188000.0 0.3276436633363989 0.26211168180011474 -0.04227912403213807 -0.051882745786742575 -0.04227914372663114 -0.051776544673439735 0.3547445627738186 0.24877585977789288
3215250000.0 0.32881437227729765 0.26080834734353703 -0.04379310094275921 -0.050756205800282034 -0.04392566908544731 -0.050717644210111185 0.35309888244556775 0.2497684800217277
3216312000.0 0.32985587426558066 0.25942842335485194 -0.04516574282569708 -0.04956873000677795 -0.04536578689415857 -0.049545706059080305 0.34939784926875245 0.24990390105098312
3217375000.0 0.33136610008923595 0.2578771194008656 -0.04669303082506683 -0.04823724730559757 -0.04681245850078333 -0.04839236946388842 0.34703589954854686 0.24721651214399787
3218438000.0 0.33217999182134195 0.2562276651089355 -0.04799650943718871 -0.04697273515271541 -0.048318790189222346 -0.047073732367640835 0.34413973226521893 0.2448627611784213
3219500000.0 0.3334693618478398 0.25491518673172947 -0.04935661207583277 -0.04568334221083834 -0.04966352114678712 -0.04567090000291799 0.34099807126266074 0.24137527960975186
3220562000.0 0.334861770657272 0.25373259646533436 -0.050590491266510385 -0.04439722631556134 -0.05100853360554334 -0.044295255961457024 0.33897785449414736 0.23733792477768512
3221625000.0 0.3353876150832957 0.2521569846151155 -0.0517483662499025 -0.04299190909208578 -0.05217949292534819 -0.04293520603222147 0.33796060716478177 0.23231146514344506
3222688000.0 0.33662983678170455 0.25086474574707507 -0.05292457898042565 -0.04170843635933541 -0.05331984895607312 -0.0414891772769622 0.3374686065926419 0.22789143332519576
3223750000.0 0.3371501027221841 0.24968229964847183 -0.05401113101225436 -0.04040132534513916 -0.05431285729508984 -0.040066128199135596 0.33777691762555906 0.22281545663446894
3224812000.0 0.3387915370940991 0.24791488922115984 -0.055141998867038994 -0.03894411355013401 -0.055445081629736125 -0.038651460396350104 0.3394084388102877 0.21761545268852914
3225875000.0 0.33946510490338916 0.24665875473237753 -0.05617103204099073 -0.03753695392170649 -0.056449480911053014 -0.03728145920411398 0.34119824850503794 0.21313087698140176
3226938000.0 0.3402121186561485 0.24526638200682815 -0.05717574750361134 -0.03617060956175874 -0.05721444483080861 -0.03595161544194612 0.34354641474912073 0.20976331997279138
3228000000.0 0.34063966954894653 0.2432313565951028 -0.05808104848615428 -0.03459235870872643 -0.05826955725679308 -0.03440178415027219 0.3466081940359309 0.20633542055852783
3229062000.0 0.3415012157500306 0.24183978632272804 -0.05894452125277242 -0.03318466903533428 -0.05906558203982012 -0.0329315375317599 0.3486893479289608 0.2050707468241351
3230125000.0 0.34262204438986915 0.23979399176931215 -0.059808654321113375 -0.03143148942773053 -0.059974987832490986 -0.03126479412880167 0.35097075050046256 0.20193931587699845
3231188000.0 0.3436328228109433 0.23846673717988276 -0.06067123003041598 -0.02981880243303588 -0.06091164425374169 -0.02958923901076003 0.3540095316809782 0.20028196018128408
3232250000.0 0.34488794458237554 0.23627400317276903 -0.06152383116455281 -0.02813289410138462 -0.06164165383096703 -0.028031596495667954 0.3555634209824036 0.19966085812681683
3233312000.0 0.3456924577017804 0.23481176340603468 -0.06227230637638115 -0.026452281474514665 -0.06242711140574087 -0.02626294298440192 0.3569071221062115 0.20054126820142643
3234375000.0 0.3466733054609765 0.23282118966740606 -0.0630367776456873 -0.02469487072529379 -0.06318291229241987 -0.02445979619703598 0.35773751814940447 0.20007028978142555
3235438000.0 0.3483696466834966 0.23117534442230717 -0.06387683659892225 -0.022877846210156268 -0.06395111868746968 -0.02267000903506895 0.3578563096130784 0.19886773156684268
3236500000.0 0.3490880464469039 0.22935937101157372 -0.06448780168423175 -0.0209552995828833 -0.06451268362057448 -0.020867123400015838 0.35764039051621754 0.19781871428794712
3237562000.0 0.35084973736783426 0.22817777625299443 -0.06517394025639844 -0.019203888925619517 -0.06525627312081647 -0.01904192198513929 0.35630968941178526 0.19687230644423484
3238625000.0 0.3519601766260776 0.2264750580448111 -0.06579546117506714 -0.017368591113076665 -0.06584015780045276 -0.017205072339119453 0.35449321560599656 0.19503819363599706
3239688000.0 0.3530546426576821 0.22472273553475364 -0.06633207501882961 -0.015502484602706153 -0.06638990910963863 -0.015314097249868477 0.35293536767744293 0.1918963004594151
3240750000.0 0.35385229061154433 0.2235059019237138 -0.0668434774805433 -0.013691896015349626 -0.06698933383309857 -0.013578600511132771 0.3518022461956022 0.1882224920447082
3241812000.0 0.3550742973513134 0.2216660858977256 -0.06721222275893868 -0.011706013751947327 -0.06750050360971523 -0.011734729952074564 0.35116040667639553 0.18340690699547227
3242875000.0 0.3565469619580362 0.2209790918614006 -0.06770785569119706 -0.009966210198222377 -0.06798873000096829 -0.009908115040620833 0.3501768983409368 0.17852657296784563
3243938000.0 0.3572205729007669 0.21879247297568485 -0.06804092502338639 -0.008087505954383822 -0.06840092877196877 -0.00788316577047492 0.35094315335597587 0.17426339118871412
3245000000.0 0.3578448096176538 0.21736825425409792 -0.06830808602863982 -0.006220560338730109 -0.06865408346362217 -0.006108617142290377 0.35100608060887983 0.16710249708480704
3246062000.0 0.3589397226337787 0.21572253794413893 -0.06856662427932546 -0.004357522839799913 -0.06902126134371274 -0.004241239134015628 0.35415965077371026 0.16160936758028102
3247125000.0 0.3600662165156624 0.21384665374400672 -0.0687980648076907 -0.0025414086784776454 -0.06911577529673497 -0.00223648344510995 0.35651899224632594 0.15548473117516343
3248188000.0 0.36102519559438734 0.21190518218243606 -0.06895654335174098 -0.0007415215358207538 -0.069264176905722 -0.000383717155706308 0.36109112364296087 0.15096109277209824
3249250000.0 0.3618217248325708 0.210117477260476 -0.06899829586957633 0.0009917613056859647 -0.06935527919815443 0.0016074852814241512 0.36495908312810416 0.14542762492202768
3250312000.0 0.3630348433317947 0.2084531600218709 -0.06900110615345158 0.0028457088837375195 -0.06935764978877489 0.00344581019504798 0.36997322327136484 0.14184659863105872
3251375000.0 0.36391761526143857 0.2059409904560925 -0.06896789889564889 0.004632678346664592 -0.06914880330779331 0.005303907407768547 0.3751766423538397 0.13847746475831593
3252438000.0 0.3650633144679544 0.2043682772341691 -0.06897265298360514 0.006449952664033952 -0.06897457775153172 0.007095666019758438 0.3808875521391537 0.13637858572601622
3253500000.0 0.3661419527929465 0.2028483643764005 -0.06898046850312287 0.008263555950830951 -0.06883834119641016 0.008827638621016433 0.38682541689770555 0.1359587268676607
3254562000.0 0.3671623838438315 0.20027642428544898 -0.06865649131968575 0.010206638519933578 -0.06848569928519904 0.010667134002269455 0.390540068125407 0.13486903115497073
3255625000.0 0.3683651124907843 0.19849163043276144 -0.06850551814288354 0.012102717150170002 -0.06838817067490646 0.012640690530028854 0.39542839240278105 0.13485203313059288
3256688000.0 0.36920781092389066 0.19664566537561473 -0.06814958335375544 0.014030997769223407 -0.06792466209052324 0.014331770714689551 0.3983919856043134 0.1359036131342882
3257750000.0 0.37040245265589367 0.1944364858190941 -0.06777666861891542 0.015937964006677695 -0.06760249809229117 0.016204575507378634 0.4004935547133368 0.13669528086905508
3258812000.0 0.37158643356615345 0.19197128850490877 -0.06724066761349055 0.01796491719427326 -0.06714317569689146 0.018118818646260693 0.4018611357219875 0.1374031992678154
3259875000.0 0.37256714439185634 0.19000603953400602 -0.06667739002024484 0.01990567509062478 -0.06659849302338468 0.019957298738632043 0.40192980704606457 0.13797499458051768
3260938000.0 0.37343661766348535 0.18745754904292644 -0.06599446928788377 0.021913320786509604 -0.06589677915740665 0.021800261979337248 0.40110595895077206 0.13763925923861195
3262000000.0 0.3745345771878807 0.18485628735241313 -0.06527221755990256 0.023801551759070887 -0.06542945087306137 0.023875130377394537 0.40122416821296325 0.13721186193821341
3263062000.0 0.37558874035845585 0.18258088865735192 -0.064569424141346 0.02575318703348104 -0.06460132125764702 0.025757426080693955 0.4001022445476689 0.13520906239168792
3264125000.0 0.3768652322593557 0.17983051556792137 -0.0635909335040449 0.027481289413291102 -0.0638788538207426 0.027779493330469127 0.39817587341884964 0.13368570016371026
3265188000.0 0.37812194389860976 0.17730651488062235 -0.06282248779065729 0.029318228456232914 -0.06302661485083516 0.029626088899702314 0.398338793791035 0.13099718007829936
3266250000.0 0.3795873862974068 0.1750062193632239 -0.06188880310575321 0.031007093512380207 -0.06210917049807783 0.031376356003990365 0.3968265888637917 0.1287576484207111
3267312000.0 0.3811426682352817 0.17254462572462825 -0.06106650285807431 0.03264244844898721 -0.06123122038377253 0.03306053543374784 0.39661516785545686 0.12478673191147441
3268375000.0 0.3820727819372933 0.17060232557296454 -0.06010685232373254 0.03418766620537238 -0.060299125461910213 0.03474310688575575 0.39695823311082945 0.12151031558156057
3269438000.0 0.38313183279686397 0.16794979483112357 -0.0590885541093763 0.03578786139450942 -0.05913586644617172 0.03641288369194305 0.3977487348484926 0.11680219810418827
3270500000.0 0.3843513449057316 0.16565382451020758 -0.05821907633898797 0.03730722948846437 -0.05818754364527779 0.03802327298787017 0.39936565856490747 0.1132864748663727
3271562000.0 0.3855538520534783 0.16325505528071182 -0.05726040219484314 0.03894463770845448 -0.057154901563647845 0.0395229369748 0.40162907429085387 0.10991332078998582
3272625000.0 0.3868170746714643 0.16095855278844273 -0.05635638757255194 0.04047275625891369 -0.05611321963800372 0.04108558770402864 0.4048603720753644 0.10679636962426264
3273688000.0 0.38777060515113443 0.15831373985723865 -0.05535242183797263 0.04199304888410605 -0.0551508899697602 0.04251860762624806 0.40780824552445816 0.10423649755603769
3274750000.0 0.3887347035586508 0.15641430495089834 -0.05439063131332969 0.043533918900487176 -0.05396382774967217 0.04397143854764759 0.4110787076469455 0.10239091274888512
3275812000.0 0.3896813342288888 0.15349318332163697 -0.05326845475581358 0.04507775209016743 -0.052937224324501236 0.04552243258749698 0.41500454249058744 0.10230112700897252
3276875000.0 0.39055011088924496 0.1504101452897625 -0.05206450331753665 0.04654654599119939 -0.051693468867610934 0.0469138743440211 0.4172842009616121 0.10247813841135896
3277938000.0 0.3914440939359031 0.14780983246516816 -0.05081075966949424 0.04797975902979142 -0.05040674656170681 0.04817199745126153 0.41838629245904774 0.10396758909641732
3279000000.0 0.39239759731801127 0.14483887305089865 -0.0493951703688946 0.04952058536686129 -0.04901626938562336 0.04981276946297821 0.41975863326947804 0.10420147099897602
3280062000.0 0.3934326524201968 0.14215587935395452 -0.04792920045504963 0.05097160743463955 -0.04773927526043864 0.05120226909209488 0.4192117055728143 0.1048513053755367
3281125000.0 0.39476156014411756 0.1391695039327517 -0.04642439157801611 0.052371500089779116 -0.04631303690619441 0.052643779663225615 0.41836612799868217 0.10550565386564194
3282188000.0 0.39600339747388813 0.13623787775957857 -0.044949023756766564 0.053776198724772115 -0.04476009557700156 0.053999646472575775 0.4172147807427409 0.10538965273905115
3283250000.0 0.3968515344746725 0.1330142880469437 -0.0433503406172186 0.05501581129176788 -0.043174454627990716 0.055280381367093546 0.4143516700739747 0.10498202545941486
3284312000.0 0.3984313188943814 0.12992585804499526 -0.04180688533091173 0.05628713480904201 -0.04173022279053003 0.05650455055847327 0.4117397426378784 0.10407400977445919
3285375000.0 0.3997925623465783 0.12760570055469708 -0.04026396322779359 0.057423721203459545 -0.0400628576726173 0.057724781277439165 0.4089337862612637 0.1019092692818627
3286438000.0 0.4008708932207431 0.12464461417586262 -0.038585660928001315 0.058575639169442875 -0.03855545118065593 0.058754527686614245 0.4055577087213132 0.09902949948256722
3287500000.0 0.4017274643310339 0.12185847087727229 -0.036991814411976284 0.059533398369526785 -0.03696714572754028 0.059724518473709916 0.4016968170313592 0.09515761875204667
3288562000.0 0.40333243681700487 0.11851018874776766 -0.03542073007733893 0.060605489462699245 -0.03515220488420208 0.06084714571630051 0.3994467890034186 0.08984795784262328
3289625000.0 0.4042820722480458 0.11600804437807118 -0.03369725206008572 0.06159891986981078 -0.033673327982945256 0.06197407985336916 0.39719826828407523 0.08456563438734642
3290688000.0 0.40538388600435404 0.11337721837034252 -0.032131589723291845 0.0625315357231987 -0.03197716436016492 0.0627374303770636 0.39467756887543015 0.078623561135386
3291750000.0 0.4066652410897055 0.11037892588338842 -0.03048738584198364 0.06350174037426694 -0.030324764045608212 0.06383020233803481 0.3942760025868488 0.07113188188949991
3292812000.0 0.40732352250098086 0.10752086531178393 -0.02883618759222494 0.06438697695571993 -0.028625792013683926 0.06472481874720783 0.39433722110841546 0.06547875934567621
3293875000.0 0.4085569347272179 0.1050174124967569 -0.027196727688650335 0.06527597505627189 -0.026979977218257685 0.06568776849069567 0.3956195253039528 0.058014265382021604
3294938000.0 0.4094208552237129 0.10230049798719021 -0.025450941917786785 0.066112046399527 -0.02519094233116689 0.06643183054357427 0.39816555817747923 0.051600315992393425
3296000000.0 0.410297179393767 0.09933722152899632 -0.023746850042874756 0.06690082640697954 -0.02352496892005707 0.06719077162774685 0.40006869149743235 0.04697545612971916
3297062000.0 0.41155848410636897 0.09677357940601722 -0.02191872119009186 0.06764334081222155 -0.021617515937914736 0.06793973034682273 0.4028586102912754 0.04126089223677621
3298125000.0 0.41259505179224376 0.09409247663338381 -0.02016298676767784 0.06836245813782707 -0.01991323068816992 0.06850163360752352 0.40631460471073977 0.03869582169018612
3299188000.0 0.4136479173346109 0.09129032106268047 -0.01826753010699448 0.0689555225198959 -0.017978667393187066 0.06920078932028532 0.408262019809356 0.03483676189364738
3300250000.0 0.41451673065001376 0.08938021973765119 -0.016363541047000926 0.06956354441864457 -0.016181949766691732 0.06972989946365366 0.410264178140524 0.03201427678357162
3301312000.0 0.4154763164642204 0.08642390680743842 -0.014364489827104057 0.0700556602427898 -0.01413422980647547 0.07019079335681404 0.4118488806288359 0.029902269230693473
3302375000.0 0.4158709081066078 0.08393781369363579 -0.012370453155573774 0.07048506969791228 -0.012155124022249407 0.07061578535992259 0.41238111148798634 0.027786922721947906
3303438000.0 0.4160929500566883 0.08163885108172188 -0.010389889662569 0.07083334093123736 -0.010178179101997878 0.0710260122600925 0.4135608744153817 0.025932496342310613
3304500000.0 0.4170742547779646 0.07900441752930759 -0.008331650288424005 0.07111211883142744 -0.008066646408296754 0.07130159932807548 0.41317054146170146 0.024530797892190325
3305562000.0 0.4169081174479355 0.0763934879817882 -0.0063349520883581355 0.07127912286445638 -0.006028057490946665 0.07143937641540404 0.4115594212249483 0.021351338752904805
3306625000.0 0.4172025669640128 0.07403729188084994 -0.004318514550138483 0.07142739251350791 -0.0040179360066606 0.07159635802799719 0.40967595783407634 0.019397902745373195
3307688000.0 0.41731924511809776 0.07135929738819809 -0.002285858267860565 0.07151980944239933 -0.0019372928847216538 0.07160921696637905 0.407950058532581 0.016871764434009246
3308750000.0 0.41776090329914833 0.06832260652775626 -0.00019340335151704334 0.07155682297641178 6.27827324072448e-05 0.07170693535825656 0.4054873919680538 0.01264178026984477
3309812000.0 0.4179641308817797 0.06587706124254124 0.0017737599455039655 0.07146887729727061 0.0020430550198083774 0.07168457194183032 0.40297249967473725 0.007704042332667863
3310875000.0 0.41778970515136266 0.06275110270689642 0.003875378177971281 0.07148480671327578 0.004293196498810532 0.0714698676931405 0.4015526055106095 0.0020126843191098274
3311938000.0 0.4184291583085592 0.060026099950685245 0.005862675736596381 0.07136055115634912 0.006221383577665936 0.07151211666795847 0.3990233191141371 -0.0030748524687307767
3313000000.0 0.4183881943059121 0.05684344198983008 0.00787379522796651 0.07122084377241177 0.008174480873413884 0.07131749743934192 0.3992861993025052 -0.009302790967529086
3314062000.0 0.4188710343591123 0.054064224088680814 0.00986433640160144 0.07114503700482043 0.010102049441157609 0.07115673505694121 0.3990419834005893 -0.016048851523397422
3315125000.0 0.41887342676925543 0.05062546429017374 0.01189813618257644 0.07100396708997121 0.012178202854167045 0.0710132433283281 0.4012191646772346 -0.02251661295762863
3316188000.0 0.41935744835955757 0.048233623481193956 0.013748147314375042 0.07087383439728799 0.013979880638762406 0.07094233165335723 0.40415285045940147 -0.02821399111706759
3317250000.0 0.4195950081122541 0.04570381340117672 0.015692271948847765 0.07054539134669616 0.015962493640156537 0.07067912508026036 0.406212021374344 -0.03363588765224995
3318312000.0 0.4202514321360627 0.04266513494169345 0.01752279990154089 0.07036249162575685 0.01781044651031427 0.07043937877306355 0.41137484973784433 -0.03815770726406867
3319375000.0 0.4205580399369885 0.04023397798001614 0.01952097803846142 0.06982046800638192 0.019779482223647664 0.07004784629952263 0.41433351026958093 -0.04240695872259635
3320438000.0 0.42078076427126476 0.037431814866565084 0.02143141914730392 0.06934432550228967 0.021801496398663644 0.06964354464417231 0.4186963419605884 -0.04475210513564421
3321500000.0 0.420691385736798 0.03492316763718942 0.023305503846316612 0.06886856213453277 0.023646896049075005 0.06912140654565396 0.42406357450672033 -0.04600182932863821
3322562000.0 0.4211402946639798 0.032544358537575306 0.025183106875625094 0.06819334654885666 0.025658512252126047 0.06859860661712779 0.42721798287858087 -0.04723167669167592
3323625000.0 0.4210637125154047 0.029788865765067788 0.027090941279742622 0.06753550583247318 0.027532074784984314 0.06770137018515493 0.4306347688997335 -0.04723663142968917
3324688000.0 0.4211337890138957 0.027650712384641896 0.02888727930285581 0.0668147886188641 0.029418608123320037 0.06696162024101908 0.4326687470680886 -0.04534324994562581
3325750000.0 0.42131759781823297 0.025214890257873903 0.030667420615488716 0.06598345989329316 0.03130133965509127 0.06606701167506242 0.43394219383726157 -0.04415584149497606
3326812000.0 0.4211230015357367 0.02290955763837188 0.032489650812183565 0.06508809605321657 0.03303107643828034 0.06500196293128974 0.4328246722601331 -0.042281717378251836
3327875000.0 0.4206235882314922 0.020347934749352502 0.03421082964786009 0.06418693609358825 0.034744670070053725 0.06404581531530197 0.4310816810839183 -0.040529473511309734
3328938000.0 0.42102549990791827 0.017994375802160803 0.035913738635015034 0.06318824172120374 0.03636822684795639 0.06293886177764027 0.4270949508895668 -0.03878418519806599
3330000000.0 0.42022404713043837 0.015734933565619853 0.037636388387376304 0.062166323591796954 0.03814103595210273 0.061904550788372606 0.4239226369389661 -0.0382425979741796
3331062000.0 0.4202339541972692 0.013554414544037488 0.03922370190158808 0.061060135582360744 0.039613778838765365 0.060869446108737305 0.4187243816949347 -0.03730528947079837
3332125000.0 0.4195781740732171 0.01114835601684535 0.04085726105002372 0.059876176912953 0.04126793303360069 0.059653805214731445 0.4125083194269013 -0.0383896607745792
3333188000.0 0.41928274550692785 0.00861604181414044 0.04261578473887056 0.0586893043543963 0.0429327980015889 0.058537198765954784 0.40736667767844054 -0.04046918835160548
3334250000.0 0.41894389173314256 0.006366493580308313 0.044255749447862834 0.05754679367872642 0.04458180226869885 0.05729309409006302 0.40168356425850765 -0.043298695695132505
3335312000.0 0.41777749259136027 0.004174039364657681 0.04592204041266682 0.05624610484405541 0.04620736850732868 0.056248156127918544 0.3967718874009707 -0.046396596444183175
3336375000.0 0.4169526794139874 0.001528702517670756 0.04765316518594695 0.05493470175718068 0.047685102829012296 0.0548840284839031 0.3923901237799911 -0.05071291617430127
3337438000.0 0.4158038708210274 -0.0011288547002582874 0.04916745504628001 0.053637122051781526 0.04944823160161033 0.05360345429467047 0.38921328098564484 -0.054673364415448636
3338500000.0 0.4152542163869974 -0.0033618283648183048 0.050682198213083424 0.05225709805665004 0.05098405074940751 0.052160152854735777 0.3857605930360905 -0.060231336932220006
3339562000.0 0.4143396252072758 -0.006332329391046431 0.052187762130588504 0.05088878395374854 0.052402362671503847 0.05083868012652252 0.3840443687771262 -0.06480573896187676
3340625000.0 0.41329831162516056 -0.009181719464256034 0.05357390951909929 0.04941647413434412 0.05386125580792025 0.04926040743468851 0.38250977216593274 -0.06954588109567886
3341688000.0 0.4122145994652478 -0.011853492349101848 0.054885408218002474 0.0479020076796304 0.0553008194357775 0.04778088549645726 0.38165074054776055 -0.07389917684950985
3342750000.0 0.4111695024989589 -0.014945962711236167 0.05614190257522515 0.04632036939896274 0.056625304876102164 0.04620515115773929 0.38150149238612785 -0.07781907265176999
3343812000.0 0.4103550396336347 -0.017824540578410028 0.05744030705702093 0.0447832783281982 0.05779358118797845 0.04470848044977007 0.38144085866266286 -0.08089117399586487
3344875000.0 0.4093337560083287 -0.020609584820082873 0.05858460155312419 0.04330986780496415 0.05907107830162384 0.04314548686279782 0.3817962478534339 -0.0834245535853004
3345938000.0 0.40876165031603423 -0.02341408447471827 0.05982169556409356 0.041760525699637854 0.06023852931216327 0.04154673144442292 0.3818091309480642 -0.08592599173709042
3347000000.0 0.407327020956313 -0.026368720616121697 0.060904131725173574 0.04016879750643368 0.06127282383584817 0.04006685427117549 0.3809962326224228 -0.08690529032325088
3348062000.0 0.4067264084290834 -0.02928364104764099 0.062021680637127104 0.03858639126311665 0.062332460089625084 0.038439780202842 0.37981464499999784 -0.08785424790677163
3349125000.0 0.4059974828798567 -0.031823519709863406 0.06308264680892083 0.03702954283175903 0.06346563631991751 0.036862208565609955 0.37711788381856354 -0.08895371833182707
3350188000.0 0.40509754978296314 -0.03475459825220438 0.06421386934104631 0.03530659266016053 0.0645915762879703 0.03514175241063988 0.3740926302557709 -0.08986884782882958
3351250000.0 0.4042703558151097 -0.03736555904938298 0.06519456751129069 0.03363658076739473 0.0656163616770389 0.03334485820805184 0.36985007623260474 -0.0906124814066226
3352312000.0 0.40346484045993897 -0.04032258836748362 0.06630842984117212 0.03185092335219262 0.06671237519928981 0.03140120633680425 0.3654400225353051 -0.09249387436686447
3353375000.0 0.4021625010815377 -0.04257035035854391 0.06723441046654287 0.029994681434794227 0.06759507382501069 0.029612778070827992 0.36006276111728813 -0.09577135084795911
3354438000.0 0.40142935281835535 -0.04522430029717101 0.06828677210655752 0.028103253009003553 0.0685923870582173 0.027688769070315443 0.354984973922222 -0.09877468933979577
3355500000.0 0.4003214355765625 -0.04785783285629239 0.06916542259088955 0.026135752381861544 0.06949016317549137 0.025740824639622593 0.35025652090010895 -0.10375083050141119
3356562000.0 0.39910719515335197 -0.050629823659596465 0.070049235340222 0.024201387305459635 0.07022911892772707 0.02380467084805161 0.3456867371023045 -0.10949794309973324
3357625000.0 0.3980217747721241 -0.05333659990462932 0.07090799023144251 0.02226083343805485 0.07099791619296525 0.02192643453655525 0.3417336310919511 -0.11487961978863576
3358688000.0 0.3969719174406358 -0.05556185936862775 0.07175050817096941 0.02028127080721143 0.07176225294895908 0.01998351344898435 0.3393311066552114 -0.12218189565305211
3359750000.0 0.3957830367859992 -0.05821400354360124 0.0725157545428533 0.018230185152421356 0.0724583265314641 0.018080548553205792 0.33806319839570154 -0.13070337070622445
3360812000.0 0.39456495010409376 -0.06052161769092956 0.07300144533631345 0.016230321011433475 0.07299567331034408 0.01616189545652663 0.33608664417853357 -0.13758889165601715
3361875000.0 0.39309682131204116 -0.06296093308762289 0.07362907122622914 0.014377879295877234 0.07372801965469195 0.01415339518671218 0.3366576213916535 -0.14527123344362722
3362938000.0 0.39169562923023094 -0.06550689325622083 0.07418183187239931 0.012322739920469663 0.07443925939372655 0.012107909083552785 0.3386669372597239 -0.15336068873129188
3364000000.0 0.39054670719257134 -0.06794727944384148 0.07473336936974122 0.010368707624790351 0.07498289890488669 0.010287107412375086 0.34169846791589326 -0.15947024589048991
3365062000.0 0.3890470828694201 -0.07020423560056822 0.07524965338737805 0.008443100612848226 0.07545054579342583 0.00839140312740157 0.3458128598814687 -0.16531349021899522
3366125000.0 0.387141445016875 -0.07271908560817716 0.0755960321198224 0.0064676455199430905 0.07601416953622693 0.006248281507753671 0.3499753929405167 -0.17005437699048417
3367188000.0 0.38617376287956623 -0.07534422370865157 0.07609111580257141 0.004525016207118363 0.07647487382479287 0.004275122079406645 0.35561290621891223 -0.17308573927008877
3368250000.0 0.38454585096862504 -0.07781889668985126 0.07621906056066446 0.0026477740446175183 0.07677434114004889 0.0023248908437613182 0.3609448846685922 -0.17424002610846118
3369312000.0 0.3825187069362539 -0.08004588525306199 0.07646939770811605 0.0003980378199719938 0.07692997529145336 7.339596508581841e-05 0.36481446509834775 -0.17642688058416206
3370375000.0 0.3811158856796033 -0.08280876437938052 0.07662574435057568 -0.0015882636974825627 0.07699600608487776 -0.0022097748146110096 0.3681773447840953 -0.1751561424644234
3371438000.0 0.37959556212815787 -0.08498689440481576 0.07660427459768955 -0.003600701717101734 0.0769314561314187 -0.004193620022976041 0.3703902080010026 -0.1737907597324066
3372500000.0 0.37793388603193834 -0.08789185565376219 0.07653951898556731 -0.005797407093656554 0.07663201300950251 -0.006316299426153557 0.37139857321650277 -0.17208742601101307
3373562000.0 0.37628389505684895 -0.0902212121993893 0.07639313977474405 -0.00788871373095669 0.07635881589737707 -0.00844802097069626 0.37118686757100683 -0.1670113819442747
3374625000.0 0.37493029330409056 -0.0930239444959013 0.07615634872589033 -0.01004414542302672 0.07617576600491109 -0.010496426022565824 0.37025383592459415 -0.16396123719176456
3375688000.0 0.3736081651488886 -0.09537655786882272 0.07607107437251877 -0.012157554452819803 0.07582180444902557 -0.012590291443217176 0.36933848784892087 -0.16175307816584716
3376750000.0 0.3723186681837873 -0.09776679822213773 0.07565595174885784 -0.014330440024529646 0.07560401339479961 -0.01465916017540755 0.3653792195930286 -0.15843213726888203
3377812000.0 0.37102057604210525 -0.0997357795045343 0.0753265920551857 -0.016469741955302698 0.07520628219529966 -0.016752086767422507 0.36155659934600914 -0.15718035995710616
3378875000.0 0.36969214317073446 -0.10251830322499984 0.0748565285433299 -0.018618885095601334 0.07488800923094127 -0.01891678656318907 0.3584557342454822 -0.15698271838804553
3379938000.0 0.36805690741264424 -0.10430796388587547 0.07436524001371216 -0.020624121747903776 0.07445463775431184 -0.02090603971660765 0.354143522367465 -0.15554378589592308
3381000000.0 0.3669627323148562 -0.10657540758680514 0.07382231052460053 -0.02277536295367496 0.07379876974094074 -0.02306593625771893 0.35016704432969237 -0.157474107140197
3382062000.0 0.3656603288417319 -0.10867349075776847 0.07334572857377065 -0.024869852994065068 0.0734049201656831 -0.02520943195048565 0.34783070302600333 -0.15828540827200266
3383125000.0 0.3645276605854131 -0.11050307646697864 0.07257365301966172 -0.02712069671077642 0.07266371545813148 -0.027476654864885822 0.34413496259858445 -0.16061474467521974
3384188000.0 0.3631989471227265 -0.11261820529221969 0.07193671760335166 -0.029528089921706878 0.07197247121379875 -0.02977754503179733 0.3444774008838388 -0.16481543491451803
3385250000.0 0.36181922105022746 -0.11397631640445373 0.07118357064754323 -0.0316089996337141 0.0712708995938466 -0.031957980556210644 0.342797502804179 -0.16519898001660627
3386312000.0 0.360790293111004 -0.11624732328981624 0.07044577554920459 -0.0337054329249945 0.07040894534543554 -0.03409064801821898 0.3437880607888079 -0.16756591346490732
3387375000.0 0.3594536509102812 -0.11792537937907867 0.06964557065028668 -0.036021546156261214 0.06944961621308654 -0.036328416922003996 0.34586061639958016 -0.17000888280954893
3388438000.0 0.35808136002587704 -0.11987757629844403 0.06863716328062362 -0.0380914571465747 0.06866725633593518 -0.03852620975818709 0.34777521914463594 -0.17058266899716298
3389500000.0 0.35680323109380485 -0.12175737907674727 0.06774078005116484 -0.04013115882220601 0.06760102949003098 -0.04049030913391307 0.3507967701530811 -0.17083048466562306
3390562000.0 0.3552961153586072 -0.12329976657940125 0.0667016371235291 -0.04209183039362605 0.06663494913230752 -0.042527959290886604 0.3531606094512794 -0.17040972368652177
3391625000.0 0.35421674081324767 -0.1252086475450749 0.0655997960627307 -0.04409515628697121 0.0655183720372505 -0.044402479881989164 0.3552032170758126 -0.16840509139791626
3392688000.0 0.35297217900331446 -0.12679620272588363 0.0645705138209245 -0.04591752613302648 0.0643772287445984 -0.04629677946903472 0.35793432190764046 -0.16542866238117487
3393750000.0 0.3515329272743222 -0.12819708739833602 0.06336063723921845 -0.047714329756331726 0.06328609896825735 -0.048069045965907733 0.357592402754469 -0.1601893607948236
3394812000.0 0.35027332903015385 -0.12984520795399632 0.06211172467570283 -0.04953857606219455 0.06208429803304304 -0.04979620451364521 0.35777988984683906 -0.1555104758373127
3395875000.0 0.34893917466597096 -0.13138820097809695 0.0609046192474241 -0.051430164071937186 0.06095378045370752 -0.051650515009750854 0.3561475271984434 -0.15237704759371043
3396938000.0 0.3476829099916524 -0.13289755834751904 0.05971704890568341 -0.053038426277364895 0.05955671589976694 -0.05349636922635484 0.35284140932165825 -0.14575532115377737
3398000000.0 0.34624215077601744 -0.1344248152035321 0.05831312723546564 -0.05477779503840164 0.05828276057511318 -0.05506022316747099 0.3481146775862587 -0.14058319997161167
3399062000.0 0.3453255949130807 -0.1358244602231777 0.05682994715088297 -0.05643681123336877 0.05687003539000824 -0.05684500851178402 0.3417422256703978 -0.13769943431347997
3400125000.0 0.34400969909134116 -0.13728291229716616 0.05537893849033705 -0.05812730092388078 0.05523359823097461 -0.05853530828132463 0.3348152383731808 -0.1334472618198304
3401188000.0 0.3426488232677012 -0.13893381572239502 0.053632013189109005 -0.05972513522444697 0.053413517069031226 -0.06023670506252228 0.3260206655809708 -0.13191666372243094
3402250000.0 0.3414075616561345 -0.1402553815069814 0.05199373563746933 -0.06137214877166313 0.05170716170939997 -0.06174592746449588 0.3183524606978636 -0.13104613217630695
3403312000.0 0.34009076191262044 -0.14167031058694937 0.05010329401784343 -0.06287533567135821 0.049740805350552274 -0.06317322132662628 0.31011935193482365 -0.13209216267733345
3404375000.0 0.33896082951615364 -0.14327545543231313 0.048142668793536285 -0.06444271775642885 0.04769487113442531 -0.06454969769530297 0.3016991675166271 -0.13426987200363633
3405438000.0 0.3376140407577068 -0.14443733441665163 0.046092873619416365 -0.06578008557529695 0.04578451005122423 -0.06590888479412724 0.29441814129053395 -0.13781792960754788
3406500000.0 0.33653340723759173 -0.14581502586450115 0.04399581896429577 -0.0671600335254161 0.043638749956261866 -0.06728666326208425 0.28814731100400925 -0.1418154398259419
3407562000.0 0.33576009800109874 -0.14699661377618606 0.04192433878828377 -0.06848011623364794 0.04166976622154954 -0.06857570290092047 0.2825537304252405 -0.1463386425352497
3408625000.0 0.33449032798350636 -0.14849977639310807 0.03967626700680105 -0.06964723073780325 0.03964290179665701 -0.06973166415567934 0.2779411944619069 -0.15187359909734466
3409688000.0 0.33388995408125505 -0.14972695580527295 0.037621398292760434 -0.07084315064789044 0.03756303929754004 -0.07098135068776665 0.2754103489348355 -0.15728247840617934
3410750000.0 0.3324248535435924 -0.15068648731257334 0.03554235694920684 -0.07179361232289613 0.035660567318008235 -0.07180874186447989 0.2728802224688344 -0.1614459490163321
3411812000.0 0.33151131654030996 -0.15207811215488118 0.03356011879367143 -0.07284737338208022 0.03345564959911723 -0.0730759116005986 0.27178950177527406 -0.1661355111052858
3412875000.0 0.33095616854379056 -0.15283073366900227 0.03140700297086585 -0.07383644559233102 0.03147245737802404 -0.07407557936364262 0.27047991354600054 -0.16966552028158696
3413938000.0 0.3295969829882751 -0.15386597702289448 0.02935927263036693 -0.07464087987642547 0.029245900225068015 -0.07500531078563875 0.270772251722073 -0.1727577729524846
3415000000.0 0.3287551802723783 -0.15478432872550163 0.027270651818633737 -0.07555873490400379 0.02710978849073846 -0.07611265470829444 0.270536730258196 -0.1759707602748017
3416062000.0 0.32730520166793065 -0.15555729614506203 0.025111611833708837 -0.07638938033739354 0.02490889192571631 -0.07697995737035171 0.27019827219648224 -0.17799752469057248
3417125000.0 0.3261515221889053 -0.1563549063138727 0.022925144203073317 -0.07722106378570284 0.022560371813592765 -0.07789915055642277 0.2702581283776539 -0.17905715906595354
3418188000.0 0.3249884217070144 -0.15752857922719163 0.02070301619327024 -0.07812447381152365 0.02025183855370727 -0.07861135039245859 0.27007261934130883 -0.18002612201222667
3419250000.0 0.3237763912125367 -0.15837089464770326 0.018463729603446433 -0.07895692600636554 0.01794120647913856 -0.07933493774688546 0.2689960272612901 -0.18033822106740496
3420312000.0 0.322427853301475 -0.15931893669244934 0.016208599899980615 -0.07964530630200885 0.015542612591308751 -0.07979486871860982 0.26763807122898164 -0.18036969111592419
3421375000.0 0.3212959160489111 -0.16030075713952271 0.01381290074042469 -0.08022797253398786 0.013163022366163468 -0.08033176142030622 0.26485959839896084 -0.18112562166578
3422438000.0 0.3200213142721644 -0.16159576894784544 0.011467015333282525 -0.08072870152295535 0.010933139324406945 -0.08063181280267964 0.2624426914834584 -0.18186811883287432
3423500000.0 0.31855849691793725 -0.16264605271447635 0.00903952302752042 -0.08106886315391165 0.008668030873773784 -0.08083074629677872 0.2592897354619048 -0.18236509020184175
3424562000.0 0.3176471796035128 -0.1638094943018552 0.006491666120078929 -0.08148059100142276 0.0062718615785856266 -0.08108528928705609 0.255632711860627 -0.18487794971952737
3425625000.0 0.31652010068076464 -0.1649678752229438 0.004139782595083412 -0.08154651409090105 0.004080408115087558 -0.08144802038695881 0.252818732291501 -0.18759129453100065
3426688000.0 0.31504591076001165 -0.16635004254766753 0.0016713297037376526 -0.08167412364787974 0.0016941687253921533 -0.08168152199850227 0.2503747479407951 -0.19084999255620153
3427750000.0 0.31383265317397796 -0.16735553036618211 -0.0007151868577113827 -0.08171963603054097 -0.0006354273900959796 -0.08184614358974136 0.2485798821902308 -0.19498523324816788
3428812000.0 0.3123925657560191 -0.16864328235032186 -0.0030285978585843387 -0.08167815057277182 -0.0030153601560434008 -0.081970407673115 0.24742923437268338 -0.1994120611059779
3429875000.0 0.3112267609243495 -0.16986467942314615 -0.005339912384268674 -0.08155557336617557 -0.005263764962241742 -0.08203317110191864 0.24716327080276995 -0.20373793962565587
3430938000.0 0.3099424858446405 -0.17134072466804634 -0.007688536462422834 -0.08141249415173973 -0.007806671924963061 -0.08212505092532775 0.24773363203420662 -0.20757598875547895
3432000000.0 0.30898682670245237 -0.1725364561249741 -0.009907500322735416 -0.08137113780198543 -0.010211310716227516 -0.08186981553628053 0.24908043808126612 -0.2118010963363913
3433062000.0 0.3073256495611389 -0.17425249367051784 -0.012187688462108388 -0.08103078914942104 -0.012852442597278385 -0.0816751696178256 0.25131303592288734 -0.21622661820821623
3434125000.0 0.30629114431394733 -0.17537433625127533 -0.014509534482002134 -0.08080782713818029 -0.015199229879597034 -0.08126927415973265 0.2538965064409622 -0.21876338298662845
3435188000.0 0.30500038366021315 -0.17674172338825583 -0.016843602102830278 -0.08048490851495597 -0.01766498643188923 -0.0808083868297396 0.2573174873496744 -0.22076442666277132
3436250000.0 0.30413919444332155 -0.17816974464703209 -0.01912281517626346 -0.08010907843888279 -0.02006388765397583 -0.0801605453535215 0.2607779543353922 -0.2216047228945801
3437312000.0 0.3028310804148514 -0.17959869583664656 -0.021512198616995094 -0.07972553347860302 -0.02234932887488887 -0.07964914715861522 0.2643014623528349 -0.22193796873916766
3438375000.0 0.3014432985076276 -0.18069020354245496 -0.023714477467009366 -0.0792013312224684 -0.024580003318815692 -0.07890163415780183 0.2672300680342898 -0.22063904229257575
3439438000.0 0.30062294993687655 -0.18227640610931353 -0.02613373844580612 -0.0786307106367184 -0.026734140487856127 -0.07822457499414963 0.2697023422803956 -0.2188779297969569
3440500000.0 0.2990145924529479 -0.18353486910956204 -0.0285409474942199 -0.07787400387789381 -0.02901959529801108 -0.07742782384785822 0.2714318982644089 -0.21686874404775175
3441562000.0 0.29810357776429147 -0.1847586317064218 -0.030757707243130022 -0.07728004152711618 -0.031087328245535985 -0.07682810652449874 0.27261712317503517 -0.21356840432487906
3442625000.0 0.29656089482276676 -0.18576889239560504 -0.03305815213437075 -0.0761069042596178 -0.03331670347954991 -0.07586917897809407 0.27125899747876653 -0.2097032057016861
3443688000.0 0.29525085355212055 -0.18738550347850932 -0.035495962804363526 -0.07521873097067325 -0.035437956277775656 -0.07493718714982149 0.2704865803926265 -0.20713505946189165
3444750000.0 0.29349635165574384 -0.1886333605278034 -0.03765408880250699 -0.07400874927412791 -0.03772422835341264 -0.07398280662780986 0.26810631349507924 -0.20307702512114828
3445812000.0 0.2921515535818899 -0.1893732398897475 -0.03994278478964971 -0.07266880796434645 -0.039828562766588076 -0.07296030604832507 0.26453519450188456 -0.2012494615832584
3446875000.0 0.29082828883666384 -0.19101928876430777 -0.04216843988782086 -0.07150161844349909 -0.04230371652034168 -0.07172962425710105 0.26080719482181464 -0.19893984675112328
3447938000.0 0.2889116198898461 -0.1923062884368076 -0.0442997666544699 -0.07011909049638895 -0.044494848424643 -0.07043427920887411 0.2566003445235819 -0.1982668711570337
3449000000.0 0.2873109539430221 -0.19341823827722898 -0.04631710027550643 -0.06873810866403363 -0.04677171141198125 -0.06899917135129136 0.2523477922918681 -0.19813594259331951
3450062000.0 0.2853301028488011 -0.19499314707547158 -0.048358880336904025 -0.06731650257490636 -0.048915220321326225 -0.06752416418823702 0.24837296654532998 -0.1986726441343702
3451125000.0 0.2837337788137308 -0.19632048338072924 -0.050303938490310576 -0.06581795385097229 -0.05095604366716185 -0.06605738989347908 0.2444201900209908 -0.19992533231178317
3452188000.0 0.2820134810538368 -0.19781700788530537 -0.052102241482421194 -0.06434672992495231 -0.05287443713123254 -0.06444217186441378 0.241384986492306 -0.2017312298104251
3453250000.0 0.2803021665829775 -0.19935582923431752 -0.05397492759560488 -0.06276145477717679 -0.054701120767367134 -0.06264862672163322 0.23768296800152242 -0.20420200727062862
3454312000.0 0.27832914670465886 -0.20111256291357327 -0.05588960138024364 -0.061166266122765996 -0.056501996427933396 -0.06092470996734016 0.23546347327498396 -0.20695219029494333
3455375000.0 0.2764112467758078 -0.2030535692987834 -0.05750513782006701 -0.059561294413696356 -0.058210240614933934 -0.05917431067694577 0.2335935416186454 -0.2090480675503675
3456438000.0 0.27469105131305727 -0.20449181951517104 -0.05942760217010306 -0.05789268345777085 -0.059847879048974234 -0.05776317028202075 0.232819305058822 -0.21211709745604382
3457500000.0 0.27286833591443865 -0.2061029083024038 -0.06106662628902556 -0.05632463410672694 -0.061646443377310886 -0.055860878186060725 0.23180895327800433 -0.2140910468369265
3458562000.0 0.27114085443816666 -0.2078416555365057 -0.06283609316546399 -0.05450589700014662 -0.06321463641661071 -0.05406107917227427 0.23106099696430712 -0.2164159787763862
3459625000.0 0.2688485248450349 -0.20948044736612803 -0.06453974337351688 -0.05274184847004539 -0.06488637098843404 -0.05236358231210125 0.23061296862451852 -0.21745288144081926
3460688000.0 0.26719812538849624 -0.21137303098613075 -0.06618306404306769 -0.0508111326780689 -0.06643027639687647 -0.05060365243883652 0.22967221382670688 -0.21802727630325944
3461750000.0 0.2657987234153829 -0.21330120961612223 -0.0677930323562087 -0.04895409024864929 -0.06791090791424709 -0.04873796482371616 0.22881753101636873 -0.21790862353449178
3462812000.0 0.26397436237213245 -0.21518409190044188 -0.06928305077890397 -0.04679403210763467 -0.06941625068250037 -0.04652260445174448 0.22701303279164767 -0.21791783941495627
3463875000.0 0.2623710162208489 -0.21675226206265452 -0.07066642911692446 -0.04467664866648372 -0.07080030318561624 -0.044376784276442226 0.22446858050417395 -0.2170703071875729
3464938000.0 0.2604149188722568 -0.21830581979176125 -0.07208215390273236 -0.04230048891436781 -0.07218437388495497 -0.04219761390619473 0.2213701976089154 -0.2166867391436208
3466000000.0 0.2589142542161625 -0.22012933445396948 -0.07329035018459149 -0.04001339333925583 -0.07339590841498225 -0.039827131250244 0.21754483774784536 -0.21627604309082613
3467062000.0 0.25721719003773713 -0.22187330441725456 -0.07445237457751555 -0.037640585773126435 -0.07457797295936779 -0.037537494341803306 0.21278669916430634 -0.21683772131133489
3468125000.0 0.2558696100510356 -0.2236382944111003 -0.07556948829850939 -0.03524210349413057 -0.07570148163570414 -0.03502937744006369 0.2078415555589258 -0.2176302140649139
3469188000.0 0.2542194503307851 -0.22533618262408148 -0.076519529370472 -0.032823687905179755 -0.0768992019127579 -0.03271463150998205 0.20231142279746422 -0.21935485022620396
3470250000.0 0.25260747697208197 -0.22680855616783327 -0.07732586390743433 -0.030498615302664647 -0.07762922182925804 -0.030522589985435732 0.19714452054605622 -0.22171694274604478
3471312000.0 0.2510184380959733 -0.2282489339397754 -0.07809787030920197 -0.028251931755303845 -0.07846246874651423 -0.02816321726909696 0.1920376132903704 -0.22532868927532337
3472375000.0 0.2492393473517267 -0.2293676186017709 -0.07875144305747872 -0.02596722049225019 -0.07920770279514064 -0.025833922703203907 0.18681701714033896 -0.23000848746847746
3473438000.0 0.2474911599329917 -0.2311755714108434 -0.07944393527202906 -0.02360290982673352 -0.07980117749974046 -0.023509744055674655 0.1820954031042585 -0.23505645847143491
3474500000.0 0.2458712571083717 -0.23247411558683637 -0.0800467022915046 -0.02143972210240242 -0.08048282956101013 -0.02124095402525488 0.17892077335998388 -0.24115585412652704
3475562000.0 0.24389825741907187 -0.2335674249189319 -0.08068710676623096 -0.019141978418286375 -0.08124195430829219 -0.01887115186758235 0.1764338690389127 -0.24784843937889617
3476625000.0 0.2419746085848984 -0.23451674742974724 -0.08135224208896095 -0.016920495780819313 -0.08185049046814347 -0.01657559611622996 0.17453120230033958 -0.2545218985318606
3477688000.0 0.24016112789956134 -0.23574662363500734 -0.08202128634698351 -0.014652786971773683 -0.0824029952521044 -0.014155880127178215 0.17434298121334932 -0.2616563935430581
3478750000.0 0.2379186523680417 -0.2369476072699806 -0.08249870985280582 -0.012267938839266123 -0.08298823093350266 -0.011695517010190871 0.17435137531715406 -0.2686601461493865
3479812000.0 0.23587107332189772 -0.23769571011908716 -0.08309440913458178 -0.00996346308971051 -0.08339397461668965 -0.009369766328704919 0.17695196821454742 -0.27496581040484525
3480875000.0 0.2339762316576212 -0.23896685367498247 -0.08335134111023516 -0.007447306470059705 -0.08374555119578347 -0.006924051438575316 0.17881692152481596 -0.27934133660267824
3481938000.0 0.23196678642267848 -0.2399619742490487 -0.08378187729300421 -0.005175477332409191 -0.0839974858381623 -0.004461300026670366 0.1817115474841855 -0.28495676243401985
3483000000.0 0.2298009536349491 -0.24128726251848548 -0.08391742668707558 -0.0026371605588339547 -0.08396665492709897 -0.0022279118009282364 0.18540054190121544 -0.287249725319064
3484062000.0 0.22777664666301994 -0.24245080679564063 -0.08393478111780911 -0.0002584602242142831 -0.08381422443138409 0.00014274881700070247 0.1874465215858044 -0.2891270675032523
3485125000.0 0.22571839913994513 -0.2436915111815453 -0.08389986056934705 0.0022648163471300125 -0.08372341160140262 0.002469660045201672 0.1909695466909829 -0.2895438891533062
3486188000.0 0.22362170498570294 -0.24483564510773834 -0.08366196916494789 0.0047087697072762166 -0.08348007724982306 0.004908909297214305 0.1929579747910443 -0.28943181573493537
3487250000.0 0.22166251480670546 -0.24583156899534322 -0.08343035861120865 0.007075260523767071 -0.08327333468537107 0.0072319830292868256 0.1942647034628414 -0.2877607300175661
3488312000.0 0.21926099058286455 -0.24665918023296554 -0.08308486491376457 0.009481411768426868 -0.08304452902531097 0.009729965106186253 0.19520789837253646 -0.2873538611371854
3489375000.0 0.21727904199973205 -0.24763961846842963 -0.08250553869344968 0.011735134312325451 -0.08258586793826705 0.011769225365051527 0.19450774341065388 -0.28558531752362765
3490438000.0 0.21526911294930942 -0.24887999551887555 -0.0820063357699844 0.014180736088141821 -0.08219292204023718 0.01431953443279537 0.19323404345091527 -0.2839789132369896
3491500000.0 0.21364191252713066 -0.2494714782067495 -0.08157855156002768 0.016282380002565135 -0.08182737209197635 0.016523446503483776 0.19172133268319058 -0.28324668246317697
3492562000.0 0.21150446367707043 -0.25045030236496196 -0.08095065115480485 0.018527810912720124 -0.08125799155563077 0.01863113080106517 0.19084009682506858 -0.28195963345426456
3493625000.0 0.20963567411880765 -0.25138149584887304 -0.0803015178726982 0.020819676971792437 -0.08080958488932223 0.0209905810517784 0.18924829251690622 -0.28241365893760095
3494688000.0 0.20784185947126027 -0.2518246849087356 -0.079593300564483 0.023000401605253032 -0.080011058412564 0.023282679725323347 0.18646690574177344 -0.28274007964393477
3495750000.0 0.20593703683085285 -0.25272812359112146 -0.07889982897676953 0.025316992995966854 -0.07916526527130933 0.025785847963033404 0.18428351370660748 -0.2847647465260777
3496812000.0 0.20416871246884885 -0.25335208679962773 -0.07829667691820948 0.027621033392711304 -0.0785135445281433 0.02810684431404713 0.1833915257683344 -0.2869454570955832
3497875000.0 0.20229189745259768 -0.2538722389820472 -0.07767273162548206 0.029922053769124386 -0.07760959574572898 0.03033457355246658 0.1828559751179788 -0.2895114075785929
3498938000.0 0.2006132303829323 -0.2544464886944332 -0.07681627001593713 0.032317027822325574 -0.07685831585678211 0.03272777451725354 0.18193130850280134 -0.29352236101123497
3500000000.0 0.19880547067378404 -0.25496927564109784 -0.07606083601088152 0.034443509248567095 -0.07600940993211772 0.03492514925527321 0.18324243630431933 -0.2971935906693116
