! Created with skrf 1.9.0 (http://scikit-rf.org).
# Hz S RI R 50.0 
!freq ReS11 ImS11 ReS21 ImS21 ReS12 ImS12 ReS22 ImS22
700000000.0 0.1723152508731343 -0.8545592644617022 0.038620903360257836 0.04488426006863859 0.03721492228275998 0.04800410531546756 0.13937846946190746 -0.8280416476769875
700687500.0 0.1666997729489643 -0.854496411198786 0.03965309905595618 0.04397688563521253 0.039050171119335515 0.04734423685295665 0.1342224086858319 -0.8282557730872335
701375000.0 0.16113980289164642 -0.8543899473794518 0.04062903959363499 0.04313838542855387 0.0408607838564301 0.04653229990857432 0.12854333370843593 -0.8283509082440677
702062500.0 0.1555104330596964 -0.8543872388015159 0.04162251231050339 0.04240076026375785 0.04263196680833154 0.04556213533449326 0.1230759346113855 -0.8286465405713678
702750000.0 0.14985424344176815 -0.8542414791867051 0.04264124090060176 0.04158797114366917 0.04434568577418125 0.0444136208520983 0.11735472568811472 -0.8286892032065153
703437500.0 0.14424397118504032 -0.8540125163251283 0.04362373487946262 0.04091277881313001 0.04593985082021634 0.04325569427347597 0.11199005853228874 -0.8288781603502636
704125000.0 0.13858312667413233 -0.8537225548269022 0.044656001134476514 0.040253830290047456 0.04740507429095825 0.04190484265158774 0.10643413524559771 -0.8288604531592552
704812500.0 0.13306377147894735 -0.8534096134476533 0.04568894512961674 0.039603768209851085 0.04871643583080758 0.04052733821382871 0.101122593014143 -0.8287275093470226
705500000.0 0.12729416888746733 -0.8531554297565588 0.04680417203839401 0.03896043859861062 0.04986459342342816 0.03913210049041529 0.09554691757292878 -0.8285104469753598
706187500.0 0.12154492252077176 -0.8527133472772036 0.047925135400789395 0.03834826146780236 0.05088868749619329 0.03777777205054304 0.08997834626246501 -0.8282226490786824
706875000.0 0.1160322759776768 -0.8521816306602735 0.04913415174381818 0.03761906528086868 0.051792964430799525 0.03646890175964352 0.08439755218100932 -0.8279508874851643
707562500.0 0.11036317188842928 -0.8515081261216275 0.05030090856469739 0.037007130311183405 0.052596014625424896 0.035251094483141864 0.07882031694290008 -0.8273277255807282
708250000.0 0.10463996381492757 -0.8507622875693309 0.051658489686322306 0.03629678509999004 0.05332904123834285 0.03408895865951588 0.07328712456028538 -0.826583028983092
708937500.0 0.0988760588668746 -0.850041465972884 0.05291336865683548 0.03543708549317245 0.05407154478007432 0.0330189986538512 0.06772736318479929 -0.825803747540804
709625000.0 0.09312585356616278 -0.8490325223965377 0.05430406512488907 0.034645345124252894 0.054767926500399244 0.032082875574726284 0.0621526356052986 -0.8249008718535112
710312500.0 0.08737788433147771 -0.8480579435627641 0.05566959929357182 0.03371366519614816 0.055556789059427514 0.03123480970308842 0.05646502784532303 -0.823992582819949
711000000.0 0.08155839656689766 -0.846652454479156 0.05698846747759385 0.03270652663754557 0.056371069216805444 0.03036445271231971 0.05091370747879957 -0.822837345682244
711687500.0 0.07563833350806348 -0.8453902840257402 0.05840857740118922 0.03162263440067068 0.057286660937253105 0.029544881705855938 0.045222772522011095 -0.8217889103081627
712375000.0 0.06965253687338539 -0.8440623933851839 0.059806973219410316 0.030442789676585914 0.058313771192705276 0.028753805265088753 0.039406295159139834 -0.8204850442457654
713062500.0 0.06387375677378837 -0.8425603176845549 0.06115108214202822 0.029166884547425945 0.0594206155372969 0.02794611332404731 0.03388879069654062 -0.819184557186658
713750000.0 0.057916951394720854 -0.8408553392812868 0.06249313536156026 0.027768850077385426 0.06059526739052125 0.027002426588701806 0.02808481110063351 -0.8177961061062038
714437500.0 0.052013234698117354 -0.8390945632656056 0.06373444214499702 0.026281682275577124 0.06180681873372518 0.02598031040013678 0.022496703121563093 -0.8163121628968449
715125000.0 0.04614775149210481 -0.8372253205101485 0.06493071436379647 0.02477920874528855 0.06311482639065158 0.02487702774912936 0.016757163869497313 -0.8147551219014939
715812500.0 0.04014011232827639 -0.8352733049406053 0.06606917411481071 0.023195675889376283 0.06442825295734514 0.023663906927696175 0.011012374425476533 -0.8132139901290154
716500000.0 0.0342988558700449 -0.8332587636827916 0.06718040705814876 0.021579915624448658 0.06572632288897157 0.0223426798584417 0.0053391081254697105 -0.811547792534604
717187500.0 0.028409400038928303 -0.8310617160251058 0.06811632679586524 0.01986819585262265 0.06698635055152109 0.0208873480047082 -0.00023475009235800947 -0.8099283681064411
717875000.0 0.02245297676676432 -0.8287502722066261 0.06902125431894247 0.018118836360765934 0.06820304926652405 0.019312914860032983 -0.006164425584462722 -0.8081068117272693
718562500.0 0.01660548909296128 -0.8265031204748405 0.06988936610902892 0.01642377276182129 0.06938563157154211 0.017654892172324816 -0.011718261114308737 -0.8065022315198405
719250000.0 0.01095762004850415 -0.8238448305090863 0.07062154685334916 0.014777016644688484 0.07043446911037014 0.01594680402360206 -0.01742737404293636 -0.8045521116148189
719937500.0 0.005260958390269213 -0.8215665125659266 0.07145074618759666 0.013006787958374937 0.07144467802114861 0.01415191036837908 -0.022941692409491662 -0.8027755185915021
720625000.0 -0.0003875890786671407 -0.8187601944954662 0.07209101040652509 0.011337613207667628 0.07233854266693811 0.012345365586129444 -0.028387533905547775 -0.8009143440941877
721312500.0 -0.0058458354324864015 -0.8162424672134769 0.07285243251476994 0.009609819059500183 0.07320307819298837 0.010433784240825446 -0.0338162904950705 -0.7990849589136898
722000000.0 -0.011102029894198572 -0.8135824214673237 0.07355404495276671 0.007791104332466068 0.07404903168096803 0.008473612267882414 -0.03928222221937533 -0.7970094538740062
722687500.0 -0.01642695255492373 -0.8114335481955115 0.07416362443370902 0.005904650580329151 0.07468349559896764 0.006405854674512743 -0.044942856720547104 -0.7950628023526722
723375000.0 -0.02182580150555417 -0.809277981893601 0.0746413003126809 0.004033515057903914 0.07511360520598653 0.0043347364085239894 -0.05026920661193291 -0.7930196841299478
724062500.0 -0.027665906600673484 -0.806976800492193 0.07497909743687459 0.0021764883215667067 0.07542944431305812 0.0023836641891934233 -0.05583955224691355 -0.7908942462146294
724750000.0 -0.03342357472093803 -0.8045579626951854 0.07541627185051049 0.0004537680471790007 0.07570991450825103 0.00061750934096062 -0.06111161311845128 -0.7885431222817084
725437500.0 -0.03904554316149003 -0.8018269000605914 0.07584383522238797 -0.0011540458164508941 0.07608010552255526 -0.0010822228970978388 -0.06676325192559593 -0.7858203580884999
726125000.0 -0.044627985971226594 -0.7991156953539679 0.07630249396482063 -0.0028193323991535717 0.07651391906476988 -0.0027234662775816204 -0.07210653011697897 -0.7834021671522908
726812500.0 -0.04999575814439721 -0.7962498958895672 0.07681946229909214 -0.004491230488120957 0.07700142709662663 -0.00435032405591276 -0.07758197223838452 -0.7806510892429949
727500000.0 -0.055575425777566 -0.793387779286069 0.07738284529526596 -0.006271643955497825 0.07758614201505346 -0.006052769882353374 -0.08302687841840312 -0.7777650473713701
728187500.0 -0.06080130429926464 -0.7906803762770102 0.07801681946460583 -0.008062446389981926 0.07820130441255002 -0.007854672414798876 -0.08855237889530454 -0.7749606300961486
728875000.0 -0.06599312269512946 -0.7877184859610783 0.07854037284092914 -0.009921480799510276 0.07887077897630472 -0.009703401035294499 -0.09420447036080991 -0.7719662815858995
729562500.0 -0.07108912583649607 -0.7850908183773612 0.0792772756822959 -0.011893126476567182 0.07956781071054161 -0.011660706971470742 -0.09968208295485823 -0.7690064686521001
730250000.0 -0.07642890955656864 -0.7823531262429881 0.07974673131663061 -0.01404659651969792 0.08022943209489432 -0.013832812667882685 -0.1053769942983039 -0.7658327060052798
730937500.0 -0.08156176316237873 -0.7796855426220397 0.08025782925249898 -0.016264275586146994 0.08078115879812026 -0.016095929823938464 -0.11102574239014082 -0.7626495667471023
731625000.0 -0.08688103154408454 -0.7770014663125188 0.0807135100633047 -0.018545522325731246 0.08133896097191241 -0.01845345616803973 -0.11688730356022033 -0.7593874920127575
732312500.0 -0.09229661441940347 -0.7742624150187765 0.0808776846555629 -0.02087629234842567 0.08165105069302185 -0.020961875887119508 -0.12287538738327976 -0.7559418920778349
733000000.0 -0.09768382630652452 -0.7713930834567073 0.08116156553386214 -0.0233138282744344 0.08187694943761353 -0.02348976465805655 -0.12871524477594748 -0.7526450112005133
733687500.0 -0.10307286171644785 -0.7684673349727608 0.08121851485513418 -0.025666984240985898 0.08194838044284129 -0.02607967506611805 -0.13461581796894093 -0.7489825875440397
734375000.0 -0.10842187753389906 -0.7653778343554472 0.0812591023374715 -0.028076274642991478 0.08190685794152858 -0.028623875011021732 -0.1404846520986116 -0.7453704152964674
735062500.0 -0.11346586947566795 -0.7622853091340724 0.08126662431545542 -0.030496710648027652 0.08181766277487242 -0.031265743956114395 -0.14605602029982226 -0.7418692175718493
735750000.0 -0.11879699649838704 -0.7590126314073085 0.08112533685268175 -0.03299919085709859 0.08153251766259151 -0.03383212276667588 -0.15194201998907456 -0.7380833823958601
736437500.0 -0.12370559886102876 -0.7556682300578871 0.08085903806400117 -0.03538697071984878 0.08112245441338828 -0.03638958195468866 -0.1574585944218243 -0.7344993899528894
737125000.0 -0.1288309903487677 -0.7522185303446134 0.08061483823660356 -0.03784556644566224 0.08062679432422429 -0.038949053453527636 -0.16286287140031885 -0.7307107196223931
737812500.0 -0.1337115936522121 -0.7487461460147113 0.08031279618495951 -0.040457436752251 0.08008189789027303 -0.04149879703467248 -0.16840884130832456 -0.7269347880702597
738500000.0 -0.13828007992703542 -0.745257834574301 0.07986549877102575 -0.042911556872952054 0.07944595222678227 -0.043928032425265016 -0.1735063252011312 -0.7232368260381629
739187500.0 -0.14310237171150764 -0.7415229668692506 0.07937595461360508 -0.045373298971068815 0.07870733790431743 -0.046356808336925834 -0.17862066632844736 -0.7194818744644444
739875000.0 -0.14762089989360977 -0.7378966130415123 0.07876049631094044 -0.047876665944161935 0.07787363224539302 -0.04870017728625496 -0.18340277022268273 -0.7156364688015968
740562500.0 -0.15207406606827248 -0.7341280384706178 0.07807094502093961 -0.05038511591482117 0.07703325128908593 -0.0510458905593211 -0.18824846279932686 -0.7116561046620017
741250000.0 -0.15633232389599405 -0.7301102127762283 0.07738329570892093 -0.05282240675093362 0.07618122826375633 -0.05329340796389676 -0.19285808385170916 -0.7077676507367008
741937500.0 -0.16040132321863992 -0.7262239561705129 0.07653907278257328 -0.05532065798092052 0.07526768665334278 -0.055495106595412146 -0.19728729505856982 -0.703640687734874
742625000.0 -0.1645244353098163 -0.7222461875870302 0.07555882533128913 -0.0577991514077166 0.07428633259108676 -0.05772404895945086 -0.2016482720772834 -0.6993790280529515
743312500.0 -0.16843403395827256 -0.7180386506051758 0.07457165519276893 -0.06030499473948488 0.07327337788412609 -0.05994848341506893 -0.20602973307006162 -0.6951710072318632
744000000.0 -0.17220729924224953 -0.7138002483394087 0.07350309982463957 -0.06281454101486751 0.0722062341491871 -0.06217945228105418 -0.21010614398190072 -0.6908717484614004
744687500.0 -0.17584556747693364 -0.7097780303227946 0.0723040647088685 -0.06528713241816857 0.0712262855427186 -0.06439816329537745 -0.2143008217878304 -0.6862755971286593
745375000.0 -0.17939256743105483 -0.7055118484439639 0.07104990478868481 -0.06776774195264301 0.07011349410020938 -0.0666952336778518 -0.21840119495042074 -0.6816314953789361
746062500.0 -0.18271958803523147 -0.7014296168685965 0.06964467003671834 -0.0702797033627554 0.06891942815111737 -0.06899228163153258 -0.22244397665350518 -0.6768168742417227
746750000.0 -0.18602062296496344 -0.6972876720475718 0.06816324568116226 -0.07282529354828873 0.06770066538604352 -0.07136122813056495 -0.2266522050892565 -0.6721393910126656
747437500.0 -0.18904527142493963 -0.6931383145050413 0.06660341694533131 -0.07521641989452693 0.06634775718672056 -0.07375100103476488 -0.23071780256193233 -0.6671465402584241
748125000.0 -0.1921620305964013 -0.6891441532818491 0.06487270756637319 -0.07760537555144718 0.06492853344762471 -0.0761540391449339 -0.2350133085721068 -0.6620009848224361
748812500.0 -0.19504191143559413 -0.6851529732553133 0.06297268232302974 -0.08010432058871293 0.06336161227357208 -0.07855096765102917 -0.23949141347994668 -0.656732700492935
749500000.0 -0.19806154960198943 -0.681389824198106 0.061048624281596804 -0.08243652988414701 0.06169669798236521 -0.08101278122542728 -0.24374151299668123 -0.6513116438200427
750187500.0 -0.20091324713218894 -0.6774831137506102 0.0589605572180702 -0.0847522612781881 0.059900273661177714 -0.08337778759377437 -0.24801803633562194 -0.6459068897916199
750875000.0 -0.2039251057528349 -0.6738987598737125 0.05675980042145128 -0.08695797002748964 0.057971770215496356 -0.08579092438125971 -0.25229963752595047 -0.6402043334124458
751562500.0 -0.20710785814420268 -0.6703061378374041 0.05446314981638034 -0.08905571645886357 0.055883542542316984 -0.08821523142767115 -0.2565241572870399 -0.6344604784389689
752250000.0 -0.21035102391131383 -0.6667444185184552 0.0519947863265405 -0.09103152378120805 0.05362894395607506 -0.09045893967493022 -0.26074396404202127 -0.6286171757618895
752937500.0 -0.2139050266454232 -0.6630583779849535 0.049497756167613115 -0.09288997137994744 0.051266599987366386 -0.09265921523681399 -0.26475902792795475 -0.6228877318756545
753625000.0 -0.21745066191016243 -0.6591684991496827 0.04692894351993844 -0.09453297187027854 0.048813598305848985 -0.09468248572999326 -0.26889710909837544 -0.617047324948394
754312500.0 -0.22109579983753802 -0.6550260267203832 0.04449580735700622 -0.09611254955653369 0.046319542363735866 -0.09660410637943415 -0.2727594456052891 -0.6112766374931076
755000000.0 -0.22459539728302402 -0.6505085450867867 0.04201104005436482 -0.0975438065695461 0.04374505511139635 -0.09841935615039678 -0.2763858225627871 -0.6056988186507428
755687500.0 -0.22783186353237977 -0.6459066186816433 0.039611265722242016 -0.09898649541278863 0.04119984361851586 -0.10020359941702459 -0.28017411807651293 -0.6000420933658218
756375000.0 -0.23083149325837649 -0.6410316280602184 0.03727419658875429 -0.10036533562878984 0.03859602928126396 -0.10189481975479167 -0.28383562021594133 -0.5945975704752103
757062500.0 -0.23369790863290968 -0.6362820276059719 0.034998764734318295 -0.1017431867948185 0.03588869890043774 -0.10355519635206163 -0.2873437788273764 -0.5893390430771158
757750000.0 -0.23618544309854853 -0.631390352236934 0.032599206440304576 -0.10306244580772021 0.03319153979917122 -0.10513263227509602 -0.29066764215506574 -0.584074682790446
758437500.0 -0.23853851256808442 -0.6266229513313378 0.030215152675072035 -0.10443453073781336 0.030410898793636655 -0.10653540077798292 -0.29391015820113675 -0.5788251017993417
759125000.0 -0.24093234844069306 -0.6219096310213607 0.027856803223748006 -0.10573086056219527 0.027496513435602665 -0.10790173367168862 -0.2968225975462866 -0.5736233565327375
759812500.0 -0.24284074844823417 -0.6172855149270913 0.025473425289123205 -0.10702927880135284 0.02464936546083433 -0.10909651530742892 -0.2995104158347383 -0.5683170876502455
760500000.0 -0.24492656096410936 -0.612872140547906 0.023083788328908277 -0.10839699615304599 0.0217778807949249 -0.11027116876295066 -0.3020648090217163 -0.5631590831466589
761187500.0 -0.24685315391528886 -0.6083199561282348 0.020557977943232563 -0.10965312106489114 0.018874749114582905 -0.11125826344567301 -0.3042058153460685 -0.5579016005905896
761875000.0 -0.2485245216202093 -0.6039961418602138 0.018061383261147774 -0.11096873182181109 0.015992624671150098 -0.112177969080846 -0.3062914105102657 -0.5527590118513156
762562500.0 -0.2503012119096953 -0.5998736822096161 0.015478180644855934 -0.11227777124873127 0.01312518235517784 -0.11303229733420353 -0.30809353441016707 -0.547536630731961
763250000.0 -0.25189063298921416 -0.5955272700768505 0.012741893455383874 -0.1135458701245769 0.010335577489060582 -0.11378771931162641 -0.30970005372764653 -0.5424252692789352
763937500.0 -0.2535524816881259 -0.5915716623059787 0.009923208651581403 -0.11479719607176324 0.007480112509431582 -0.11450192556878941 -0.31127860568860494 -0.5369625411022269
764625000.0 -0.2552322637322432 -0.5876298582623918 0.007025455949705094 -0.11600805522167497 0.00466662402528413 -0.11512636785786733 -0.3126443025477103 -0.5316792035677785
765312500.0 -0.2566602399514691 -0.5835325274106792 0.0040027542091120895 -0.11713001655454224 0.0018257225172014617 -0.1157286479763468 -0.3139243292920635 -0.5261495289253871
766000000.0 -0.2581442261893951 -0.5796315854638872 0.0008710991072664588 -0.118190702677492 -0.0010063607020631144 -0.116317640868023 -0.3151985640659607 -0.5206045100364827
766687500.0 -0.2595460164049657 -0.57584611612752 -0.0024027508971245243 -0.11910847859702861 -0.003831311661651942 -0.11695887673799003 -0.31625304930954234 -0.5148438447961909
767375000.0 -0.26088962204643257 -0.5719849608386686 -0.0058259038309421765 -0.1198861672961753 -0.006674418160507724 -0.11755513555328995 -0.3174132358925848 -0.5089719087798295
768062500.0 -0.262275636559075 -0.5681620193522235 -0.009364418127654135 -0.12067352532425443 -0.00963322395369391 -0.11810626749815742 -0.3184084505224184 -0.5031975259793307
768750000.0 -0.2636083512262423 -0.5643129209340197 -0.012956748327340534 -0.12125959628121195 -0.012647082518668688 -0.11871408946487474 -0.31943337509485265 -0.4972361762543158
769437500.0 -0.2647852461199212 -0.5606170022207173 -0.016545067934970754 -0.1216867121332663 -0.01575060197863673 -0.11924770212780451 -0.32050852339138225 -0.4911482280634343
770125000.0 -0.2661147069504822 -0.5567961734184602 -0.020312511463133908 -0.12194991092748758 -0.019008323562214022 -0.11981073520499272 -0.32162959497773297 -0.4849886842661605
770812500.0 -0.2673949147919099 -0.5531814029204888 -0.024029696336190155 -0.12202576662134312 -0.02226225144831223 -0.12023521401873176 -0.3224618385462227 -0.4788455251133725
771500000.0 -0.26868406586613003 -0.5494087285453122 -0.027825918109017817 -0.12189118362096653 -0.025741139867655093 -0.12055628344286791 -0.32340071516680735 -0.47255533038026876
772187500.0 -0.26988480410156535 -0.5456174257552076 -0.031662202493978754 -0.12161244197651767 -0.029291922039150448 -0.1208148351216378 -0.3243657991521324 -0.4663208436294863
772875000.0 -0.27118495662105363 -0.5418879898717704 -0.035377387731067744 -0.12123203987864098 -0.032981937253219074 -0.12089264376887877 -0.32522173647223596 -0.4600391289384167
773562500.0 -0.2725320411368794 -0.5378755963405689 -0.0391619972216819 -0.12060398525735762 -0.03677267929725963 -0.12085209359932284 -0.32594943784044916 -0.45375361606696535
774250000.0 -0.27386825579241125 -0.5339534098042368 -0.04273895127021568 -0.11984859089140619 -0.04057738858803484 -0.1205879894696982 -0.3267177109313123 -0.44753658038649996
774937500.0 -0.27511935988984865 -0.5299917552865206 -0.04640943102239907 -0.11895834747442913 -0.04447953271847813 -0.1201319923661993 -0.3272928360108368 -0.4413891983272784
775625000.0 -0.27624624332158393 -0.5260120893947386 -0.049889936785612814 -0.11797867803656832 -0.04833188728753422 -0.1195615645772276 -0.32789479599660887 -0.4353712058347388
776312500.0 -0.2774655265747624 -0.5218237941807363 -0.05335756896010992 -0.11689360494007811 -0.05219170508666017 -0.1186816519999344 -0.32829496620957765 -0.4293251283618449
777000000.0 -0.278663622071344 -0.5176587788177609 -0.05666819365285004 -0.11569048062980757 -0.055943168606578636 -0.11765544587242345 -0.328564269230959 -0.42340712016464305
777687500.0 -0.2797850143897642 -0.5136153491141153 -0.05987827997887926 -0.11446861634717881 -0.05964023485662635 -0.11647299371953729 -0.32875620697603647 -0.41771880826316704
778375000.0 -0.28078408292208035 -0.5093447791339267 -0.06307948673937397 -0.11317240585432861 -0.06319063774509771 -0.11517164576349523 -0.32872467523721777 -0.4120755009678311
779062500.0 -0.2816726408082389 -0.5050541189876413 -0.06614651800244885 -0.11191810153787729 -0.06665034323521112 -0.11368765612824992 -0.32852251244543157 -0.4065086367129599
779750000.0 -0.2824626149173381 -0.5007684584929974 -0.06919562279119697 -0.11066744184402304 -0.06996018010855523 -0.11220401409441189 -0.3281242922952888 -0.4010847452571267
780437500.0 -0.2831679636063944 -0.49647447579430737 -0.07216737225522861 -0.10942432338815654 -0.07318469968148623 -0.11070823614511233 -0.32752481809602446 -0.39576341716748126
781125000.0 -0.28377754598441113 -0.4921704249688508 -0.07521805613658082 -0.10820911190479507 -0.0763492710257404 -0.10914702911249695 -0.3266198033502232 -0.39080919774228534
781812500.0 -0.2841833344099623 -0.4880594300122174 -0.07821008850063535 -0.10690328015016133 -0.0793970882873502 -0.10766625611021491 -0.32559105188043397 -0.38573429727353287
782500000.0 -0.2849081061983295 -0.4837591836827092 -0.08123969188639574 -0.10559835015325371 -0.0824466585904771 -0.10615700314481091 -0.3242317285144115 -0.3807262305994278
783187500.0 -0.2851052356071064 -0.4797028995472222 -0.084288709001496 -0.10432317085588952 -0.08549875306010588 -0.10462328773368067 -0.32277078706283907 -0.375857958288987
783875000.0 -0.28554960779632077 -0.4755661017754083 -0.08737763579302624 -0.10300348607628082 -0.0885894855354889 -0.10305903828173776 -0.3211363825518451 -0.3708249325598695
784562500.0 -0.28574109161596933 -0.4712766130022334 -0.09058874283075266 -0.10155452103054685 -0.09166848338276284 -0.10147313079087586 -0.31931117409391296 -0.3659427452374999
785250000.0 -0.2858967770610586 -0.4670775452631811 -0.09380117184771729 -0.10006026087211455 -0.09480476884284986 -0.09985045392947506 -0.31733323345268655 -0.36099800602967463
785937500.0 -0.2862995588639358 -0.46304199840188737 -0.09714139541964933 -0.09837382533866118 -0.0980681299732287 -0.09806735337839532 -0.3153276408786012 -0.35611050651650955
786625000.0 -0.2863966316123309 -0.45901639136793615 -0.10053813637501473 -0.09662753479634117 -0.10135526523703904 -0.0962118563376734 -0.31309247739928575 -0.3511674021864044
787312500.0 -0.28655922297278674 -0.45487282024994785 -0.10394714599677632 -0.09468298805751038 -0.1047638138802346 -0.09420539528740236 -0.3108382802687375 -0.3462159054288393
788000000.0 -0.28665198780130113 -0.4507952771450126 -0.10743597731214964 -0.09255024922179313 -0.10819548339060188 -0.09193831765363855 -0.3085998674136824 -0.34123081783621917
788687500.0 -0.286731718656018 -0.446698556634394 -0.1109533052124312 -0.09025524644394053 -0.11166620638937645 -0.08955772874236247 -0.3062346089064417 -0.33636697322823894
789375000.0 -0.2868462386026507 -0.44252744552995255 -0.11441623468542442 -0.08762285979046516 -0.1150529109349538 -0.08686072903433734 -0.3037954851752825 -0.3313218248670909
790062500.0 -0.2867559343079725 -0.4382983824751132 -0.1178596332811349 -0.08493046199915519 -0.1184539928565743 -0.0840039653859949 -0.30128847636847 -0.32646945104830216
790750000.0 -0.28679245795669556 -0.4342113171636838 -0.12128619696207008 -0.08197858308138642 -0.1217408633587398 -0.08093117375978554 -0.2987843108710036 -0.3215460442979722
791437500.0 -0.2866242584596975 -0.4299463470178257 -0.12456210472189952 -0.07873776457059176 -0.12485483273281044 -0.07762558626604503 -0.2961880590312579 -0.3167003931187857
792125000.0 -0.2862718346570356 -0.42589596592623097 -0.12775692526742646 -0.07539744478676325 -0.12785437474708142 -0.07407174770657932 -0.29350220802987814 -0.31196919609097584
792812500.0 -0.28602873181639155 -0.42155403465346736 -0.13081951787438473 -0.07182983010205526 -0.130655756485171 -0.07047279670508094 -0.29077622072704823 -0.30723261475755304
793500000.0 -0.2855325895530599 -0.41755263534070575 -0.13371583077838364 -0.06804841884216375 -0.13325545845472656 -0.0665898601263607 -0.2880015100391258 -0.30274209411857794
794187500.0 -0.28498596889066313 -0.4135352288128426 -0.1364512230635831 -0.06411246676570263 -0.13567313268586012 -0.0627056484944471 -0.2852054479329158 -0.29822825027931077
794875000.0 -0.28436382274729405 -0.40957757751631574 -0.1390349586928806 -0.060104046323027155 -0.1379232737093578 -0.058775488718872164 -0.2823166424541384 -0.2939691633149191
795562500.0 -0.28357480892494835 -0.4056729849210402 -0.14141118636865577 -0.055839720271021354 -0.13994551669964536 -0.05473940885957138 -0.27940844250220404 -0.2897962332663659
796250000.0 -0.28270297162425106 -0.40188448411947764 -0.14351312546227743 -0.05167057278675545 -0.14177525792625512 -0.05083831043257035 -0.2763972315532664 -0.28598225539536076
796937500.0 -0.2819768571682026 -0.3982957485421025 -0.14551672688998282 -0.04730040633254785 -0.14352277878444378 -0.046847287417922864 -0.2734683059467503 -0.2822114427343474
797625000.0 -0.28102903481707536 -0.3947563311900793 -0.14729047809884405 -0.04282379971634972 -0.14512106410248826 -0.04292199646293683 -0.2703647040692992 -0.27887015716536867
798312500.0 -0.2802134324985468 -0.3912151449322482 -0.14880178731637722 -0.03847143095984786 -0.14661600739895214 -0.03898463692403048 -0.2672386426911324 -0.2755667738269263
799000000.0 -0.2794137128041868 -0.387804509596444 -0.1501875541702062 -0.03408534278869118 -0.1481043013925195 -0.035157165354501724 -0.26392929963171335 -0.2727190397667697
799687500.0 -0.2786059295678538 -0.3845319574851494 -0.15140189364467882 -0.029647441587623082 -0.14955552050888796 -0.031238389958307772 -0.2608931868052705 -0.2700498491599744
800375000.0 -0.2778989017610589 -0.38116570269611694 -0.15243601988110164 -0.025298224027567272 -0.15094058524834103 -0.027295730601342164 -0.2575462628532037 -0.2676611586603194
801062500.0 -0.2772406283150189 -0.3780165322338478 -0.15337713457810723 -0.02100474748210311 -0.15238487370104842 -0.023308706835156442 -0.25409914175024434 -0.2654349805801959
801750000.0 -0.2765008088796404 -0.37483954794425683 -0.1541658582304991 -0.01668313168962315 -0.15372747268969625 -0.019252359397895182 -0.2508764843270599 -0.26350474286961584
802437500.0 -0.27594016560024504 -0.37148067811219965 -0.15486437900160832 -0.01247752752983691 -0.15506403038501185 -0.015159924313119681 -0.24750370907290906 -0.26181438953275254
803125000.0 -0.27535805963471555 -0.3682940596485508 -0.15554383756218182 -0.008266913182492725 -0.1563016218489515 -0.010867623471288806 -0.24410186043215593 -0.2601175406421718
803812500.0 -0.2748652471923001 -0.3650402413860481 -0.15609363584316635 -0.004089802140610434 -0.15742433230902847 -0.006421202949181806 -0.24073734794013119 -0.2587667776026778
804500000.0 -0.27429699639643346 -0.36180334037649703 -0.1565500016159692 0.00016262650118271122 -0.15845057767912188 -0.001867234975946509 -0.23745589066443418 -0.2574055519323724
805187500.0 -0.27367881892326584 -0.35856152551720316 -0.1569088950691508 0.004383558792542564 -0.15923347513289624 0.002821104513533144 -0.2342116085167447 -0.2560211062890371
805875000.0 -0.27307404255007733 -0.3552780070196831 -0.15725430670061386 0.008610867399750843 -0.1598651630862336 0.007551666719416497 -0.2310281142155245 -0.2548088062020333
806562500.0 -0.2724462927087986 -0.35210130735073686 -0.1575730837954129 0.012852672589085477 -0.16032648883301337 0.012468651000848053 -0.22805646862617185 -0.25380509883065366
807250000.0 -0.2717009016166419 -0.3488973539772656 -0.15777061494918357 0.017140770816793646 -0.16046281330723366 0.017401029501340926 -0.2250121120168733 -0.2525705125915211
807937500.0 -0.27093614842027397 -0.3457452894277237 -0.15782406659645684 0.021686279447426404 -0.16043996356841123 0.022424520254152473 -0.22213145934273737 -0.2516233198749307
808625000.0 -0.27015756653566947 -0.3426777343181542 -0.1578369666439435 0.02613597741056419 -0.16011656119958365 0.027458302191720695 -0.2192163779940578 -0.25059230866769744
809312500.0 -0.2694253797657739 -0.3395732478887069 -0.1576921763692955 0.030708948095565586 -0.15962472002114866 0.03246054505580823 -0.21651698208823508 -0.24961531145252353
810000000.0 -0.2685320710061899 -0.3365823067870584 -0.15740702883790902 0.035328060906939254 -0.1588674848280854 0.03739615825378453 -0.2138389385354285 -0.24868628424089
810687500.0 -0.26762830669061666 -0.33364499586544544 -0.15687293556209564 0.039970948763378235 -0.15790603407490753 0.042328304110103666 -0.21129083831620946 -0.24773529162079097
811375000.0 -0.2668204843503478 -0.3309396242056901 -0.1562404922484784 0.04478888074602759 -0.15671269044051203 0.04719978233950339 -0.2087384355356344 -0.24700916526785083
812062500.0 -0.26587462424916825 -0.328116471786189 -0.15541224576111612 0.049413276392495875 -0.15534121173081109 0.051874674101881325 -0.20634045102904242 -0.24612941124934673
812750000.0 -0.26502386456189975 -0.32550550302788905 -0.15440835160208582 0.05420569247615533 -0.1537835820391237 0.05652679936139706 -0.20399172972366794 -0.2453451707752461
813437500.0 -0.26420168256040916 -0.3228996014767319 -0.15318095309947224 0.05888874284718212 -0.15209408468991137 0.0610283186051044 -0.20167175377356872 -0.24473770806858758
814125000.0 -0.26323345981873836 -0.32024763640745413 -0.15179898661519747 0.06364891294189619 -0.1502416743750666 0.06542687926613175 -0.19940663651919838 -0.24418290342754667
814812500.0 -0.262374990542177 -0.3176946283009121 -0.15014502472008048 0.06825537396351787 -0.14834826741564547 0.06966267284128567 -0.197311156371909 -0.24370239399127072
815500000.0 -0.26169668181515054 -0.31519253748356973 -0.148405642212419 0.0729351543804297 -0.14631652180737784 0.07385693555757954 -0.19529039600448148 -0.24336390286248166
816187500.0 -0.26108111325398975 -0.3125392095786713 -0.1464290101969409 0.07746866427474504 -0.1443060961285284 0.07794941755691587 -0.19340311450318345 -0.24298662115973096
816875000.0 -0.2602227458848633 -0.31005460014047476 -0.14432765401854164 0.0819569928223343 -0.14216053768086395 0.08192459309425948 -0.1916222451739942 -0.24280923525034345
817562500.0 -0.25946130080272833 -0.30758482091919054 -0.14199041721475603 0.08630852110244197 -0.13992254087449169 0.08575391891127108 -0.1897566288517803 -0.2427476703069941
818250000.0 -0.25870938223395895 -0.3049317761280879 -0.13945610585655355 0.09057608168116854 -0.1376763400605406 0.08961860260981723 -0.18812906261450518 -0.24265233692110846
818937500.0 -0.2579544062133631 -0.30227337047949426 -0.13690625486572888 0.09476349221575357 -0.13533416475672216 0.09341672834718533 -0.1865854833831269 -0.24265793070154532
819625000.0 -0.2571060762670708 -0.29956107399549753 -0.1341957443733417 0.0988179452777707 -0.13298349011961527 0.09715530943803938 -0.18497372554223088 -0.24286359997001214
820312500.0 -0.25617399114798245 -0.2970281100312435 -0.13119667472175756 0.10276554152186414 -0.1305317753580943 0.10093250139194121 -0.1835416821698196 -0.24301077069532093
821000000.0 -0.25523237307754587 -0.29438169256671415 -0.12827848708990228 0.10664373216589734 -0.12802355636182192 0.104601880339739 -0.18233136251523438 -0.24311248210000455
821687500.0 -0.2541952914838807 -0.29182611862573227 -0.125237938571902 0.11022216998670446 -0.12533940749344608 0.10828975333297003 -0.1809987600729029 -0.24338238157955694
822375000.0 -0.253172367388537 -0.2893303036174696 -0.12196139681692535 0.11373571021650476 -0.12254543797646353 0.11201522119798003 -0.17979568554558864 -0.24352914179168733
823062500.0 -0.252094840214173 -0.2869450318364536 -0.11866184841934836 0.11724226640435378 -0.1196888989203045 0.11563466561575719 -0.1787013953543967 -0.24379409457120121
823750000.0 -0.2509438106196989 -0.28442565393241753 -0.11533713045769639 0.12041865522184331 -0.11653613615436517 0.11922201796556324 -0.17760379280874994 -0.24392115864308656
824437500.0 -0.24980358559166593 -0.28220187919231404 -0.11194709137128639 0.12363467686886796 -0.11341161152048643 0.12269868211959588 -0.17670007643674068 -0.2440917975386881
825125000.0 -0.24857172859386775 -0.2800669876817325 -0.10847962546174929 0.12674367010119286 -0.1099971160573368 0.1261010921006125 -0.1758170195888045 -0.2441363740306035
825812500.0 -0.24746072506361158 -0.2778907057649197 -0.10492659837837336 0.1296480631745745 -0.1065066899041484 0.12941078701537853 -0.17505934788299765 -0.2441742154377462
826500000.0 -0.24634720617809858 -0.2757839609647233 -0.10132837126410418 0.13242425069653777 -0.1028535271702175 0.13260844106604844 -0.17430965338554186 -0.24414039374796517
827187500.0 -0.245152157409566 -0.27376105807159257 -0.09774354799135976 0.13506932762418541 -0.09914654788228901 0.13553668179531964 -0.1734815621480822 -0.2440564146399428
827875000.0 -0.2440018499228578 -0.2717925832982717 -0.09400907713731908 0.13766343460598232 -0.09522913614088745 0.13837231842266567 -0.17288484340992713 -0.2439741514671576
828562500.0 -0.24282806489689304 -0.269906682745881 -0.09028762100077317 0.14010777926166745 -0.09137665104741224 0.1410145118769347 -0.17237982453365708 -0.2439027587209064
829250000.0 -0.24178380375247638 -0.26805065336180134 -0.08647804849868337 0.14243549057622584 -0.08728242122278701 0.1434942095564172 -0.17177092082162537 -0.24369104677226974
829937500.0 -0.24068056546473907 -0.2662351008990624 -0.08253099207369759 0.14473014285232058 -0.08316720312904227 0.1457528325712237 -0.17131482625035802 -0.24347447437232936
830625000.0 -0.2395812463572949 -0.2643570330133007 -0.07871731464300091 0.14687159302881198 -0.07906750918844908 0.14792191773125185 -0.17086241123480617 -0.2432924838559158
831312500.0 -0.2387276011400573 -0.26262250437124257 -0.07473905665326776 0.14891162012908354 -0.07489038147804902 0.14995157216511035 -0.17043795828436825 -0.2430979542003479
832000000.0 -0.23764932632583427 -0.26089739925370226 -0.07072946992105082 0.15086500002846837 -0.07073650508188174 0.15185369072749674 -0.17012035507173723 -0.24286655582681407
832687500.0 -0.23662104314867322 -0.25904325139196055 -0.06675819275987405 0.1527260353284771 -0.06648338110789037 0.15361510920366642 -0.1696651306382366 -0.24276272913898644
833375000.0 -0.23570508903828746 -0.2573669746742778 -0.06263300767028622 0.1544358197272853 -0.062315892926154026 0.15525153882618195 -0.16925453707007113 -0.24255616141762573
834062500.0 -0.2346958329097615 -0.25566008027652226 -0.058559627532174335 0.15610994650842763 -0.05818933296094395 0.15667748354670646 -0.16892402970199463 -0.24240783296068846
834750000.0 -0.23372899242285436 -0.2539899803671324 -0.05433713381215232 0.15757814703266299 -0.05394821504130805 0.15808710463250583 -0.16855944556590766 -0.24222278626336793
835437500.0 -0.23274573648581653 -0.25238160048719105 -0.05026344935104644 0.15896502720103634 -0.04973295351067184 0.15937903368850323 -0.1681384731034171 -0.24206831295426234
836125000.0 -0.23176249253372452 -0.25075846981827515 -0.04598984577878673 0.1602781312456536 -0.04549567786411252 0.16053851395813915 -0.16775596835459497 -0.2420425805507108
836812500.0 -0.23086843400884788 -0.24923634066313347 -0.041823260297175084 0.1614575116793298 -0.04131419588034735 0.1615415944747552 -0.16730240449971612 -0.2418903343925987
837500000.0 -0.22987583210865276 -0.24769511797887908 -0.03760602518678821 0.16245273173986058 -0.037058360478063414 0.16258604728845552 -0.16682136150352894 -0.24185212231380004
838187500.0 -0.2290169513216159 -0.24623286528094535 -0.03331556840223128 0.1634666409900331 -0.03284570223302114 0.1634933891517084 -0.16631556439139983 -0.24176947717744302
838875000.0 -0.22812469730128174 -0.24486176090269693 -0.02890743066628468 0.16431261734178826 -0.028528620288866612 0.1643353054150397 -0.165832735649644 -0.24162352553935182
839562500.0 -0.2271562376248268 -0.2434838348772219 -0.024632066144918512 0.16506293427122382 -0.024260300759745217 0.1649971591138443 -0.16530766641712036 -0.24157837063841744
840250000.0 -0.22637047403839902 -0.2422314409871215 -0.020291849518039046 0.16560241416430427 -0.019985246846873944 0.16559846388662686 -0.1648547952125612 -0.2414366242832402
840937500.0 -0.2255209669353405 -0.2410324199867399 -0.015924876525651777 0.16617265428300243 -0.015725804321234965 0.16608524176037825 -0.16435561199357665 -0.24128074911823238
841625000.0 -0.22469529865139373 -0.23981419635194265 -0.011571715955487928 0.1665236027508015 -0.011342545986443874 0.1664231521995199 -0.16381794023582652 -0.24102710391165336
842312500.0 -0.22400253254193778 -0.23864013406419857 -0.007207656816281781 0.16681189966948776 -0.0069616391662551255 0.16665411126994648 -0.16342600627713932 -0.2407957383147214
843000000.0 -0.22323880384657657 -0.23761728429073936 -0.0028607437214727776 0.16691307626648968 -0.0026865398053748887 0.16679309362088016 -0.16293608151687347 -0.2405736373460895
843687500.0 -0.2225759523218806 -0.2364968108561303 0.0014776913727421038 0.16700714503448066 0.0016950236305213007 0.16680977065421854 -0.16246469218649864 -0.2402463592557873
844375000.0 -0.22186171260598636 -0.23549814726168103 0.0059612738179074705 0.16694450559150467 0.006048477233980339 0.16677182645096653 -0.16217944993963682 -0.23991923829159142
845062500.0 -0.2213074762306948 -0.2343829256486315 0.010281809700678135 0.16673643716616784 0.010492301205036797 0.16653256915281842 -0.16190066674378573 -0.23957916073556645
845750000.0 -0.220608189802458 -0.23331766075190083 0.014684886111064674 0.16648437570782051 0.014816366190394491 0.16626567137954748 -0.1615863928813876 -0.23911585270645655
846437500.0 -0.2199710714821878 -0.2321727783785713 0.018976313836149047 0.16601084008044403 0.019084631090815117 0.1658525964370625 -0.16135283692743618 -0.23867762069488543
847125000.0 -0.21936220573508708 -0.23115325354392563 0.02334797291901459 0.16553291866299563 0.023467230368359304 0.16528610127055388 -0.16119062891168665 -0.23816049291984817
847812500.0 -0.2187962966716663 -0.22989197510659024 0.02766486310963817 0.16488515567715067 0.02772271322664426 0.16464870461292888 -0.1610504481183661 -0.2377418962039662
848500000.0 -0.2182169346319447 -0.22882882285913772 0.03203985216495219 0.16404931438947118 0.03203417213881769 0.163779112618407 -0.1610141999994097 -0.2372806307035077
849187500.0 -0.21754415133513055 -0.22754001932425652 0.036244301912260656 0.16317958762450221 0.03621120780919939 0.162926446536282 -0.16091644855604306 -0.23689234547934385
849875000.0 -0.21674236659415855 -0.22629995526474037 0.04046510425136248 0.1621013786827879 0.04049925308780061 0.16189836080576558 -0.1609093269192041 -0.23643554838868175
850562500.0 -0.21599246266896824 -0.22509203936197358 0.04471023212403254 0.1609491442746106 0.04463895724204323 0.16073214300899977 -0.16091080323337878 -0.23606255892165479
851250000.0 -0.2151187037189845 -0.22376230168429448 0.04891722670016859 0.15965625636344263 0.048810702984213666 0.15939473297509626 -0.16091052820707683 -0.23573306672903943
851937500.0 -0.21420710522742792 -0.22242659962387618 0.053151649661132165 0.15827422563742885 0.05293081167508885 0.15803182092211643 -0.16098692882891835 -0.23542806215213424
852625000.0 -0.21306827143685936 -0.22119847361006642 0.05709543556295976 0.15672302149800654 0.05693224578639816 0.15652114735724698 -0.1608724131525944 -0.23529684414657837
853312500.0 -0.21198202511453562 -0.21991341671524528 0.06121391855780258 0.15501872229267372 0.06099686064772615 0.15481747601849585 -0.16095313080394358 -0.23506103992685048
854000000.0 -0.2106944997835298 -0.21874736624716737 0.06522148759776132 0.1532220392787881 0.06486044221024467 0.1530879217753303 -0.1608796695625109 -0.23487583355967084
854687500.0 -0.20935368506990426 -0.2176147655328113 0.06914701578907975 0.15122921413251605 0.06868590281543308 0.15113842216587822 -0.1608369255752196 -0.2348317003499757
855375000.0 -0.20797876266453433 -0.216582156896103 0.0728680186698773 0.1491847542372549 0.07238354767995563 0.14915951833624788 -0.16077377198087078 -0.23480630529805147
856062500.0 -0.2066834920669794 -0.21576864327485357 0.07655225586163157 0.14698892649340214 0.0760001440736868 0.14706371261879753 -0.1606501227844479 -0.23481316676505423
856750000.0 -0.2052779636389855 -0.21482849111999303 0.08017334543068153 0.14470572043644422 0.0795896837861125 0.14488709080354756 -0.16058145058301035 -0.23479380598984742
857437500.0 -0.20389060897537586 -0.2141643967967007 0.0835798602399217 0.14243922859258523 0.08297536601446372 0.14264572384349447 -0.16039841570353422 -0.23479650985448544
858125000.0 -0.20262679262754044 -0.21352306721750453 0.08692181769897205 0.14009139621133326 0.08627656982665521 0.14041685709104076 -0.1602536359121951 -0.2347773331173805
858812500.0 -0.20128031051601816 -0.21291889342681047 0.09009293931320392 0.13772942234136135 0.08949828409927765 0.1381451660623263 -0.1600215080822425 -0.23472610838333371
859500000.0 -0.20012645619718136 -0.21231874879618354 0.09322283434460152 0.13518095228014337 0.0927132381349034 0.1357882182656609 -0.1598344557983864 -0.23461130468339997
860187500.0 -0.1990112172439975 -0.21181298588259254 0.09625648935322498 0.1327540555709874 0.09578649341169192 0.13356928794717896 -0.15949245192071043 -0.23455545487266058
860875000.0 -0.19783939546255574 -0.21132670782143884 0.09924372477076468 0.13015006786080344 0.09889329357966577 0.13111722061482234 -0.15914614318561426 -0.23437943480355594
861562500.0 -0.19684253733400542 -0.21074846462547975 0.10220295544188776 0.1276193041577335 0.10196875741882569 0.12873721554502215 -0.1588936941449872 -0.23425320221956175
862250000.0 -0.1958712215470722 -0.21028292180817268 0.10494343683417412 0.1250374640786046 0.1049303375417323 0.12623172643003447 -0.15860698604264098 -0.23385583339481625
862937500.0 -0.1949396961374961 -0.2097470306641958 0.10767711406129123 0.12252251117568695 0.10794476896423273 0.12370063075036643 -0.15836203047027297 -0.23364495600017193
863625000.0 -0.19414956253292942 -0.2092099627025496 0.1103958140483213 0.11982006493855704 0.11094445917433626 0.12106664994558808 -0.15812389824259593 -0.23328147048464096
864312500.0 -0.1934287716216082 -0.20850708522952732 0.11310941166994642 0.11720720533789815 0.1138921558525527 0.11835630976307734 -0.15798232752680588 -0.23282289738817394
865000000.0 -0.19266235073195329 -0.20787883656511388 0.11575587861561117 0.11442801642924907 0.11676883552628424 0.11553979194771481 -0.1578744089601068 -0.2323734801187202
865687500.0 -0.19193220631209815 -0.20719207217813992 0.11842412341512025 0.11170020444969277 0.11964158619725947 0.11256996134906072 -0.15797639054048893 -0.23181780175892303
866375000.0 -0.1911984069076002 -0.20631062808314185 0.1210261629007804 0.10894909923410742 0.12246418494144862 0.1094867801013804 -0.1580871230889649 -0.2312359635158824
867062500.0 -0.19045085241931958 -0.2054086267904995 0.12356850898093605 0.10608865863684358 0.1252235656877097 0.1064034863597594 -0.1583573057534486 -0.23061623008563448
867750000.0 -0.18971455528517503 -0.20451198344885882 0.1261716484209095 0.10306846712670134 0.12783360011094258 0.1031243956170208 -0.15866255305490592 -0.22992872574406092
868437500.0 -0.1889293440269014 -0.20358349026099237 0.12867812697959383 0.1001380160252608 0.1303204598314939 0.0997807850647436 -0.15915373550488993 -0.22926554947896133
869125000.0 -0.18806763987360053 -0.20254434364558083 0.13113845473806623 0.0969742602949112 0.13276518657108105 0.0962769752318244 -0.15975665470214015 -0.22861560826398258
869812500.0 -0.1871210033836811 -0.20154901644346465 0.13353183519575237 0.09390814847567117 0.13501041721993687 0.09276237619790519 -0.1602903302110604 -0.22795515937345118
870500000.0 -0.1861901554395572 -0.20051231311325105 0.13584608520073152 0.09068847988965416 0.13704999923582387 0.08916813457248093 -0.1609631415759025 -0.22727126264150785
871187500.0 -0.18518111572351273 -0.19949058947513287 0.13809184071228356 0.08742012093981087 0.13901085671668922 0.08562162035087817 -0.16166001419961543 -0.22655331924381816
871875000.0 -0.18411610641229556 -0.1985251327861619 0.14030258389051584 0.0839579378182765 0.1407204396340505 0.08197984520299029 -0.16231945266418574 -0.22589314297464747
872562500.0 -0.18296569124467174 -0.1976862390422111 0.14240294543583493 0.08050217661934812 0.14235530618851305 0.07836991644364842 -0.16303957524486754 -0.22517749626639103
873250000.0 -0.18179627384717947 -0.19681596295373122 0.1443869518934198 0.07690247347592107 0.14389067598247846 0.07483263535850125 -0.16365034239275336 -0.2244860036008697
873937500.0 -0.18063453674536276 -0.1961100898610957 0.14627582950885024 0.07329241163665641 0.1452764890382527 0.07132818123696512 -0.1642504376791824 -0.2238810959674341
874625000.0 -0.17948488291750492 -0.19533510257306708 0.14812965532644023 0.06959871686139499 0.14656137919540038 0.06795296881139042 -0.16478919705509668 -0.22326732875023542
875312500.0 -0.17824976079238897 -0.19472936504191865 0.1497480719101751 0.06584873443792594 0.14788264355140707 0.06452640606829402 -0.16508365966702926 -0.22272156641579843
876000000.0 -0.17712212866982144 -0.1941839488255996 0.1512796879358722 0.06196362077799042 0.1490843516915198 0.06119407318006097 -0.16543051033455664 -0.22225208991541484
876687500.0 -0.17597415581798762 -0.1936444060430916 0.15265336881761504 0.058208234163169725 0.15026839703084052 0.05798018732584404 -0.16547936221890694 -0.22172375393236132
877375000.0 -0.17486081677816429 -0.1930194808608152 0.15390436892576226 0.05431163413227693 0.15149198921995657 0.05468922816396431 -0.165607379995341 -0.2213189653728022
878062500.0 -0.17387973127470405 -0.19254409443789447 0.1550472261101591 0.05049720695661721 0.15279993098738778 0.05141832509497878 -0.16556799657360358 -0.22087096120236657
878750000.0 -0.17279417350856638 -0.19192633939673753 0.1560634622963498 0.04653332280022289 0.15404581112225382 0.048014987021947106 -0.16539393920682796 -0.2203773180231339
879437500.0 -0.17175638475527394 -0.19134604543977576 0.15683825967946305 0.04263303815850858 0.1553078196346092 0.04462415242677455 -0.1650742288337371 -0.2200125917891992
880125000.0 -0.1706723272541872 -0.1907422727849789 0.15752925751222197 0.03877852776183209 0.15651670486412017 0.04113668984933587 -0.16482845492749687 -0.21964189396630715
880812500.0 -0.1695590899659473 -0.19004147971131718 0.15820228099129766 0.03502318007622058 0.15764077915176614 0.03754720960578891 -0.1643184322250666 -0.2193162422106137
881500000.0 -0.16847004149375536 -0.18927477691340625 0.15859420025103602 0.031156433770434373 0.15870880419296476 0.03378322843014897 -0.16394630544540648 -0.21895286210252451
882187500.0 -0.16726522525296844 -0.18861898327355361 0.158957498479436 0.02734908761711371 0.15971156999617575 0.02988523801812268 -0.1635363136984435 -0.21857945285237135
882875000.0 -0.16596129971689857 -0.18783546583080618 0.15927591526174623 0.023612003350714034 0.1605065577162408 0.025955738484396577 -0.16322610091594356 -0.2181288387858538
883562500.0 -0.1645845182568783 -0.18711890616715285 0.15951782509013507 0.019968510240770353 0.16131573304000474 0.021948193335199144 -0.1629466264088564 -0.21771410631749372
884250000.0 -0.1631545537468909 -0.18643431097966173 0.15969877633947904 0.01629670469431516 0.16182416350000337 0.017904157418962865 -0.1627133703255584 -0.21711267175532376
884937500.0 -0.1616335784307234 -0.18575166504786927 0.15974088348857365 0.012601834767699693 0.16215786609439742 0.013643169111664188 -0.1626282904008342 -0.21645901747444693
885625000.0 -0.16005723067488647 -0.18512802623657307 0.15974356751738572 0.008959090831031052 0.16231441384557502 0.00945291808345272 -0.16254579025490337 -0.2156659390350454
886312500.0 -0.15837781831847123 -0.18464462344210636 0.15962916780015973 0.005396110430246703 0.16228127150436392 0.005307674217728607 -0.16253862568523894 -0.21486392652780273
887000000.0 -0.15667098148106193 -0.18414081741026558 0.1595778677075025 0.0019440001194008993 0.16209481835531026 0.0011916340630000557 -0.16267459632109538 -0.21390195264752132
887687500.0 -0.15495887381965073 -0.18389397356607118 0.15947791579960066 -0.0016732078055571753 0.1617191888101391 -0.0029161320195988665 -0.16292900633304644 -0.2129612562750524
888375000.0 -0.15318650677470774 -0.18361252694216443 0.15923308456419685 -0.005364141662436959 0.16112930215784155 -0.006991321167597 -0.16328967467649996 -0.21183258100980323
889062500.0 -0.15153235833036066 -0.18350961119852238 0.15912891205295507 -0.008836072806926365 0.1605185784205118 -0.010845454307024546 -0.16366088193056816 -0.21078699103072146
889750000.0 -0.14983459818096104 -0.18333663382882862 0.15880761598506687 -0.012460671229491264 0.15978091723287163 -0.014653104311183702 -0.16418266739756526 -0.2096643490590919
890437500.0 -0.1482463297663116 -0.18337537460237863 0.15847773017660347 -0.016016960825013832 0.1589531235984701 -0.0182649137875272 -0.16469924497668614 -0.20860288253394
891125000.0 -0.14663734437620085 -0.18354237825302416 0.15812449364706374 -0.019520677715135996 0.15802212937212762 -0.021812800549519992 -0.16519140629871384 -0.20743225120062384
891812500.0 -0.1452251880633365 -0.18362755146862522 0.15761213482546665 -0.023130568749411277 0.15702620467041833 -0.025294799654283082 -0.16570867689756572 -0.20645357547237794
892500000.0 -0.14382982564403635 -0.18371076736112577 0.1570828067491948 -0.02678389080673958 0.15612908807319262 -0.028582579326637426 -0.1662183559853646 -0.2054498832491048
893187500.0 -0.1434688802051967 -0.18363588619833043 0.15669345538187732 -0.030716746399095274 0.1554411801189427 -0.03223874423684562 -0.16713651599977525 -0.20454580274037862
893875000.0 -0.1422236971055901 -0.18388681089914824 0.15617286690060242 -0.034333740631138476 0.15449217813865426 -0.035455620806147156 -0.16761115355944334 -0.20370369134828076
894562500.0 -0.14102968395250953 -0.18386055114564492 0.15537765420950636 -0.03794645162232929 0.15359175357811505 -0.03860264141318135 -0.16785669093015987 -0.20287782693521655
895250000.0 -0.13987989944298215 -0.1838017607318115 0.15455703557697043 -0.04154092513983515 0.1527271316366195 -0.04179524043616835 -0.16815521132603523 -0.20215869667548803
895937500.0 -0.13863749629426003 -0.18369470639317556 0.153606222914617 -0.04526701231693168 0.15188798269280773 -0.04493748172982713 -0.16824673832726247 -0.2014660271621249
896625000.0 -0.13757499333514844 -0.18366059729020207 0.15247508056624468 -0.04876828498411395 0.1510266559702912 -0.04818596095386415 -0.16827189688245156 -0.20094253287323843
897312500.0 -0.13640091858676942 -0.18348597076478454 0.15134263181713767 -0.05241238235748339 0.1501038829112022 -0.05137754454477707 -0.1680209784740041 -0.20044288978459385
898000000.0 -0.1352483246677153 -0.1833973791967783 0.15009749396966662 -0.05596744408544455 0.1492028394844569 -0.05482138979539716 -0.16786247041870941 -0.20000967467911082
898687500.0 -0.13408473485311198 -0.18321085219766886 0.14866750999691203 -0.05953092301417194 0.1481252615270877 -0.058248368206382226 -0.16750438492779232 -0.19967173191983997
899375000.0 -0.13272889327994275 -0.18320169823584087 0.1471053826820271 -0.06298549405682553 0.1469631162370701 -0.06159810153936959 -0.16701245428540426 -0.19938591190562951
900062500.0 -0.13147586458583577 -0.1831019017402838 0.14542864188223753 -0.06632759236648081 0.14567515869938846 -0.06508957230180894 -0.16653240664193236 -0.1990327877499058
900750000.0 -0.13016840918280165 -0.1831509960824729 0.14374731769822768 -0.06967360919975944 0.14420575810386665 -0.06849558071374182 -0.16596450950701755 -0.19871376512007127
901437500.0 -0.12893136471704236 -0.18324940651266594 0.1418953402550545 -0.07282853050087165 0.14260615806073687 -0.07195596099967475 -0.1654444764311441 -0.1983571974673094
902125000.0 -0.1277571640113232 -0.18356289840178583 0.14004312550256037 -0.07591267891640004 0.14082020850229868 -0.07527110709079599 -0.1648366176865643 -0.19807757530838888
902812500.0 -0.12647755072192007 -0.1838342261868726 0.13797904913230355 -0.07895263794335644 0.1388430496898359 -0.07853609624747307 -0.1642592832966785 -0.19771692411353659
903500000.0 -0.12539616646108623 -0.18421799936037567 0.13590440201073134 -0.08188850483170311 0.1367573477876771 -0.08177403350709005 -0.16368559699703455 -0.19730639343368522
904187500.0 -0.12441625659888854 -0.1846890156135241 0.13376855425618298 -0.08475082594482478 0.13459584793917628 -0.08486763390986446 -0.1631860836819903 -0.1967970671866214
904875000.0 -0.12347546339078441 -0.18523246183106318 0.13166427447379947 -0.08755130564154395 0.13230281858664333 -0.08779223651474151 -0.16278979295141577 -0.19626396732984439
905562500.0 -0.12269392069664978 -0.1857751710063214 0.12941029716896427 -0.09027328873536028 0.12999077051348118 -0.0906052608929534 -0.16244279184520796 -0.19567416253725958
906250000.0 -0.12202077339451717 -0.18631564306226314 0.1271415222231127 -0.09287641019863968 0.12758091459174892 -0.09326460202069169 -0.16210335014389265 -0.19487545537708748
906937500.0 -0.12141358478781929 -0.18684709476663755 0.12482262830183458 -0.09543270416932774 0.12507110020564852 -0.0958053250215225 -0.16195419343403492 -0.19405315768418163
907625000.0 -0.1209153131225867 -0.18733915559664527 0.12252751234559937 -0.09794688963142695 0.1227369086633481 -0.09822367572277581 -0.16176079665387474 -0.1932398062895876
908312500.0 -0.12058920565014004 -0.18786963742308357 0.12017382615097348 -0.10031517314304195 0.12039108884814548 -0.1006027874728021 -0.16170568726083426 -0.19225588720545925
909000000.0 -0.12030393949076007 -0.18822254164965668 0.11786739801164346 -0.1026333889839111 0.11800747580240507 -0.1028570857208519 -0.1616625034915908 -0.1912790158751125
909687500.0 -0.12006883271253171 -0.18864347388093866 0.11559613351043745 -0.10501161613042297 0.11575875678171554 -0.10509730178792526 -0.16166382066499607 -0.19026113793373126
910375000.0 -0.11978341657717348 -0.18895635768205063 0.11319051056339545 -0.10726438897532946 0.1134749386772786 -0.10731361130882756 -0.1617238730226016 -0.18922997440306838
911062500.0 -0.11960459007030119 -0.1892011416865324 0.1109194286719061 -0.10962760176282182 0.11130636951034259 -0.109585007339692 -0.16187156492969648 -0.188156725733195
911750000.0 -0.11932145046662133 -0.18934744476621557 0.10868233477377054 -0.11177806608621922 0.10911113532819437 -0.11185756528092343 -0.1619736109095674 -0.18709690264002862
912437500.0 -0.1190484462679397 -0.1895469786331379 0.10632950441393663 -0.11403800528041395 0.10693566654720758 -0.1141025361702331 -0.16202335294646494 -0.18616888448757962
913125000.0 -0.11878626352764328 -0.18967835917656672 0.1040825886647638 -0.11616205208366251 0.10470456152456681 -0.11638752171183653 -0.1621304818610177 -0.1851621461337812
913812500.0 -0.11838876597089475 -0.18993093596914087 0.10175869447043988 -0.11837237832090672 0.10238455892193578 -0.1187544733536716 -0.1622409847692465 -0.18431439876366332
914500000.0 -0.11812507923424519 -0.190032658570724 0.09936954484296427 -0.12053078232200637 0.09996496094950734 -0.12106153277176399 -0.16223689915559245 -0.18349386270689785
915187500.0 -0.11779668910945591 -0.19027769341297585 0.09690609710136847 -0.12276601184439603 0.09747152093447183 -0.1234142380981226 -0.16217959600253976 -0.1827821947634307
915875000.0 -0.11733818672699457 -0.19060856668035694 0.0944765722565499 -0.12486529365481987 0.09489230080555014 -0.1257041592156586 -0.16208591749971218 -0.18212458146598082
916562500.0 -0.11709666948753615 -0.19089803862902952 0.09201944671557513 -0.12701320331350635 0.09220313259597523 -0.12799290665636578 -0.16195234634735353 -0.1816176272015996
917250000.0 -0.11671211056314269 -0.1912685980878941 0.0894732014305998 -0.12923026266777518 0.08939360498503927 -0.1301911569163879 -0.16177763837644552 -0.18106126396637254
917937500.0 -0.11649758714822347 -0.1917744922905996 0.08679378507483139 -0.13135142748943 0.08648740946510364 -0.13227704021768405 -0.16145057993681589 -0.18062921922739905
918625000.0 -0.11634174320284962 -0.19219507489876222 0.08407974956746958 -0.1332953796352939 0.08358544709798604 -0.13424992922210474 -0.16110498984044697 -0.18044614143394458
919312500.0 -0.11617129962215267 -0.19272331950696678 0.08118673833704793 -0.13528202844355147 0.08050446443122879 -0.13609905900307706 -0.16059965485585173 -0.18000578069320072
920000000.0 -0.11614123812948993 -0.19318159329064236 0.07833897222563649 -0.13720394286236254 0.07739169720643058 -0.13782936894018055 -0.16012790241912925 -0.17979344818121049
920687500.0 -0.11617081053189625 -0.19367649659960354 0.0753358629708814 -0.13890168849038456 0.07432220965122699 -0.13937483931690928 -0.15961706276380272 -0.17961632407554085
921375000.0 -0.116295467342522 -0.19414125234526058 0.07231405683964826 -0.14063587049336848 0.07125427082241967 -0.14091678571899846 -0.15915093772652908 -0.17937111048853893
922062500.0 -0.11650776293077056 -0.1945034732788163 0.06923439328105806 -0.142251256730837 0.06815769828745201 -0.14227077856259807 -0.15851729261558042 -0.17897986529778442
922750000.0 -0.11667223384696918 -0.19480495035558404 0.06609250054483046 -0.143765981245526 0.06507286733851644 -0.14357276888037057 -0.15795714294760227 -0.17872917841293276
923437500.0 -0.11693901128093583 -0.19521110150426332 0.06299268233493877 -0.14520859357363955 0.0620379695861345 -0.14478209343307297 -0.15735005363999707 -0.1783423342734317
924125000.0 -0.11717144474486102 -0.1954807350350752 0.059897120384897536 -0.1465381668104513 0.05910008330546633 -0.14597948829847582 -0.15680543217095916 -0.17790550589435905
924812500.0 -0.1175538235118342 -0.1957108849883957 0.05676653781251636 -0.14779226788928512 0.05612378518081093 -0.14708740045014027 -0.1563571071848435 -0.17734015740723563
925500000.0 -0.11770292701560202 -0.19579580044345005 0.05358573202148365 -0.148964022339337 0.05318863768335346 -0.14812382457343556 -0.15585186165394344 -0.17663286023025432
926187500.0 -0.11798443012301021 -0.19591657338724638 0.05046612130136508 -0.15003681840932287 0.05024763340905795 -0.14910052139975374 -0.1554779509810826 -0.17592705383472396
926875000.0 -0.11811073151473324 -0.19600948326863785 0.0473066261238978 -0.15107198512860837 0.04737200356465764 -0.15011765260960722 -0.15500814751659148 -0.17524293976654162
927562500.0 -0.11831665351122946 -0.1960490211371458 0.04418681703773688 -0.15211446703613948 0.04441964200284803 -0.15115826213057001 -0.15457636054907858 -0.1743897807959023
928250000.0 -0.11837915568112109 -0.19609151267378816 0.040988634149699776 -0.15309760306937137 0.04145761589451229 -0.1521937225147651 -0.1542753085716659 -0.17357237137993853
928937500.0 -0.11850629030582023 -0.19623498829808286 0.03777319968661501 -0.1540503207399842 0.03852334151384732 -0.15329939899258627 -0.15398757635628113 -0.17252653567818022
929625000.0 -0.11852897437395238 -0.19627266209989286 0.034586002511741445 -0.15486333008979886 0.035468636434633403 -0.15429234653343207 -0.1536103659254646 -0.17158953791227607
930312500.0 -0.11858969409227027 -0.19652256390670325 0.03142104308038089 -0.15566501750580342 0.032314743915257904 -0.15533244816908115 -0.15327836198157346 -0.17051734439277508
931000000.0 -0.11865865055152079 -0.19669833416854265 0.028155670285338358 -0.15646968542333883 0.029134735978002122 -0.15636765540070033 -0.1529392617865283 -0.1694861102690469
931687500.0 -0.11862776197041437 -0.1968693360026867 0.024882836122206008 -0.1572425183189395 0.02589412377525109 -0.1573651690072304 -0.15259725245170802 -0.16852548494761344
932375000.0 -0.11875934199364398 -0.19712316804355934 0.02159966050899337 -0.15783346319910674 0.022462202751643713 -0.1582560930733943 -0.1523564177182359 -0.1675636981104369
933062500.0 -0.11882552554565966 -0.19736963449870526 0.01827518371961006 -0.15846049626702638 0.019028744926901056 -0.15914278559837947 -0.15185868917528894 -0.16661925406432235
933750000.0 -0.11903721018024398 -0.19770988915677412 0.014879302041462096 -0.15910145091805877 0.015543508575762692 -0.15995658757623546 -0.1514687131452801 -0.1656903078356058
934437500.0 -0.11926011449614576 -0.1980374615927093 0.011600830699425493 -0.1596213905989998 0.01197847425656166 -0.16062143180469018 -0.15098074378696932 -0.16489272157435708
935125000.0 -0.11953527982674708 -0.19837458730228505 0.008205250941337654 -0.16009332968343976 0.008395895818124324 -0.16117801736340856 -0.1504719277641072 -0.1641475716889741
935812500.0 -0.11986392663327212 -0.19872235081690703 0.00480632152355599 -0.16057979593601143 0.004818591459907696 -0.16169259573413788 -0.14994413799923437 -0.1634747192369124
936500000.0 -0.12024461343895793 -0.19894092831057933 0.0014403670667028393 -0.16096231349273327 0.0011736210365257235 -0.16203845366306946 -0.1493806327637182 -0.16282057732279595
937187500.0 -0.12069852186381078 -0.19922179640473167 -0.002059850235313198 -0.1613439058368744 -0.002518468463303494 -0.16232493985725066 -0.14883062342055134 -0.16232744964652984
937875000.0 -0.12108171264872301 -0.1994620464429374 -0.005485088771978318 -0.16154753757272136 -0.006115655903730541 -0.1624011092479311 -0.1480763447304564 -0.1619074096066917
938562500.0 -0.12153481334942343 -0.19962662142669085 -0.009004080748105088 -0.16171959305016365 -0.009713851544803776 -0.1623603502645527 -0.14744788711508847 -0.1615452180175832
939250000.0 -0.12195635454915299 -0.19984874079577622 -0.012463144949454157 -0.1618405410852302 -0.013279178338257976 -0.16229551539021353 -0.14675017986862215 -0.16134178955791414
939937500.0 -0.12244317729515354 -0.19991282795433224 -0.01605818761931419 -0.16186962943683855 -0.016806398720884644 -0.16211263290338307 -0.14603020689426685 -0.16104849434563187
940625000.0 -0.1227995580564748 -0.2001110279119385 -0.019554235103728716 -0.16181063161745923 -0.020349952311734764 -0.16191353866615113 -0.14529315622027367 -0.16091611099159198
941312500.0 -0.12327233664413123 -0.2001807610873151 -0.022995640658718182 -0.16172749354061455 -0.023801717735424797 -0.16163622881746556 -0.1445057066240491 -0.16080399321016622
942000000.0 -0.1235499369851116 -0.20019072289470977 -0.026583251135083842 -0.16150366317004589 -0.027245475639598834 -0.16126116410924113 -0.14373492955191808 -0.1606242135598289
942687500.0 -0.12402878477835004 -0.20032769566370695 -0.030140049169567855 -0.16114137274430615 -0.030698055577494037 -0.16088492834259988 -0.1428949541574062 -0.1605968078306078
943375000.0 -0.12425434088477386 -0.2005008830100875 -0.033651208481407714 -0.16082245962367442 -0.034189958233446636 -0.1604886840473005 -0.14212747645189222 -0.16050523926789148
944062500.0 -0.12455960569735498 -0.20056135045963405 -0.03716627866530272 -0.16037473315293127 -0.03759802767071994 -0.15996922113156276 -0.14135979881798363 -0.16052409194354925
944750000.0 -0.12492371732635425 -0.20075063063421836 -0.04072891046666178 -0.15995198644894212 -0.041075423289599254 -0.15942054465262537 -0.14060011101732747 -0.1604775063626958
945437500.0 -0.1251916669735932 -0.20085046868821632 -0.04438733699867375 -0.15919847214369956 -0.04452139707260644 -0.15881648795027647 -0.13976906384137974 -0.16040538304565344
946125000.0 -0.12548658575965838 -0.20106531037086658 -0.04786743246204624 -0.15852319957608774 -0.04802662139099435 -0.15821137709786895 -0.13902189066524398 -0.1603477961973167
946812500.0 -0.12585866867566653 -0.20137258492729193 -0.05145601082803188 -0.15784384602102994 -0.05153082689612384 -0.15750160323973017 -0.13826308254546077 -0.16038405930115862
947500000.0 -0.12619987585163597 -0.20164469430145973 -0.05508373224092571 -0.1570492354819244 -0.054969533749061036 -0.15681483412905345 -0.13754381869973803 -0.16031854538300097
948187500.0 -0.1265651156936252 -0.20183787797445912 -0.058595585641743546 -0.15608547960762229 -0.0584967403621836 -0.15594279140055314 -0.13683298064784102 -0.16050456357768147
948875000.0 -0.12692663654294728 -0.20216000406783532 -0.06212196579331794 -0.15508650374415087 -0.06202422987007588 -0.1550735603892637 -0.13614404555695375 -0.16053876886163157
949562500.0 -0.1273146392134709 -0.2023998736971523 -0.06572103371935613 -0.1540322843771587 -0.06557587662425272 -0.15400240540680482 -0.13554682549002392 -0.16074183913697085
950250000.0 -0.12782022846381177 -0.202729076147344 -0.06929532268239916 -0.1528422144362487 -0.06914673352939127 -0.15287583958918924 -0.13498832002712535 -0.16080905563032252
950937500.0 -0.12828170187843238 -0.20298537650873738 -0.07279668973105931 -0.15164455816820213 -0.07266816860966915 -0.15164767258295256 -0.1344137577721469 -0.16097547630456285
951625000.0 -0.1287651013013457 -0.20330243612294846 -0.07635165285606291 -0.15024568907908545 -0.07618926764256562 -0.15034167080818794 -0.13391433772159111 -0.16131669877852192
952312500.0 -0.12930600420492291 -0.20358358382852965 -0.079772848339532 -0.148880061185741 -0.07977962746913252 -0.14888738472107532 -0.13329226609988884 -0.16150907340536927
953000000.0 -0.12977985467035277 -0.20394116123176562 -0.08325258251582725 -0.14732494970297313 -0.08326586617252643 -0.14738698643217923 -0.13284985981155364 -0.16185947008460996
953687500.0 -0.13019469672355688 -0.2042012248743915 -0.08675664084953943 -0.14569670830136147 -0.08681690096054946 -0.14578051655637908 -0.1323737690577746 -0.16216242863707553
954375000.0 -0.13063185005432368 -0.20461070929617817 -0.09020337878667409 -0.14410052557102462 -0.09022331466681789 -0.1440943837814363 -0.13181865966639858 -0.16256576384179927
955062500.0 -0.13119217269376188 -0.2049248508660955 -0.09361864044204879 -0.14230693785025653 -0.09367517875172486 -0.1423429579105034 -0.13133923491887292 -0.16301509377801662
955750000.0 -0.13158871369243774 -0.20533602841957274 -0.09701963805848479 -0.14052536140949534 -0.09706558005201671 -0.1404792626016283 -0.1309693914387314 -0.1634353505612492
956437500.0 -0.13198042976876911 -0.20574869381401628 -0.1004084473226902 -0.13864178960050308 -0.10050143305258089 -0.1386423391403011 -0.13047541907691515 -0.1639224863309481
957125000.0 -0.13238843296273922 -0.20611181342680582 -0.10365791172238044 -0.13663958563473158 -0.10378476439469451 -0.13659713994069822 -0.13010384550650095 -0.16441953325172018
957812500.0 -0.1328501692487095 -0.20653712926950196 -0.10696063191330021 -0.13467209567150087 -0.10707411229112186 -0.13459045160858463 -0.12969285541988834 -0.16494193400022486
958500000.0 -0.13314145403377897 -0.20707962419897993 -0.11019279971627606 -0.13249609219793665 -0.11035780071436674 -0.13242855670534937 -0.12934384477899283 -0.1654259384564418
959187500.0 -0.13350174867030654 -0.2075803070417022 -0.11351334724495957 -0.13031595815765668 -0.1135437791852135 -0.1302900279809014 -0.12914008150330855 -0.1659120857201781
959875000.0 -0.13390517796002083 -0.20802958051923187 -0.11665516495059171 -0.12798015770719903 -0.11674982526488334 -0.12798628789227587 -0.12886423835207858 -0.1664293613780401
960562500.0 -0.13425259725813932 -0.2085709058951056 -0.11980966208143776 -0.12557742947334624 -0.1198635022519172 -0.12564994623161674 -0.12868124240525974 -0.16695805345464163
961250000.0 -0.1346939231012778 -0.20910113868473698 -0.12300985727182835 -0.12311581246888734 -0.12295161860628251 -0.12317040740839794 -0.12851074457071965 -0.16753664754042805
961937500.0 -0.1350002525736504 -0.20975035785654575 -0.1260271413422079 -0.12062282750695416 -0.12598952756291854 -0.12067197954681083 -0.12826985694383622 -0.1680901353369439
962625000.0 -0.13534008833871988 -0.21023007827379034 -0.1290394208614731 -0.11791642966120623 -0.12899755539164698 -0.1180025414789243 -0.12822210918189428 -0.16871456593528772
963312500.0 -0.13579726037881998 -0.21070945792714382 -0.132055074191885 -0.11522234081936367 -0.13197388026149373 -0.11525170029074112 -0.12809867127612032 -0.16935185456433852
964000000.0 -0.13611855441621942 -0.21135346726408558 -0.13496276793750803 -0.11239476166185604 -0.13485812134557357 -0.11247435812452561 -0.12807421584102602 -0.1699921287337685
964687500.0 -0.1365830042908718 -0.2118981331636037 -0.13782687520366568 -0.10945864893724185 -0.13773118062026943 -0.10954344439934151 -0.12796499641134088 -0.1706921532090637
965375000.0 -0.13696575069733927 -0.21245185687457738 -0.14063504761935708 -0.10642030394420897 -0.1405057574759505 -0.10654676214872148 -0.1278759203161127 -0.17145752587183472
966062500.0 -0.13735471252443954 -0.21310232932492643 -0.1433714494204797 -0.1033847619011857 -0.14325694644233766 -0.10352080819957846 -0.1279307112076 -0.17221647146824884
966750000.0 -0.13780776506113143 -0.2137038824418071 -0.14595646811018795 -0.10025281214896599 -0.14595547925692812 -0.10037973144042459 -0.1278698315406374 -0.1730530820997298
967437500.0 -0.13837000151067455 -0.21436461287060588 -0.14841929452082786 -0.09697349741863427 -0.14849774132189703 -0.09718276038354799 -0.12796302126195366 -0.17385668511995192
968125000.0 -0.13879098265438722 -0.21499087536743286 -0.1508246430691218 -0.09372897854089335 -0.15093029211824127 -0.093919160282701 -0.12811986602305614 -0.17477882054957877
968812500.0 -0.13933592421464672 -0.21574824292469807 -0.15320742939787085 -0.09041869929346703 -0.15332736943575456 -0.09058305777884745 -0.12820133789002994 -0.17566956941014353
969500000.0 -0.13980928873422846 -0.2164416889757832 -0.15561638306379827 -0.08701992659655593 -0.15573754841488882 -0.08728781181295657 -0.12840302745983795 -0.17669286643024515
970187500.0 -0.14052943386245798 -0.21729198997402047 -0.1578404374445136 -0.08360760121466417 -0.15806657944823188 -0.08390122810219394 -0.1287621420514765 -0.17771724807608116
970875000.0 -0.1411217231307729 -0.2180671146486049 -0.15999562195173764 -0.08018781944079718 -0.16029345942756298 -0.08049584409524697 -0.12900504417276923 -0.17873377843111452
971562500.0 -0.14196922611620685 -0.21889383276272478 -0.16213143756369092 -0.07658532441143423 -0.1625068138352134 -0.07701189019256496 -0.12938663818151647 -0.17975092742762572
972250000.0 -0.1427839007023332 -0.2195580457778766 -0.16415023495282896 -0.07308545009805563 -0.16461533810510837 -0.07342711043539779 -0.12981938801215687 -0.18077909941647144
972937500.0 -0.14369071178265527 -0.22039265822850024 -0.16615062697350033 -0.06947232721615645 -0.16665109462587702 -0.06979856555916066 -0.1302107322974501 -0.1817508550319743
973625000.0 -0.14468207227348798 -0.22110362328194386 -0.1680493417913788 -0.06590356982484137 -0.16863713087112134 -0.06615810186764383 -0.13064895887144531 -0.182744830602133
974312500.0 -0.14580436874241168 -0.22177471329205176 -0.16987921225421757 -0.06223490326453608 -0.1706221559834317 -0.06235617824804769 -0.1311407037035561 -0.18368907145317345
975000000.0 -0.14693828732727118 -0.22237697185889574 -0.17178319417126728 -0.05850353820197201 -0.17253620564303593 -0.05850537814970281 -0.13172219488007947 -0.18447479043391118
975687500.0 -0.14808427580614747 -0.22287135359641236 -0.17368417348468848 -0.054623166466340474 -0.17442314036891224 -0.054519727526544305 -0.13219613455657428 -0.18517905068969043
976375000.0 -0.1491993931570997 -0.22326863933081834 -0.17544361018564475 -0.05079992433660451 -0.1761859703777781 -0.050497408932088414 -0.13275595960173647 -0.1858822089802699
977062500.0 -0.15042645569235188 -0.2236349992802378 -0.17706441576825738 -0.0468481091476197 -0.17784640566482748 -0.04629447530810034 -0.13331824607816342 -0.18649520107170123
977750000.0 -0.15162377984062925 -0.22390362225649113 -0.1786950125545082 -0.04269702395230678 -0.17942856202580068 -0.041991212958135966 -0.1339265285858645 -0.1869343046559291
978437500.0 -0.1528202369161525 -0.2241065791755502 -0.18018293456132198 -0.038531169369504625 -0.18081788965055956 -0.03759988018862776 -0.13443572219920433 -0.18728171602677057
979125000.0 -0.15403411117209465 -0.22431889076370984 -0.1815655221359421 -0.03427143991786653 -0.18200327816862003 -0.033114721328793506 -0.13502996602269565 -0.18752734902224352
979812500.0 -0.15525869693054406 -0.22435644842178723 -0.18287913037235445 -0.029875751612322574 -0.18312593655627868 -0.02853794040950144 -0.13566319912553212 -0.1876742784365995
980500000.0 -0.15634805750996109 -0.22453051242074187 -0.184034717584436 -0.025275885948139624 -0.1840508242027353 -0.023925464204615273 -0.1363175572735037 -0.1877686104270068
981187500.0 -0.15756032123772062 -0.22451012672026924 -0.18508560532607873 -0.020687081443498234 -0.1847876029900864 -0.019284303163061497 -0.1369735941946412 -0.1878510195298239
981875000.0 -0.15879798092989417 -0.2247035669133137 -0.1860029598572069 -0.015996948523688256 -0.18537217689831342 -0.014612659576018712 -0.13762416522877907 -0.18786472782126853
982562500.0 -0.15989993846792475 -0.22477161697307266 -0.1868166449789598 -0.01121143980198158 -0.18581185002373588 -0.010015099390273178 -0.13832012681470782 -0.1877964097039363
983250000.0 -0.16119773021433312 -0.22491532126124253 -0.18733472334758353 -0.006436175388497604 -0.18602739892178166 -0.005419317708089456 -0.1389631488085467 -0.187972292438488
983937500.0 -0.16251595481901301 -0.22495362909579764 -0.18767096629608904 -0.0015141249333336718 -0.18610025426476515 -0.0008625823993334836 -0.13965958981536486 -0.18799507001419502
984625000.0 -0.16396788914104102 -0.2250270425339288 -0.1877860386991908 0.0034030386057977563 -0.18600558045657087 0.003689236367895043 -0.14035914893971746 -0.18807422730117437
985312500.0 -0.16539429637551178 -0.22512440687399005 -0.187769567137248 0.008397256456107819 -0.18589630644244964 0.008116741350382421 -0.14111103451252655 -0.1882516874158127
986000000.0 -0.1670573535730168 -0.22513887914642977 -0.18751413856183324 0.013260352619226546 -0.18556255980646066 0.012517175227378063 -0.1418436443274343 -0.1883977798776794
986687500.0 -0.16865751319125624 -0.22504178180048634 -0.18704943571558025 0.01814572206388264 -0.18531906744433396 0.01685771075996373 -0.14254398897210785 -0.18873060628601288
987375000.0 -0.170389037628751 -0.22486412163990266 -0.18642574715697716 0.022905840184898347 -0.18497277070270618 0.02115117262949678 -0.14342418873747392 -0.18897338163475053
988062500.0 -0.17207908328086075 -0.22457454159819276 -0.18558354261529125 0.027550044032159215 -0.18456562269710924 0.025476115867610748 -0.14426245190431022 -0.18934050118575707
988750000.0 -0.1738165676785155 -0.22422533633822792 -0.18475978852957467 0.032216618825604317 -0.18420378425017925 0.02980070836538744 -0.14515859753746463 -0.18982580251790426
989437500.0 -0.1754890099564604 -0.22360070482006925 -0.18364473810872206 0.036654045469939806 -0.1836689190730345 0.03405322473296362 -0.1460252412352941 -0.19019504582771485
990125000.0 -0.17719096496520578 -0.22291701081768886 -0.18241471984883992 0.040974493196744205 -0.18313825847265414 0.03850429626291322 -0.1470718278071292 -0.19061335113249384
990812500.0 -0.17888303213944626 -0.22213843190400434 -0.18115204131729074 0.04526513221954225 -0.18256287800016438 0.042955698043669145 -0.1480284714156191 -0.19105641185793956
991500000.0 -0.18051786399179032 -0.22131923073133178 -0.1798007969444018 0.049379143964767086 -0.1817863463233316 0.04741254921937155 -0.14896053644891358 -0.1914799142128672
992187500.0 -0.18186556666410306 -0.2202698944159426 -0.17845187552714872 0.05353075203377469 -0.18089163641860181 0.0519205342018559 -0.1500717785096279 -0.19187448227912599
992875000.0 -0.18327657224480448 -0.21925959567831868 -0.177059503744933 0.05743426658651268 -0.17993693943570757 0.056585554544399 -0.15100109116329252 -0.19222337082378527
993562500.0 -0.1845072230771232 -0.21821323849792876 -0.17572548204809985 0.06143344884710119 -0.17870718425360468 0.06121126684583953 -0.15200811727484392 -0.19249567516346958
994250000.0 -0.18559881647988694 -0.21712284852903022 -0.17425623466755646 0.06534984578966814 -0.17735513026884905 0.06582317435185484 -0.15291227265727228 -0.19262129112953785
994937500.0 -0.18655123369308635 -0.21604635708205122 -0.1727239009959967 0.06924282644686529 -0.1757709327124815 0.07043599001983203 -0.15374245765127342 -0.1926875089182767
995625000.0 -0.18758144295317328 -0.21497936408147775 -0.1713065574552437 0.07315029111933143 -0.17395128831729773 0.075067997465932 -0.15452729850680746 -0.19259461440766382
996312500.0 -0.1885074932419221 -0.21392508020157674 -0.16961512818646435 0.07711320268257378 -0.1718840305081445 0.0795264416876218 -0.15534204447607913 -0.19241801209546378
997000000.0 -0.1894314982918028 -0.21303400911276082 -0.16800942401855132 0.08099060919417951 -0.16962385352366943 0.0839009904339273 -0.15608200220467103 -0.19213638651808662
997687500.0 -0.19028504596040785 -0.21213669371654897 -0.16618599518383212 0.08493131165563474 -0.1671491664891307 0.08812208362126335 -0.15661402234035932 -0.19175347106572613
998375000.0 -0.1911543288280434 -0.2112933128574498 -0.16434826707636196 0.08892920451933882 -0.1645409996347473 0.092235208857933 -0.15716543222648066 -0.19123810741979172
999062500.0 -0.19214296372382358 -0.21039581149855954 -0.16240550640457607 0.09282626716258988 -0.16173981606024893 0.09613415897809253 -0.15766923378533265 -0.19061132598197963
999750000.0 -0.193048652257699 -0.2096364802789269 -0.16020739425794053 0.09688130825667289 -0.1589195342669537 0.0998685244869197 -0.15804561065473807 -0.18991873605188103
1000438000.0 -0.1940308970936589 -0.2087293697029142 -0.1580287041350878 0.10082903982202274 -0.15599282230326994 0.10340372304665987 -0.15849362120072033 -0.18914232422263283
1001125000.0 -0.1951149690566886 -0.20782636723132522 -0.15554002831686575 0.10469466370211356 -0.15304790795769235 0.10678546372961305 -0.15897841886691297 -0.18837103230619526
1001812000.0 -0.1961255987039322 -0.20676753964999056 -0.15303549416826734 0.10864325345449645 -0.1500912337292962 0.11008653981505151 -0.15933633141295026 -0.18761933681574078
1002500000.0 -0.19727266110863326 -0.2056739524700939 -0.15029070372950998 0.11254254334963418 -0.14709932545608284 0.11317393166370246 -0.15975541286081918 -0.18676836196327035
1003188000.0 -0.1984205155206452 -0.20448729821651904 -0.14738888446704682 0.1162746672361777 -0.14411140149772178 0.11624515085359206 -0.16020239883084572 -0.1861150756983768
1003875000.0 -0.19940148412380884 -0.2032338393099867 -0.14433347738225902 0.11998334220764298 -0.1412547194071958 0.11914645531001834 -0.160740212954331 -0.18539539654593196
1004562000.0 -0.20044042100087214 -0.20191350910921205 -0.14114666011406535 0.12358419707020196 -0.13838470473881131 0.1221100568035977 -0.1612797203716943 -0.1847370844591733
1005250000.0 -0.20135592747958755 -0.2004066786950404 -0.13784373270460262 0.12702643938235533 -0.13559670698788653 0.12489584221535671 -0.16184571423135333 -0.18420273342917856
1005938000.0 -0.20219150323554919 -0.19882026565556357 -0.13437859446870265 0.13040079616771483 -0.13270024707950365 0.12777999177856034 -0.16259301469063797 -0.18371458338294872
1006625000.0 -0.2028819544348638 -0.197298400122612 -0.13087837518793283 0.13352462372819907 -0.12985541434087558 0.1306468447992636 -0.16341208312100036 -0.18324972946500892
1007312000.0 -0.20340838459102978 -0.1956509810565851 -0.12716448271751932 0.13653798571883533 -0.1269877590511356 0.13349001752671955 -0.16430196024662305 -0.18292948753816796
1008000000.0 -0.20384390028593735 -0.1939566072564631 -0.12349542534464315 0.13934536314929474 -0.12394776366439865 0.13642698441276455 -0.1652319934968055 -0.18273951047568668
1008688000.0 -0.20420374506446798 -0.19242195559522432 -0.11965190820704642 0.14198032917880346 -0.12089610886971093 0.1392507835657597 -0.16616504798183532 -0.1823602593040686
1009375000.0 -0.20466408089277335 -0.19087247419834835 -0.11599588139132534 0.14452851141321454 -0.11772590801442145 0.142214491623441 -0.16725025232833507 -0.1822577197419147
1010062000.0 -0.20485421933847395 -0.1893480480392783 -0.11203371376222361 0.14683940448603158 -0.1143939007776759 0.14504615603498572 -0.16828025177996356 -0.1819893386480868
1010750000.0 -0.20504927676649246 -0.18788268947492787 -0.10814176230260573 0.1489820481124731 -0.11085214922490061 0.1478269013868867 -0.1693088716332483 -0.18180119365344688
1011438000.0 -0.20517789669407707 -0.18659072298005783 -0.10430523001767361 0.15092401048474835 -0.10721752415961608 0.1505017580831832 -0.17044031704868884 -0.18157324897826577
1012125000.0 -0.20555135533539465 -0.18529593329931796 -0.10056751764733222 0.15281474319039548 -0.10339808606809886 0.15305067352932028 -0.17151070608070654 -0.18134676729113283
1012812000.0 -0.20582177340509952 -0.18400611134597153 -0.09680906287537601 0.15454380144163204 -0.09946304425945073 0.15547381594631463 -0.17254951728684986 -0.18106886769552505
1013500000.0 -0.20628095429842097 -0.18286583106835141 -0.09310022288584484 0.15628129587113812 -0.0954028141718654 0.15773006206428675 -0.1735561451973112 -0.1807019699129372
1014188000.0 -0.20672098387625704 -0.18150616906460554 -0.08948169368519433 0.15786934103657402 -0.09126185908632019 0.1597633670511927 -0.1743534003338055 -0.18035465382608964
1014875000.0 -0.2072888442285248 -0.18030597391994324 -0.08577617347409837 0.15934412725375152 -0.08710711898261844 0.1615137799902601 -0.17504771322054932 -0.17987487076792497
1015562000.0 -0.20798033287540707 -0.17901946046647524 -0.08218089930785849 0.1607745937233447 -0.08295015448475411 0.1631397518127578 -0.17582336038467106 -0.17929786060593644
1016250000.0 -0.20861986904584928 -0.17762624297946736 -0.07854828019553363 0.1620858097840744 -0.0787558762685904 0.16452958525195321 -0.1763993901307787 -0.17865004107573543
1016938000.0 -0.2094719942810881 -0.17618148899724084 -0.07499590572533318 0.16351686461219064 -0.07469152761919004 0.1657079520964253 -0.17690076041887498 -0.17797312715190788
1017625000.0 -0.21020936433792037 -0.17461840902425393 -0.07138806498644099 0.1646978705986464 -0.07065682621451543 0.1667182665252071 -0.17722243693918996 -0.1771839754194987
1018312000.0 -0.21101436374238544 -0.1729757462574519 -0.0679115624068312 0.16590705411354614 -0.06668856286407814 0.16766337180718904 -0.17744701164671695 -0.17645246181263916
1019000000.0 -0.2117382611702061 -0.17127838096704143 -0.06426974782659864 0.16711285951159352 -0.06283202086472404 0.16846533620967283 -0.17768486020064472 -0.17546982228792163
1019688000.0 -0.21236085115592238 -0.16945289829591162 -0.06064125610484016 0.16821811577769855 -0.05903158263797581 0.1692266299514992 -0.17780971976653331 -0.1745750262159216
1020375000.0 -0.21287449559246668 -0.16762467798810496 -0.057037532498925715 0.16927542980922125 -0.055364499824981664 0.16986170470763431 -0.17788251575919697 -0.17367394532373645
1021062000.0 -0.2134096162734609 -0.16582876754747927 -0.05333589948025497 0.1703142955539898 -0.05177006736997149 0.1706205328311532 -0.17780159393324824 -0.17267571163584539
1021750000.0 -0.21370285407695067 -0.16393388357433358 -0.04958430654777083 0.17128307666662926 -0.04819952661939044 0.17123956063975834 -0.17789001479773728 -0.17165929139917355
1022438000.0 -0.21404374811935598 -0.16219273470918716 -0.045842932216268395 0.1721720613903726 -0.04463453266749362 0.17191811302583956 -0.17795462173492482 -0.1707284100685628
1023125000.0 -0.2142876857814597 -0.16038449557683715 -0.04212655281679052 0.1730086114443932 -0.041034359699565225 0.17262628589876924 -0.17806470915406333 -0.16974162511400026
1023812000.0 -0.21437152437182094 -0.1586740592359005 -0.03821262805372393 0.17385852830630363 -0.03738361922391452 0.17330820300604816 -0.1781730958408577 -0.16882774291188302
1024500000.0 -0.21435896574964874 -0.1570819195996055 -0.034348363447261734 0.17457599620645642 -0.03370369989783357 0.17398602243225786 -0.17841741930952895 -0.16787778370926482
1025188000.0 -0.21436088430554393 -0.15552316124565488 -0.030465694534417498 0.17529541047299363 -0.02995239330124 0.17460295913232549 -0.17871433992137217 -0.16710152051826138
1025875000.0 -0.21431162497503212 -0.1541293869174213 -0.02648754525600742 0.17582847402275872 -0.02619110491489835 0.1751809799603942 -0.17908739913735264 -0.1663630390139662
1026562000.0 -0.2143387728980913 -0.15278272288405254 -0.022448685097672096 0.17629963338621082 -0.022341812095438552 0.17563935105528444 -0.17959624298351026 -0.16561729061045022
1027250000.0 -0.21434992191483965 -0.151459830521366 -0.018487036440549685 0.17664148520636708 -0.018375071025302493 0.1760345638759808 -0.18016160012166663 -0.16495930569435072
1027938000.0 -0.21439581854191817 -0.15031677787958475 -0.014421086407403888 0.17690116550219015 -0.01437627692904889 0.17645158012715143 -0.18085393574399167 -0.16439254970014847
1028625000.0 -0.21439158412568968 -0.1492226666686101 -0.010432887821293247 0.17705707996044204 -0.010350936577008148 0.1765869603984822 -0.18159823653714469 -0.1638699175299312
1029312000.0 -0.21453155759602952 -0.14806542874232143 -0.006280429660791055 0.17710681505545134 -0.0063682329096012135 0.17663177686277945 -0.18230091089053166 -0.16338429445271843
1030000000.0 -0.21467280590179888 -0.14690789149949052 -0.0021864727300470446 0.1770124062984115 -0.0022413104315222115 0.17657505984381472 -0.1832013621953787 -0.1629725186360417
1030688000.0 -0.2148700553066659 -0.1457330269284613 0.001784461304545841 0.17666710554104736 0.0017511466518227753 0.17632126410475166 -0.18400534677008273 -0.16257518419192632
1031375000.0 -0.2150054537136016 -0.14449081342093137 0.0057350322642632755 0.17620733282633372 0.005721759595710734 0.17588337405721588 -0.18465695628387327 -0.16221270162863663
1032062000.0 -0.21516878279884386 -0.14325223986669314 0.009725828231038881 0.175648096107426 0.009576664538448588 0.17534638987993262 -0.18542876075325965 -0.1619121767312751
1032750000.0 -0.21535608146040622 -0.14196086609295955 0.013490761789891004 0.17498097094769322 0.013414276746292095 0.17470725183245903 -0.18613804094499525 -0.16156943311826102
1033438000.0 -0.21550313239014354 -0.14056175511583494 0.01734691024558114 0.17423134143294436 0.017118975674600054 0.17394589168341426 -0.18683535588335803 -0.16117371643145664
1034125000.0 -0.21553099757253943 -0.139158993518715 0.02110497644298811 0.17338027211233414 0.020792706323181528 0.17311922907271676 -0.1873677731768641 -0.1608546209467225
1034812000.0 -0.2154543735313556 -0.137676432327441 0.024653087412040548 0.17244997213285093 0.02429613021632987 0.17227337572378965 -0.18788239576159013 -0.16048912251882624
1035500000.0 -0.21541986353348017 -0.13628564413002442 0.028212364323250534 0.17149688105958463 0.02772693142899793 0.1713291857370709 -0.1882376150085751 -0.16014318172683015
1036188000.0 -0.21523706573153567 -0.13480262781458147 0.03167009595811572 0.17043540106122518 0.031091827047832876 0.17033755975460846 -0.18858554079507459 -0.1597910234803264
1036875000.0 -0.2148972941027225 -0.13338127801982752 0.03512069388424168 0.169341231073588 0.03443920791718228 0.16930434139309147 -0.18883149566993304 -0.1593944468165864
1037562000.0 -0.2145505041392234 -0.13204852504140988 0.03843090734059421 0.16820590525298748 0.03768196454461401 0.16829591144277792 -0.18899063814843037 -0.15891624860986084
1038250000.0 -0.21416938469986624 -0.13070244223171623 0.04160724473337823 0.16708435328725338 0.04089898525636372 0.167265368473928 -0.18902772815808488 -0.15852833629723306
1038938000.0 -0.213676386447683 -0.12951004184440643 0.04491604076452133 0.1659337390846173 0.04408265044093638 0.16625809362016414 -0.18903165337194963 -0.15816036879181375
1039625000.0 -0.2131799252404477 -0.1283239168311692 0.04800051230308821 0.16474227208799883 0.04732862788541724 0.16522444476063333 -0.1888671183850095 -0.1577851212510113
1040312000.0 -0.21265791351703847 -0.127259502808475 0.05107961400212979 0.16360256813350826 0.05054755993786406 0.16424947657318423 -0.18884049154236648 -0.15743017593939798
1041000000.0 -0.2121691640469799 -0.12625121273147724 0.05418514250332534 0.1623768861120429 0.05385517114592586 0.16327552412633262 -0.18867792919194595 -0.1568959179331483
1041688000.0 -0.2117526966596991 -0.1254013485242636 0.05742142412194431 0.16113225830675848 0.057193557890557745 0.16214891854238275 -0.18854437265455742 -0.15648105189189523
1042375000.0 -0.21126810243813193 -0.12450702602549858 0.060585640184312284 0.15990201511349453 0.06050677573428291 0.16096920903333878 -0.18841621834307992 -0.1559648943369479
1043062000.0 -0.21086009180195997 -0.12373125252516795 0.06363892215160309 0.15858820188795225 0.06389337484834783 0.15976812138642235 -0.18827986494396728 -0.15555796602691047
1043750000.0 -0.2105657501806058 -0.12292025828729894 0.0668911105985086 0.15725066474942384 0.06734980876563763 0.15840586974156495 -0.18825251858780911 -0.1549922022949307
1044438000.0 -0.21032522922756833 -0.12210463617562567 0.06999027870102224 0.15584394306461422 0.07069178786582399 0.15689494698240772 -0.1882986036187434 -0.15448390116784091
1045125000.0 -0.2100092952870241 -0.12131694589056728 0.07310628977326268 0.15436294002021864 0.07407757231894142 0.15530224869775527 -0.18845100047508156 -0.15408993914409183
1045812000.0 -0.209862112067479 -0.12055453164080178 0.07629245938785073 0.15285085445936447 0.07747601919716701 0.15359143194235078 -0.18866858469670897 -0.15357372683403664
1046500000.0 -0.20972473816941206 -0.11969199926733873 0.07955704798568902 0.15123650351999257 0.080826218096899 0.15179035828340873 -0.18889578909829308 -0.15308376503072754
1047188000.0 -0.20953091857447553 -0.1188541174753173 0.08273841562725949 0.1495390795212758 0.08410563596999758 0.149940561504044 -0.18940307640792636 -0.15266166953100424
1047875000.0 -0.20939831715499216 -0.11793758571074292 0.08595100025063643 0.14781379084860807 0.08730602410210592 0.147894241067575 -0.1898595083437092 -0.15226175475346237
1048562000.0 -0.20929070863574148 -0.11704343599528746 0.08911651265540002 0.14602756397765224 0.0904268667785036 0.14583270261554132 -0.19047831240503194 -0.15195815887977132
1049250000.0 -0.20912097187468823 -0.11605969415605344 0.09219740038596647 0.1440558651685423 0.0934781122541129 0.1435515793016209 -0.19107299699822308 -0.1516574249725073
1049938000.0 -0.20888344669733247 -0.11506280390422065 0.09531033307088445 0.14200590476305555 0.09640897471458947 0.14121786870854047 -0.1917712034301133 -0.15143583563665167
1050625000.0 -0.20870065838147187 -0.11414141473424017 0.09833261176586318 0.1399038522678266 0.0992447795190299 0.13897619236470604 -0.19240295369611204 -0.1512147117815824
1051312000.0 -0.20838494966888393 -0.11316314749809492 0.10136076313273361 0.1377619362297034 0.10202461134429372 0.13664864811142768 -0.19323842885136905 -0.15107610387308482
1052000000.0 -0.20810400682979613 -0.11222271615825484 0.10426482907139209 0.13559703306684115 0.10469792482020794 0.13431174349004552 -0.19387031249970302 -0.15090435692012583
1052688000.0 -0.20769869286881343 -0.11128019967702614 0.10717100672324967 0.13328968533301042 0.10734538448910284 0.13193621191160615 -0.19461497389559204 -0.15074518129165296
1053375000.0 -0.2072303757937312 -0.11048800048126327 0.11002519795539215 0.1309209211948626 0.10988329461711482 0.1296132402554373 -0.19533988645817407 -0.15075633766224905
1054062000.0 -0.20683714788571672 -0.10962675851505654 0.11278491851967681 0.12853229799756344 0.1124020950342854 0.1272396473103884 -0.1960959009643612 -0.15067023446417768
1054750000.0 -0.20642606721214 -0.10901223955535361 0.11542408680829226 0.12602523757504272 0.11486851237893583 0.12491916706341477 -0.19668114054983096 -0.15064030995099525
1055438000.0 -0.2059538008656435 -0.10834482579648122 0.11801945633295216 0.12351892937088997 0.11724571596851992 0.12255196618376335 -0.19736267007390418 -0.15051802101656425
1056125000.0 -0.20553771386987166 -0.10774552006663883 0.1204542349870918 0.12092543114913003 0.11958599146027586 0.12022499634882794 -0.1979237031605759 -0.15043222311267837
1056812000.0 -0.20508211596691925 -0.1070777261282792 0.12291872185473637 0.11833884412695951 0.1219500750362278 0.11781720988118931 -0.1984667974972124 -0.1504286406814226
1057500000.0 -0.20464934135090368 -0.10660026333159563 0.1253702590717275 0.11566761866920357 0.12428229548198846 0.11544951268884958 -0.19900524647206747 -0.15044780775829955
1058188000.0 -0.20424891301684442 -0.1061433577310635 0.1276359710481787 0.11292790464445128 0.1265857019785191 0.112970625420444 -0.19945478824924748 -0.15037868849531177
1058875000.0 -0.2037840304644413 -0.10580750785852319 0.12991902564131297 0.11012441160514284 0.12887608302133344 0.11045249178781998 -0.19988593487039616 -0.15039080077721065
1059562000.0 -0.20349133546226036 -0.10537911068267301 0.13208679809963947 0.10735409357168724 0.131170628300942 0.10787553125423835 -0.20022082729324067 -0.15034341577347674
1060250000.0 -0.2031005639059965 -0.10505152189208958 0.13417872338999895 0.10454354858445505 0.13340860587778677 0.10526221311647053 -0.20056901703498195 -0.1503190434377557
1060938000.0 -0.20275206719158057 -0.1046950355180726 0.1362649778407643 0.10170889357707243 0.1356663884314676 0.10258893737958573 -0.2008530097428237 -0.15024898138376783
1061625000.0 -0.20241061327682372 -0.10439366271477592 0.1382273582694981 0.09867755011670774 0.1378270360657564 0.09977036459036494 -0.201173445052579 -0.15015654655868915
1062312000.0 -0.2020485910838144 -0.10404385047544269 0.1402278855920357 0.09580741784223178 0.14000702315380822 0.09681634958895804 -0.20150823702451504 -0.14994126454592924
1063000000.0 -0.2017906355808308 -0.103646751520022 0.1421380813548342 0.09273300493648721 0.14210720492541473 0.09382332229649137 -0.20175453479978922 -0.14973654184998225
1063688000.0 -0.20135627407818654 -0.10334740634826028 0.14389282651603358 0.08974046116320727 0.1441547499441621 0.09079052660717149 -0.20195518444187807 -0.14951118817934095
1064375000.0 -0.20107637904618542 -0.10296740672494789 0.14568157496085793 0.0866485911698168 0.14611353908179406 0.087644173170492 -0.2024330879816226 -0.14940188316026531
1065062000.0 -0.2006658558602663 -0.10272350006026788 0.14733931275108564 0.08362678195746386 0.14800060460099718 0.08441445100566448 -0.20269582363403307 -0.1490864053314568
1065750000.0 -0.200317299793954 -0.10243851235368057 0.14896917029191092 0.08048054839033089 0.14979181729928462 0.08114641244276564 -0.20289839820049366 -0.14880349351118585
1066438000.0 -0.19993467333337125 -0.10212315797969419 0.15062873717656328 0.07728135286355536 0.15143376309211012 0.07777696876893579 -0.2034651605931993 -0.1484950557372286
1067125000.0 -0.1993750376368652 -0.10187380424162003 0.15206668228454007 0.07418228996313447 0.15312804478292283 0.07445540809355568 -0.20398921796969088 -0.14825882575664273
1067812000.0 -0.19886401302420256 -0.10163731692317893 0.15344539971802737 0.07096594330144977 0.15457960946993649 0.07102158131877542 -0.20454429171199529 -0.1479993900248576
1068500000.0 -0.19837869275711842 -0.1014246591995003 0.15487372612402264 0.06774625004315511 0.15604103378902562 0.06762764786211777 -0.2051234943636859 -0.1477243244744024
1069188000.0 -0.19789719150744267 -0.10120723450952132 0.1562125502960517 0.06444280154620785 0.15726774996406026 0.06422302932967834 -0.20570447379139978 -0.14737505612378393
1069875000.0 -0.19733271624234222 -0.10113424562326796 0.15758053174498104 0.061147126830530786 0.1584793952941745 0.060712133253585585 -0.20648568849863666 -0.14713406286526243
1070562000.0 -0.19682711818087198 -0.10110950219416646 0.15872787165958707 0.05786193294394146 0.15961982566082075 0.05726151655763167 -0.2071084196522206 -0.1468406999146995
1071250000.0 -0.1961434254414883 -0.10107358176740507 0.15982017988302824 0.05448473604576391 0.16059736951461845 0.053860869763884336 -0.20777479952031533 -0.1466512238806714
1071938000.0 -0.1956097893313055 -0.10101835516639569 0.16092568881541547 0.05118226493280046 0.16149858708649853 0.0503897975555768 -0.20857367402127708 -0.14644979097911462
1072625000.0 -0.19496849654546441 -0.10115096553394903 0.1619356806316005 0.047835625120438534 0.16233218416506565 0.04696076547161119 -0.20937240193793186 -0.1462200156253137
1073312000.0 -0.19436481980302325 -0.10124607597027568 0.16296094221059984 0.044361951610379 0.1631577825983559 0.04359776968643822 -0.2102403600554975 -0.1460521045200064
1074000000.0 -0.1937991052740483 -0.10126471369524787 0.16376631589989835 0.04103402621213197 0.16381266277392972 0.04011314763247488 -0.2110183485484326 -0.14591306233102244
1074688000.0 -0.193155265660546 -0.1015407452897285 0.164547383355281 0.03762988148118604 0.1644971463310883 0.03675333416474485 -0.2119952662831449 -0.14566389393085633
1075375000.0 -0.1926585036837452 -0.10178705839590944 0.16541570114774834 0.034236983517960236 0.165057032125073 0.03341292122783019 -0.2128902801705682 -0.14548590762854757
1076062000.0 -0.1921209922757044 -0.10208622241361037 0.16608953283700625 0.030766558216853625 0.16560237334879513 0.030067865691240366 -0.2137245533858883 -0.14525957314445018
1076750000.0 -0.19156136157846632 -0.1024224649337587 0.16671578617718463 0.027394005947182498 0.16612957745723486 0.026764793849090307 -0.21467902198182542 -0.1451039020139176
1077438000.0 -0.19118921528668104 -0.10274584569779524 0.16724777630090945 0.02393516473994489 0.16659048913940078 0.02342125509758774 -0.21558521584290943 -0.1448020907945855
1078125000.0 -0.19065950790385403 -0.10307636897670916 0.16769525864669813 0.020440232569290846 0.16701445778499072 0.02010210764286072 -0.21651348776439247 -0.14452881576572155
1078812000.0 -0.19034483242434533 -0.10341905259774722 0.16817367384633308 0.016935758171725025 0.16742677509342507 0.0167428188288943 -0.2175286759361118 -0.14424154359490796
1079500000.0 -0.1900061085504542 -0.10374286346717287 0.1685531454787984 0.013443589794197961 0.16785847697164205 0.013420240108589858 -0.2184273039049432 -0.14394365230507508
1080188000.0 -0.18958947296237788 -0.10405663843674177 0.16883363145199112 0.009999498514472996 0.16826392510919666 0.010067784348127749 -0.2192388540475785 -0.14368145393073123
1080875000.0 -0.18944825924370873 -0.1045036900877025 0.16911051841390673 0.0065038198631464155 0.16857563924085806 0.006685274952626817 -0.22013955887581882 -0.1433267587122742
1081562000.0 -0.18916554081081233 -0.10477761458266806 0.16923875841130423 0.0029106681483138767 0.168809138115466 0.0032623179122251984 -0.22095437660466338 -0.14303996322698234
1082250000.0 -0.18890456921010546 -0.105074799210563 0.1693419846286484 -0.0006388361721496821 0.1690762772640435 -0.00021745851686005518 -0.22184047717899028 -0.14269942507229533
1082938000.0 -0.18862916821634054 -0.10544245113523686 0.16929934494104626 -0.0042561882695688 0.16917010577371056 -0.0037476508764312014 -0.22255742547465399 -0.14222254284420432
1083625000.0 -0.18840792784465044 -0.10571443259536192 0.16916457869516793 -0.0078422361867657 0.16931644030015863 -0.007314210742968278 -0.22330773877470952 -0.14176645566593804
1084312000.0 -0.1881707449184825 -0.10605947084982913 0.168959601184489 -0.011410514457113496 0.16921784548504912 -0.01090474278275816 -0.22399457660673297 -0.1413345300202151
1085000000.0 -0.18799095675815347 -0.10627841086028751 0.16872500916322877 -0.015017160891823084 0.169068533992924 -0.014594995770457387 -0.22455819210903244 -0.1409153834959348
1085688000.0 -0.18767394866573753 -0.10657150874259842 0.1683512492317898 -0.018618789090628567 0.16880817297334 -0.018309140051401177 -0.22527083308539955 -0.1404112661838532
1086375000.0 -0.18743058979239133 -0.10691423104133534 0.16795915451845717 -0.02217293440777656 0.16849476088008727 -0.022014853172788673 -0.22590004541704856 -0.13995484559606752
1087062000.0 -0.18716253764244303 -0.10714737191535302 0.16750011076435373 -0.025786587401302342 0.16797897063569586 -0.025755780483593702 -0.22655605815923394 -0.13949172387932285
1087750000.0 -0.18691753643045012 -0.10751312067450791 0.1669168127737963 -0.02931968874533142 0.16734929760507009 -0.02946223099410724 -0.22709765400716328 -0.1390178749385233
1088438000.0 -0.18665590802196316 -0.10789957739609342 0.1661855792666787 -0.032904732323437845 0.16654619870998105 -0.033104066696553615 -0.22753569008492308 -0.13842502158518843
1089125000.0 -0.18638372280972798 -0.10838918570227107 0.16541745051640258 -0.036415494197969904 0.1656776491206644 -0.036802257319167773 -0.2281185466148783 -0.13795332303510535
1089812000.0 -0.1861088854100888 -0.10886980868485757 0.16449361032974952 -0.039957340548742455 0.16467339000502862 -0.040361532546265885 -0.22879532653068313 -0.1374724122315729
1090500000.0 -0.18591695800587243 -0.10942297872009776 0.1634983908697944 -0.04338238257432062 0.1635806955756354 -0.04390020670891711 -0.2292714027658476 -0.13709509847803805
1091188000.0 -0.18574949115431028 -0.11010844084158328 0.1624719070348787 -0.04683249422204713 0.1623902583891897 -0.04734409662156239 -0.22987434803529666 -0.13644578094185358
1091875000.0 -0.18579462593231175 -0.11091155675155083 0.16139720487473902 -0.05028402095283162 0.16111548329682196 -0.050628574656298816 -0.2304614029438731 -0.13590803784859068
1092562000.0 -0.186006539013148 -0.11164428816303061 0.16010331944360473 -0.05362705009460257 0.15976573617439355 -0.05385195476298704 -0.23121274238928116 -0.1354380848620437
1093250000.0 -0.18625312021243057 -0.11226188044100897 0.15881865543156365 -0.0569154582840018 0.1583949056331404 -0.057006843415878944 -0.23186941837461597 -0.13476267760271085
1093938000.0 -0.1865970400296661 -0.11294036926913296 0.15748629500286074 -0.06014440885113357 0.15706361479500586 -0.060084964257743824 -0.2325684379563151 -0.1340759403321407
1094625000.0 -0.18696517512882796 -0.11347363953946887 0.15601616254616246 -0.06328888113160544 0.15560926909271225 -0.06304296261492369 -0.23336298145423223 -0.1333298629288588
1095312000.0 -0.18749535729109124 -0.11402157839832382 0.15458795938627878 -0.06644604237914442 0.15423965032064485 -0.06596885936162239 -0.2342964832434307 -0.1325292932233204
1096000000.0 -0.18798211625450498 -0.11448542821779757 0.15298854162559725 -0.06940137194113737 0.1528585710573027 -0.06894221571752987 -0.2351661847080582 -0.13172109700334284
1096688000.0 -0.18850697439415376 -0.11493353163883392 0.15150081818241024 -0.07237722776349567 0.15154665698767217 -0.07187529224870064 -0.2361417406202915 -0.13095135816571887
1097375000.0 -0.18908488829941142 -0.11524339657173392 0.14988523511683283 -0.07533256836616722 0.15014824195985954 -0.07478377659201273 -0.23709871957270964 -0.12988895060216218
1098062000.0 -0.1896816718859505 -0.11558528470515372 0.14832329567214975 -0.07831933950441212 0.14881231067128176 -0.0777542626856228 -0.23808146636040067 -0.12899367005875342
1098750000.0 -0.19025735823050782 -0.11581790728005426 0.14668936051409245 -0.08124168205806691 0.14740892108671746 -0.08080692548750278 -0.23913945623531835 -0.12797615298771045
1099438000.0 -0.19075173837811013 -0.11598035024962045 0.14508626347122852 -0.08417796972892123 0.14592755101846377 -0.08383565158630767 -0.24016767799117797 -0.1268923391498951
1100125000.0 -0.19134979462530333 -0.11616850814869988 0.14336248561807072 -0.08706262957948682 0.1443734280832159 -0.08695562153692771 -0.24116559139382623 -0.12588007919827607
1100812000.0 -0.1917063987655648 -0.11635128568506109 0.1417157633122272 -0.08989964393829442 0.142772582673404 -0.09009933817734381 -0.2422372063142235 -0.12479969581186617
1101500000.0 -0.192299584160605 -0.11653475079138113 0.13996958049085656 -0.09289479568003683 0.14100489872221397 -0.09330097482228691 -0.2431241741193333 -0.1237453857070989
1102188000.0 -0.19272540699969867 -0.11671355548763225 0.13813994049828515 -0.09568433962881216 0.13906873145802584 -0.09643861229416202 -0.24401334912068864 -0.12264597052175406
1102875000.0 -0.193138816118721 -0.11689546605987211 0.13630565878771175 -0.09847514228985958 0.13702135543604582 -0.0995550266580488 -0.2449332887084183 -0.12167513916027657
1103562000.0 -0.19355793064204765 -0.11725693698152154 0.1344452557489148 -0.10133192089127864 0.13488135167327864 -0.1026199325822798 -0.24573257255687886 -0.120608694139457
1104250000.0 -0.1940660773324786 -0.11740094008433652 0.13249086658459905 -0.10417578543431064 0.1325933529917805 -0.10567749557662617 -0.2463637926821849 -0.11953028872143512
1104938000.0 -0.19456314028647917 -0.11774550890572769 0.13037054630806927 -0.10699813924882068 0.13018357096939598 -0.10854574073482787 -0.24708416910750938 -0.1184736987605925
1105625000.0 -0.19510934977663516 -0.11813210153327033 0.1282090987051436 -0.10983526349981586 0.12766656201483 -0.11134949867143665 -0.24768954851153882 -0.11749520847518158
1106312000.0 -0.1957288851266342 -0.11848486180436889 0.12594788343256647 -0.11264699516694363 0.12507029342304593 -0.11407021871696842 -0.2482506386271156 -0.11644600288552492
1107000000.0 -0.196417074940272 -0.11891344487247023 0.1236554125647214 -0.11541430744650061 0.12239851090319873 -0.11657972283047374 -0.2487155737110887 -0.1154802214343508
1107688000.0 -0.19718723343354455 -0.11932943020314911 0.12118173579181457 -0.11815069264910255 0.11967821276795498 -0.11898692798741202 -0.2491696439257265 -0.11456662679013171
1108375000.0 -0.1980774054008953 -0.1196428982145686 0.11867643509390621 -0.12077958460796658 0.116956408796137 -0.12130514408779441 -0.24959217262647274 -0.11357786668890799
1109062000.0 -0.1989363911193231 -0.11997514718457092 0.11603681374137487 -0.12333060604365959 0.1142377570501885 -0.12341841379820272 -0.2499587383088541 -0.11264403284573703
1109750000.0 -0.19991277427384496 -0.12019542027388017 0.11332398628971117 -0.12579398981960482 0.11159823042420326 -0.1254271362975922 -0.2503637568271092 -0.11171342457217415
1110438000.0 -0.20103729527178715 -0.12029083997396302 0.11050674633318251 -0.12820820472153152 0.10892234818462161 -0.12743015525739557 -0.2507107170388561 -0.11073815415456174
1111125000.0 -0.20221185788185408 -0.12041072258492914 0.1076769270903034 -0.13057118443022708 0.10632278303527835 -0.1293764672539931 -0.2510602245750476 -0.10977664036985209
1111812000.0 -0.20329153756629667 -0.12047621536818034 0.10468401435829831 -0.13282687025905845 0.10372095234065769 -0.13125743149867994 -0.25145661095378596 -0.10877116080400215
1112500000.0 -0.20451937129723374 -0.12038049489327894 0.1018712692372277 -0.13493503471756293 0.10123484154871981 -0.1331872812601873 -0.251855496968316 -0.10766883557257534
1113188000.0 -0.2058014273348912 -0.12017077755595225 0.09878095885723642 -0.13695872825729363 0.09870024633556725 -0.1349934163652667 -0.25224036774967645 -0.10666028574379045
1113875000.0 -0.20680865175813032 -0.12000802438112287 0.0958431792896477 -0.13880577446741474 0.09618984044362769 -0.13690017826993053 -0.25267758727392275 -0.10536558270502216
1114562000.0 -0.20796272913815828 -0.11968853287302557 0.0928578219198348 -0.14057643589979432 0.09358124171847981 -0.138733265839696 -0.25313090574357766 -0.10413744714424207
1115250000.0 -0.20909326553978821 -0.11932435355060106 0.08970748760283688 -0.14216025159874107 0.09098619246480595 -0.1407131125959067 -0.2535961481489697 -0.10278283126024305
1115938000.0 -0.21005727673288216 -0.11893737962531718 0.08683375476421709 -0.14381091517874622 0.08838092982956863 -0.14262760666351482 -0.2541979120011078 -0.10142552318448611
1116625000.0 -0.2110559549968205 -0.11853793919833162 0.08373339229673676 -0.14536864487451318 0.08563382655526354 -0.1445981437698119 -0.25480972315891154 -0.09988922310477034
1117312000.0 -0.21209020971737805 -0.11807963683568114 0.08076127345816475 -0.1468042566235838 0.08273502218653281 -0.1465850235726798 -0.2555066608327047 -0.09836769861008436
1118000000.0 -0.2129942914547516 -0.11762351599536175 0.07776375901862011 -0.14828075616326158 0.07986693302205915 -0.1485236423309295 -0.25621685234994 -0.09667531603211144
1118688000.0 -0.2139719689367029 -0.11717200305535411 0.0747190015544278 -0.1497472537370501 0.07671864075027061 -0.15044038658739434 -0.2568991820968356 -0.09488851617975035
1119375000.0 -0.21495434999999874 -0.11669565928606138 0.07172958429879686 -0.15104651939527683 0.07346958818284251 -0.15230491952676722 -0.2575773189472421 -0.09311270224265573
1120062000.0 -0.21589801288983893 -0.11635546593829622 0.06878324837770687 -0.1523018063382312 0.07018127214374428 -0.15400935904939478 -0.25823738408723157 -0.09125779919337215
1120750000.0 -0.21699402681772353 -0.11590108499441636 0.06572095520758359 -0.1536103248650682 0.06665069798240697 -0.155599953703747 -0.25901724817040833 -0.08936972315939658
1121438000.0 -0.21799265854549016 -0.11547949752073103 0.06275600843884149 -0.15493287516667975 0.06322294037905495 -0.157059421114736 -0.2596989659724688 -0.08755362460155966
1122125000.0 -0.21914726753420963 -0.1149849554583627 0.05968167099886713 -0.15616935753600578 0.059701220745931385 -0.15840663307445244 -0.26031232756324796 -0.08580313049599793
1122812000.0 -0.22038377261591152 -0.11451767372592557 0.056550775794044376 -0.1573890207204902 0.05607223059972289 -0.15952755943119185 -0.26091173175170745 -0.08384745283209714
1123500000.0 -0.22157256590264335 -0.11392637333670985 0.05332572114939784 -0.15863272374144624 0.05242253625746901 -0.1605217190780663 -0.2615675076246473 -0.08212200657049505
1124188000.0 -0.22281599245195452 -0.11329224132455051 0.050282662381929945 -0.15967267175146246 0.04886144465188462 -0.16138856145646602 -0.2619943971069477 -0.08024849077762518
1124875000.0 -0.22424455477836633 -0.1124970322152148 0.047023089717953194 -0.16082522961116147 0.04529049756725549 -0.16207959468233135 -0.2624733826873828 -0.07843161416443968
1125562000.0 -0.22554372896129676 -0.11174681059860567 0.04374237083886724 -0.16196214441363305 0.04185734727232768 -0.16268734602693094 -0.26273999710519413 -0.07674911008434344
1126250000.0 -0.2270186401971006 -0.11084189660103402 0.04039868928861143 -0.16289949777962265 0.03843009047139186 -0.16323476465616304 -0.2630128127369989 -0.07511706839039425
1126938000.0 -0.22846640821159145 -0.10981087444217925 0.03699956439659067 -0.16383103267246 0.03512995580864401 -0.16361147379122348 -0.2632457176514358 -0.07352647384980565
1127625000.0 -0.2298270130403074 -0.10868834231450664 0.03371580636260371 -0.16466808752837314 0.03183389296823859 -0.1640956503057098 -0.2633806824140854 -0.07195715467657535
1128312000.0 -0.2311995386720285 -0.1075615682306789 0.030166664594582653 -0.16542539610827056 0.028588368129813493 -0.16443647171660988 -0.26352627677788376 -0.07045732448492764
1129000000.0 -0.2325822787864159 -0.10630986262541796 0.026710386440351685 -0.1660964358727384 0.025493588475292046 -0.16487639810699764 -0.2635388880375448 -0.06884270534410979
1129688000.0 -0.23385942953939465 -0.10497147359022241 0.023214003336108933 -0.166753976716278 0.022358390000285024 -0.1653217453752001 -0.26353426420482257 -0.06744226414202442
1130375000.0 -0.23511622855876316 -0.1036313053827979 0.0197640434043117 -0.16732996909055967 0.019234549577572056 -0.16577586512724557 -0.2633618073547922 -0.06613981504516026
1131062000.0 -0.23627106485686838 -0.10218484533266221 0.01625541524436871 -0.16775848816964115 0.01613777275317699 -0.16620550333106937 -0.26327858723682623 -0.06468883036701398
1131750000.0 -0.2375232426023548 -0.10088197508098935 0.01276674855799301 -0.1680594503980467 0.01304685238521295 -0.16667870643538074 -0.263013125831045 -0.06333224161257242
1132438000.0 -0.23858712264201895 -0.09944804258024546 0.009344062378448816 -0.16833591956122407 0.009792309349464874 -0.1671432438241549 -0.2628060513005049 -0.0619521331760415
1133125000.0 -0.23967120045943965 -0.09811467118772127 0.005772963580756794 -0.16854788709923257 0.006576002081761693 -0.16756565066227758 -0.26247635609458364 -0.06052359391534933
1133812000.0 -0.24082535725876267 -0.09668537345334285 0.0022819912143409544 -0.16867200336353752 0.003255453991818057 -0.16799566473219782 -0.2621858653722164 -0.05907612132070415
1134500000.0 -0.2419047358259384 -0.09529831814217028 -0.0012089614563990038 -0.16875696278639415 -0.0001558600093986037 -0.16831721713603368 -0.2617784609972892 -0.05752993009053756
1135188000.0 -0.24293190376085383 -0.09392385915951199 -0.004767305433025679 -0.1686408243433267 -0.0036482547911434082 -0.16853400012126638 -0.26149218537817914 -0.05594278848360922
1135875000.0 -0.24403469564876054 -0.09254573432956083 -0.008187906194208942 -0.16853300604515178 -0.007254552193799681 -0.16864346705814492 -0.26104928473458394 -0.05424574491692428
1136562000.0 -0.24515518725535174 -0.09120393321130775 -0.011786445817340603 -0.16836178938025773 -0.010869235750639587 -0.16873057576784475 -0.2608352104263877 -0.05249677760244438
1137250000.0 -0.24635894941327904 -0.08987368382487616 -0.015213352734616027 -0.1680376464048394 -0.014504619279130345 -0.16855029618443707 -0.260502996122754 -0.050795783167506506
1137938000.0 -0.2475008982923032 -0.08845890156278176 -0.018739092189491026 -0.1676480967628446 -0.01813951355729126 -0.16826939532400992 -0.26015634727106723 -0.048999796683893364
1138625000.0 -0.24873233451522686 -0.08707616093243292 -0.022203337619033963 -0.167125081293503 -0.021866002277541385 -0.16782477306284652 -0.2597765333558616 -0.0471133463989813
1139312000.0 -0.24986438008819836 -0.08560877305021765 -0.0255984996139055 -0.16660050962625797 -0.025556276917286087 -0.16735298282463656 -0.25936454722065166 -0.04525549586361393
1140000000.0 -0.25108775774909237 -0.08405932648832413 -0.029133549533065385 -0.1659620138328157 -0.02917815361009378 -0.16671599573409723 -0.2592712051301081 -0.04333061019705364
1140688000.0 -0.2521715900311924 -0.0825660752244794 -0.0324684094779001 -0.1652859985050093 -0.032712427625130984 -0.1659202981200855 -0.2589172228014398 -0.041463154790651095
1141375000.0 -0.25334659020896716 -0.08088541005120563 -0.035844180352118386 -0.16447770019056288 -0.036289802866297384 -0.1650088979965634 -0.2585780738339594 -0.03960286545455752
1142062000.0 -0.2544463810010219 -0.07918899434690513 -0.039199337432504325 -0.16364141781123936 -0.03973716705159502 -0.16406007156777705 -0.2581409363187936 -0.037942067237732795
1142750000.0 -0.2554816453497696 -0.07744318304256466 -0.04249819588494853 -0.1627995545115133 -0.04308988294545909 -0.16303585229923592 -0.25777485182986465 -0.03610348622692016
1143438000.0 -0.2562959619190826 -0.07570316562424602 -0.0458305666861146 -0.16193851841831128 -0.046424951525534844 -0.16196163491706897 -0.25746449375437314 -0.034483793056539765
1144125000.0 -0.25712471782838475 -0.07390315293322067 -0.049052314008536 -0.1608333897170764 -0.04965675773945352 -0.1608216280599599 -0.25694569296062875 -0.03279257242246855
1144812000.0 -0.25782303882065816 -0.07216186223916814 -0.0523498647166621 -0.15982187883386165 -0.052786308664118375 -0.15973051378008055 -0.25642538284741473 -0.031328075274883835
1145500000.0 -0.25838817736331493 -0.07039659788731248 -0.055604819125230395 -0.15879005993636996 -0.055986509320774536 -0.15853856933520805 -0.25587376053166627 -0.029925462936703343
1146188000.0 -0.2589472733710947 -0.06880842658955114 -0.05884008573921622 -0.15764120962657968 -0.05911230979477402 -0.15738748798667015 -0.2553587104295989 -0.028591672123829515
1146875000.0 -0.2595059232266801 -0.06705783136463091 -0.06205558803644744 -0.15644456554956443 -0.06218985790470163 -0.1561500274953007 -0.2547433021867642 -0.027381060447903213
1147562000.0 -0.25973848888783874 -0.06553415688018113 -0.06528407594493416 -0.15511959149207735 -0.06521768052868043 -0.15493076488293092 -0.2541859332843283 -0.026295763454937848
1148250000.0 -0.26016404752482825 -0.06394885387061615 -0.06848097852778397 -0.153849802774606 -0.068375303263864 -0.15372425407931284 -0.2534918028742991 -0.02532280860544751
1148938000.0 -0.2603897710640152 -0.062420107181019716 -0.07155942845604706 -0.15255253962579757 -0.07140478274972747 -0.15239104395744568 -0.25277135497480485 -0.02450622495172566
1149625000.0 -0.26065325508925935 -0.0609157247678046 -0.07475443211762059 -0.15113067237077654 -0.07450482288270906 -0.15107835931683086 -0.2521823474757796 -0.023711971802025666
1150312000.0 -0.2609485203628029 -0.05948381185532751 -0.07776870126211843 -0.14969422371962515 -0.07756615987279859 -0.149766084382997 -0.25138890705285327 -0.022862008180979467
1151000000.0 -0.26103555224430713 -0.05803088233282549 -0.08088588793686528 -0.1481616301353513 -0.08064345739503534 -0.14834409400014464 -0.2505405595424146 -0.02226150613513928
1151688000.0 -0.2613524804691289 -0.056694732274015294 -0.0839367861694609 -0.14669303670038722 -0.08376517411970576 -0.14685662594689003 -0.24975558974660395 -0.0214879368003394
1152375000.0 -0.26149641441471666 -0.05537646640485201 -0.08688063008928379 -0.1450859331428521 -0.08689598859138636 -0.14534827485158952 -0.2488780145480849 -0.0209942719481141
1153062000.0 -0.2615944158450421 -0.053983808848102034 -0.08990383856523342 -0.14335791156947653 -0.08998755948738757 -0.14361711121814075 -0.2480253948458547 -0.02035815635834206
1153750000.0 -0.26186272966952157 -0.05269703358315327 -0.09279518888165092 -0.1416355405608097 -0.09305695661944498 -0.14200755658723888 -0.24717963246106384 -0.01981888983901889
1154438000.0 -0.2620798100886484 -0.05128871899963352 -0.09581502553471707 -0.13986975725704556 -0.09617302372651028 -0.1401803100685514 -0.24612194306951993 -0.019185289444999632
1155125000.0 -0.2622567666969224 -0.04987325378178768 -0.09878138064246039 -0.1378974544806212 -0.09920632811445534 -0.13818177393199646 -0.24519278608003744 -0.01859211826918458
1155812000.0 -0.26242581403348003 -0.04852875811187713 -0.10167376853209462 -0.13601727607618466 -0.10217614724856212 -0.13612528796962137 -0.24422329998100023 -0.017984413351844974
1156500000.0 -0.262624405526638 -0.04711445129713649 -0.10460953204631492 -0.1340167399278895 -0.10511475161787927 -0.1340635455443904 -0.24319464162665716 -0.017192246886017892
1157188000.0 -0.2628251357728329 -0.04569976047912277 -0.10747519063749461 -0.1318773083895136 -0.10806849290105763 -0.13187338041600183 -0.24224467911507155 -0.0165913505207952
1157875000.0 -0.2630513732193493 -0.044304717293650125 -0.11028682346056118 -0.12968631073106998 -0.11091376184012924 -0.1296055075932372 -0.24129597098995773 -0.015759552208119084
1158562000.0 -0.2632481931807593 -0.042781761917140435 -0.11311514825948968 -0.12746787512675065 -0.11372484599173863 -0.12720886102191017 -0.2403439145575715 -0.015040255250345533
1159250000.0 -0.26334986876434663 -0.041278769152000114 -0.1159483340789764 -0.12510951368789178 -0.11646089255969634 -0.12479440031763599 -0.2393785082944795 -0.014230046915529666
1159938000.0 -0.2634815355146419 -0.03979847138593855 -0.11866921747559037 -0.1227291958459751 -0.11910071218768711 -0.122286943257884 -0.23853762949068744 -0.013355460341357777
1160625000.0 -0.26354950674352273 -0.03843116243087518 -0.12135505854953266 -0.12030384854201462 -0.12162948928068346 -0.11971601795742104 -0.2376522545406834 -0.012563648791007295
1161312000.0 -0.2635791003511479 -0.036909853086362736 -0.12389476625439604 -0.11775813904960211 -0.12409850982170192 -0.11702835032903755 -0.2369155689899451 -0.011727268908125043
1162000000.0 -0.263511381898588 -0.035479092470559685 -0.12645784042688255 -0.11505587681071129 -0.12645163740299137 -0.11432726696178937 -0.2361449131402777 -0.01091393836785457
1162688000.0 -0.2637000180445239 -0.034012592333551146 -0.12897878730400963 -0.11234016821767043 -0.12879545698844538 -0.1116544136581974 -0.235448777490148 -0.010144629024469389
1163375000.0 -0.26358378014554446 -0.03261072701139682 -0.1313607640115338 -0.10955507202084096 -0.1310807004004339 -0.10886561730756532 -0.23475692338426568 -0.009390043617371752
1164062000.0 -0.263567616317305 -0.031148796202378315 -0.13373825622209928 -0.10675066976716255 -0.13329096056591044 -0.10602295150842156 -0.2340952253593937 -0.008648361127015568
1164750000.0 -0.26345440822663885 -0.029886292192161493 -0.1359708671900459 -0.10389904518283656 -0.13541310482759858 -0.10327247149269149 -0.23349848164753198 -0.008001977038419154
1165438000.0 -0.2634425557943866 -0.028503518501694306 -0.13818301473739683 -0.1009325499251604 -0.1375456786992553 -0.10041495533774887 -0.2329370615713093 -0.0073526421905757205
1166125000.0 -0.2633499077692243 -0.027319985729377987 -0.14035287331991947 -0.09795190907734792 -0.13958445416055995 -0.09750902323111248 -0.23235310275134605 -0.0068014680889268726
1166812000.0 -0.2632210322178714 -0.026120567501579064 -0.14233246765053584 -0.09485443278204436 -0.14159724001572851 -0.09466699260426516 -0.23187491006066208 -0.006195750352546591
1167500000.0 -0.2631376410357347 -0.024971341250287823 -0.14435310392155024 -0.0917091166310127 -0.14344907174011268 -0.09171061204648477 -0.2312849148303039 -0.005771829273444875
1168188000.0 -0.26298956023692094 -0.02393028186667086 -0.14616151685995926 -0.08855426630337637 -0.14538092897213775 -0.08873782465198841 -0.23079345374217142 -0.00536737909035207
1168875000.0 -0.2629049166455815 -0.022869635725022888 -0.14800679787289686 -0.08541647157146663 -0.14726348143403534 -0.08578684562092187 -0.2302704361587054 -0.005110312211337191
1169562000.0 -0.26288790794757205 -0.02193406831195792 -0.14975220404833733 -0.08224494381895617 -0.14907886274101173 -0.08280567628213858 -0.22973264169168667 -0.004802665723045429
1170250000.0 -0.26286593053841756 -0.02093570868598738 -0.151309885641221 -0.0789142041426 -0.15085825378464535 -0.07977484995039431 -0.22910404453972755 -0.004665035747476299
1170938000.0 -0.2627501428478334 -0.02009336159066442 -0.1529158125675895 -0.07581298091369162 -0.15253422749638354 -0.07670614804087617 -0.22857898624571837 -0.004523751080209644
1171625000.0 -0.2626885454855136 -0.0192250970568538 -0.15439057855432545 -0.07253090648765854 -0.1541949564965816 -0.07357295102920085 -0.22811314200216234 -0.0045439447098702705
1172312000.0 -0.26274779893981043 -0.018409268846354857 -0.15572862336103185 -0.06922563655745169 -0.15581790254193542 -0.07037452446751388 -0.2273896930450364 -0.004548114217892065
1173000000.0 -0.26274207057539395 -0.017575220292667015 -0.1571127751359151 -0.06597393935287879 -0.15733535667469967 -0.06714218757623407 -0.2267570784850565 -0.004645654070746132
1173688000.0 -0.2627567535205194 -0.016877918705815724 -0.15829732065237603 -0.06270045368103938 -0.15878376412063297 -0.06381860677090274 -0.22603819054833257 -0.00484897726504241
1174375000.0 -0.26270698059077663 -0.01602201190226941 -0.15941135281196747 -0.05946716735770003 -0.16022932366906706 -0.06047156271364042 -0.22525571458717125 -0.005011886559714368
1175062000.0 -0.2626822728848777 -0.015281992181427551 -0.16060854161974927 -0.05631319714702878 -0.1615698811854086 -0.05706190643286952 -0.2245770350910571 -0.005183675515028093
1175750000.0 -0.26261839865650527 -0.014630100882749351 -0.1615679384162805 -0.05307173879185404 -0.16280367163490642 -0.0536454609825777 -0.22379307597056336 -0.005424556276225646
1176438000.0 -0.26277581617997375 -0.01381694252235434 -0.16259894162511085 -0.049767927638089904 -0.16396126572241773 -0.050073471852876514 -0.22298894959205393 -0.0057023774863724785
1177125000.0 -0.2626605096464637 -0.013127848239031879 -0.16360247821165644 -0.04652975152448984 -0.16499534636630572 -0.04657814000817797 -0.22217901560867281 -0.005964388550426179
1177812000.0 -0.2625575438479241 -0.012335954878117728 -0.1645870191145949 -0.0432191525001411 -0.16604187553807695 -0.042970679860455795 -0.2214137037930357 -0.006051755769205157
1178500000.0 -0.2623977541552994 -0.011698226386190462 -0.16546683412925442 -0.03996024363096467 -0.16690056520752547 -0.03936306958498772 -0.22058573165010473 -0.006241184232757816
1179188000.0 -0.2623416128522963 -0.010908318282514283 -0.16636416612695865 -0.03660028444297491 -0.16764809141995665 -0.03569319911434292 -0.2198221728043923 -0.0062866753831799915
1179875000.0 -0.26205301538259573 -0.010244977513807332 -0.16711902728498043 -0.033301360670490346 -0.16819024935205168 -0.03211901457813604 -0.2191682626006871 -0.006336590157914784
1180562000.0 -0.2618881259618011 -0.009441889871297737 -0.16789302770307976 -0.029823765662587317 -0.1688087190712558 -0.028531330354776858 -0.2185040403536469 -0.006353940545274802
1181250000.0 -0.2616644828831192 -0.0087589332804333 -0.16855758485681568 -0.026435513003126482 -0.169088264961971 -0.024829480165487288 -0.21791924452711708 -0.0062956307133092745
1181938000.0 -0.26140387273091603 -0.008251529808900905 -0.16918227643987838 -0.022915649373756265 -0.1694140192474855 -0.021288870667441142 -0.21734967123625165 -0.0062557856834312125
1182625000.0 -0.26109639147640545 -0.007742056958334467 -0.16980846173938405 -0.019392896679400404 -0.16968301279779038 -0.017736850748707615 -0.21690371365094802 -0.006170690572373337
1183312000.0 -0.26073931135381306 -0.007149157669145293 -0.1702768407703138 -0.015808605056420934 -0.1697820972053717 -0.014239010409586772 -0.216354523406976 -0.006024269561426616
1184000000.0 -0.2604607662135584 -0.006650507238146679 -0.17069636801753893 -0.01218545149361241 -0.16989750336180517 -0.010769058145728856 -0.21605285955685943 -0.00580000849297364
1184688000.0 -0.260103631815668 -0.006126408516892187 -0.17098363417461132 -0.008522345972382732 -0.16985413370918256 -0.007297883212091353 -0.21575861258361792 -0.005531855609122361
1185375000.0 -0.25992342792549633 -0.005684805401615436 -0.17106414460840197 -0.0047873982471695236 -0.1698066799859096 -0.00388910051765343 -0.21532764934789062 -0.00528640662888716
1186062000.0 -0.2596971656241319 -0.0053077471196677556 -0.1712958932470779 -0.0010889017594775095 -0.16973061877879975 -0.0005051503345670279 -0.21515204678803954 -0.0049680195940251335
1186750000.0 -0.25947739728058683 -0.004933744097691902 -0.17124830286416381 0.0027090176107260546 -0.16957686079517673 0.002879083318071814 -0.21493625244741288 -0.0047626191181111485
1187438000.0 -0.2592646705514971 -0.004493494332233736 -0.1712126870933746 0.006378436046062917 -0.16945959376836472 0.006283529175491702 -0.21470446043865002 -0.004547629022366314
1188125000.0 -0.25923760564222936 -0.0040128508773575105 -0.1710156755292388 0.010243512984652014 -0.16941004807859544 0.009722468028024891 -0.2144639033250375 -0.004167401292476655
1188812000.0 -0.2592464268582395 -0.003587356211210224 -0.17067181423628625 0.013984451701926285 -0.16921344857048642 0.013130914039521647 -0.21435957648779289 -0.004065656108505072
1189500000.0 -0.25919150210662767 -0.0031085243032591063 -0.1701321197043874 0.017658280099801006 -0.1690323411119635 0.01656147872839318 -0.21423248064552672 -0.003956864383272365
1190188000.0 -0.2592710917644263 -0.0026320859142256 -0.16965534517158332 0.02137611006379256 -0.16881627330975382 0.0200548065575935 -0.21399211940101978 -0.003871123052406545
1190875000.0 -0.25928389803299645 -0.002018749105605153 -0.16898668762281696 0.025078402874211796 -0.16852530397804757 0.023575469728670653 -0.21389761552833442 -0.003867927579684494
1191562000.0 -0.2593044874594357 -0.00124609131193653 -0.1681449202046679 0.028676201444141264 -0.1680774046802134 0.027134065672570356 -0.21375673635177034 -0.003928477359364782
1192250000.0 -0.2594769309117923 -0.0005827359040737351 -0.16731750095210443 0.0321827055605495 -0.16764355942703796 0.030683279679207174 -0.21368451300394392 -0.004242103803283693
1192938000.0 -0.2594691869289467 0.0001887588165805299 -0.16638893765206034 0.035649747076988696 -0.16703414933117802 0.03426709791679016 -0.21354126421818376 -0.004435879050100912
1193625000.0 -0.2595043420576419 0.000864920992758767 -0.16534248148845074 0.03911324898444442 -0.16633681680620832 0.03787515585808033 -0.21347078739031508 -0.004797509591066502
1194312000.0 -0.2594799025078684 0.0016962600414462262 -0.16422553903807924 0.042409536275902736 -0.16553576245215118 0.04144774440105237 -0.21338416615699626 -0.005206417562469751
1195000000.0 -0.25948268362921895 0.0025394980946312875 -0.16299936724275646 0.04579029250215694 -0.16460496684969703 0.04510014283591782 -0.213322550582543 -0.005742173901607633
1195688000.0 -0.2593793426853774 0.0033713325022618956 -0.16189632902191328 0.04891040143448248 -0.16349115419591886 0.048696315419806256 -0.21326035224883144 -0.006268972533014888
1196375000.0 -0.2591956204905532 0.004210117180551383 -0.16052618398445687 0.05226789483684188 -0.16228402846714682 0.05222145841682544 -0.21322682286658132 -0.00672027163409011
1197062000.0 -0.2590962512908636 0.004989242800893336 -0.159298858800484 0.05530293126685884 -0.160915932409675 0.05571730241242087 -0.21329878869916602 -0.007204661214254945
1197750000.0 -0.25895201213402386 0.0057518815021142195 -0.15799603362844397 0.05835321975311434 -0.1594463042450793 0.05917163160257898 -0.21340771924647273 -0.007713429400905911
1198438000.0 -0.25876085939476695 0.006404827472621463 -0.1566310062591317 0.06143162932489736 -0.15784465342799364 0.06248761279929852 -0.21338261204020356 -0.008215667240885741
1199125000.0 -0.25861738651066907 0.00712434930163062 -0.1553386095193129 0.06447698101083382 -0.15617677190664803 0.0657213720659629 -0.21351106711677595 -0.008619428017660268
1199812000.0 -0.25854354740664776 0.007730554506954935 -0.15383284308782674 0.06746953003317728 -0.15448953705534757 0.06888908250905593 -0.2136433283443775 -0.009013120083362627
1200500000.0 -0.25840259326030496 0.008318367023774606 -0.15244351587226873 0.07045243315569022 -0.15266962439173712 0.07189057494254357 -0.2137079665373779 -0.009225817055623921
1201188000.0 -0.25838421194963646 0.008888787160229963 -0.150975180752781 0.07337203148877504 -0.15085073900746873 0.07481242221686332 -0.21393435112118234 -0.009424746109798576
1201875000.0 -0.25846739867559976 0.009532920919919328 -0.1494030829224491 0.07641141425515613 -0.14894007808637985 0.07769101855610823 -0.21414481468437369 -0.009515055851613398
1202562000.0 -0.2584939006826067 0.009996117111903591 -0.14782908588850824 0.0792903255326655 -0.14716179349055955 0.08038238604339018 -0.21444848216844214 -0.009492423163974957
1203250000.0 -0.25868679419345575 0.010623144455934886 -0.14618937437634683 0.08216670215527583 -0.14523426770828587 0.08303626430686153 -0.21474175775218016 -0.009392464753460832
1203938000.0 -0.258957803604877 0.01131064172698947 -0.1444951261838927 0.08502078322360442 -0.14349524292705293 0.0856475254847137 -0.2149149413625131 -0.009228629759152378
1204625000.0 -0.2592195744165644 0.012032607590301447 -0.14275402535889026 0.08792986358764096 -0.14168982881620298 0.08826318057284895 -0.21520425394792667 -0.008974730063389386
1205312000.0 -0.25954218725811734 0.012758437333890238 -0.14083776104868945 0.09075142308986632 -0.1399473828800869 0.09076891516843502 -0.21550170153615622 -0.008668563934591677
1206000000.0 -0.2598481930372243 0.013638160106290178 -0.13910560237123817 0.09352203257079739 -0.1381428387899424 0.09332183152037814 -0.21573240657115345 -0.00831498946802916
1206688000.0 -0.2602106951183262 0.014578239562779424 -0.13710598469448632 0.09621170888822758 -0.1363754143942217 0.09589893352677456 -0.21603416466030645 -0.007798117511321586
1207375000.0 -0.26058416298597914 0.015542663245789522 -0.13507093705599085 0.09903407849239992 -0.13460457271661244 0.09857799710601439 -0.21642077388647854 -0.007182738538539433
1208062000.0 -0.26078040050314605 0.0165459558431093 -0.13309216448790778 0.10164512631497713 -0.13282212686250378 0.1011728658982167 -0.2167025541073055 -0.006677392798553031
1208750000.0 -0.261022940340589 0.01780054364751767 -0.13086631122263812 0.10420429667241751 -0.13084515434449345 0.10380209126018224 -0.21695719974799538 -0.005997032965772113
1209438000.0 -0.2611197107464799 0.018995057266379723 -0.12879480205452395 0.1068752176731959 -0.12886402025004345 0.10649744730043431 -0.21735666372047086 -0.005409304494949683
1210125000.0 -0.2612002104217078 0.020182482298135428 -0.12656558386655734 0.10952699806434271 -0.1268288750530382 0.10919045858013351 -0.21762330334822239 -0.004812460551075305
1210812000.0 -0.26121495475658385 0.021473431888681064 -0.12435564648002208 0.11200401748062921 -0.12464383519051131 0.11191598571373082 -0.2179545781720512 -0.004332272464761172
1211500000.0 -0.2612233781109491 0.02260748066333912 -0.1221016165142178 0.11445649232181883 -0.12237853482398785 0.11457136188281497 -0.2183869238929204 -0.0037575424776334354
1212188000.0 -0.26104368314365217 0.023801173248624456 -0.11964309298163885 0.11703330006663934 -0.11995125931417636 0.11715454889083997 -0.21884101148641458 -0.0032919943281292576
1212875000.0 -0.2609812308232974 0.024920088142034183 -0.11728025665071473 0.1194196331083339 -0.11743993854248695 0.11965554459994471 -0.21924325874933823 -0.002904824263312256
1213562000.0 -0.2608241141133409 0.026070412514763545 -0.11470300544187012 0.12173628348375098 -0.1147985446006203 0.1221398760596019 -0.219660378314791 -0.0025712552561056776
1214250000.0 -0.2606254271027354 0.027180837307509028 -0.11233856748150518 0.12406134679002985 -0.11218462427723248 0.12448260076827929 -0.22019514076815286 -0.0023862861938759817
1214938000.0 -0.26048301191722883 0.028156489080236363 -0.10967763256232176 0.12626956913676904 -0.10936096563378549 0.12664329643898897 -0.2205732095227566 -0.0022042518197648367
1215625000.0 -0.26043308658744696 0.029229485080089317 -0.10698807275729195 0.12848196038122867 -0.10659005077550983 0.1287694144052631 -0.22109302818853643 -0.0021529659326097097
1216312000.0 -0.26034127671231994 0.030277369264367568 -0.10429052187923586 0.1305359768562059 -0.10370416067370605 0.13070269928334147 -0.2216431347699766 -0.0021354606248034447
1217000000.0 -0.26027665689763896 0.03130139683342882 -0.10157722872300871 0.13257920293400538 -0.10086466931753163 0.132649450659504 -0.22219899643281393 -0.0020773659644628423
1217688000.0 -0.26036826720934625 0.03232403164182661 -0.0985927555612399 0.13452034037372543 -0.09798827584908024 0.13440423434836582 -0.22270745340450038 -0.002009354878242114
1218375000.0 -0.26038038232486754 0.03340276820081389 -0.0957228667780706 0.13629123222069658 -0.09515708248211166 0.1360059443412977 -0.22317105467187104 -0.0020443361562264267
1219062000.0 -0.2604529577087307 0.0346084602849668 -0.09277504161286983 0.13815965365456742 -0.09237188921466699 0.1375717276082599 -0.22382661325736639 -0.0020859472853019985
1219750000.0 -0.2606035986937481 0.03582266979563494 -0.08983514489415043 0.13970037144716327 -0.08967037638557236 0.1390185825329491 -0.22435991409112638 -0.0019417342236964547
1220438000.0 -0.260726460139391 0.03718656069133189 -0.08697717819574918 0.1413037964222112 -0.08691662762204579 0.1404361387300742 -0.22486719841452438 -0.0019183797800376111
1221125000.0 -0.2607556981645763 0.03857457095388972 -0.08402354584520005 0.1427015665429357 -0.08423358335784055 0.1418104004655402 -0.225470811479568 -0.001654488617130783
1221812000.0 -0.2608367183441216 0.04002107688483052 -0.08107892745075979 0.14409809351933484 -0.08160920529323337 0.1432080618397753 -0.22594694794169182 -0.0014256004080303289
1222500000.0 -0.260831251138216 0.041640435094875194 -0.0783024665704819 0.14545986526976737 -0.07904784639080446 0.14464897525566822 -0.22651689931048696 -0.0010707620058712823
1223188000.0 -0.26078390187681616 0.04326305367408365 -0.07535640285128432 0.14673580677621714 -0.07648935946055253 0.14613210844660496 -0.2269947789174231 -0.0007245809655755393
1223875000.0 -0.2605890832677681 0.044873921940763825 -0.07262191644412688 0.14798163716686508 -0.07391751597596957 0.14756123500617885 -0.22742316475221058 -0.00019135140988277478
1224562000.0 -0.2603103688646623 0.046652874622520726 -0.06989397674347174 0.14912617116105914 -0.07126212462879743 0.14910452817002826 -0.22788656135444735 0.0004346682401146835
1225250000.0 -0.26006160198309264 0.048330196500269706 -0.06712363463626181 0.15035616375704175 -0.06854506724784319 0.15053596373296238 -0.22829213256567468 0.0010945755938394622
1225938000.0 -0.2595632574667038 0.04999772473687684 -0.06442775779409161 0.1515060313147969 -0.0658534393514347 0.15210036678135772 -0.22873122152292627 0.0018220603486655005
1226625000.0 -0.2591517213960545 0.05166213014225431 -0.06169985724879469 0.15261023308219568 -0.0629610492424737 0.15360421025814922 -0.22904645070659663 0.0026801572025381224
1227312000.0 -0.2585976958144778 0.05321115793575686 -0.05901174737349933 0.15374782111382243 -0.06000505714069712 0.1550722936302688 -0.22940665540075783 0.003658861083237594
1228000000.0 -0.25800458421442557 0.054761296495439905 -0.05626054661938525 0.15487763176818187 -0.05694117785058822 0.156528058879705 -0.2297574339840068 0.00451034162856632
1228688000.0 -0.25744773928154896 0.05615716101138689 -0.05356445292190762 0.15601664203000043 -0.053840499064487866 0.1578532395524622 -0.2299878518237535 0.005557105202743548
1229375000.0 -0.2568834527840884 0.057603769959003 -0.05075550553864768 0.15710398103498452 -0.0505445697146106 0.15910991656897144 -0.23032236890385785 0.006642825923784518
1230062000.0 -0.25632685716767895 0.058923083626957334 -0.04783598020473359 0.15828330210668723 -0.04725673097065964 0.16022774221221608 -0.23060865895548646 0.007633465899243933
1230750000.0 -0.25577557627834957 0.06014279820651632 -0.04494000185326567 0.1593235780078094 -0.04385843573442551 0.16127566049163888 -0.23097124652268652 0.00877690378203993
1231438000.0 -0.25535760531661095 0.06142719632822214 -0.04195437576067363 0.16053862345380937 -0.04046785592222272 0.1621161821404613 -0.23133230133839133 0.009729995524060607
1232125000.0 -0.2548268773784305 0.06264611191210949 -0.038945071503943024 0.16158774897636746 -0.037097615713486846 0.16283359822029733 -0.2316908844973701 0.010605025661691104
1232812000.0 -0.25454785860460444 0.06386977569887588 -0.03577933394632351 0.16258002176207906 -0.03371829683746953 0.16343818386471548 -0.23223652125364677 0.011628007496872992
1233500000.0 -0.2541159641740108 0.065127087319885 -0.032554886324838314 0.163544519644827 -0.030290976670023867 0.1638946137127045 -0.23267211658680423 0.012534736789323217
1234188000.0 -0.2537840987198249 0.06642214302481372 -0.02918688258700864 0.1645275146863219 -0.02696213802530734 0.1642575738062875 -0.23327640092543805 0.013237350075013891
1234875000.0 -0.25354651464655464 0.06775620541250908 -0.025862107209631734 0.16540515161191716 -0.02376177262366048 0.16457156616722485 -0.23386293156552568 0.01408134358851933
1235562000.0 -0.25332743487634024 0.06913381243439254 -0.02244370098204042 0.166132300217634 -0.020603342409127985 0.16486137435696363 -0.23453786331410645 0.014729354396022609
1236250000.0 -0.25307271776170653 0.070574724028226 -0.01899295557464652 0.16676107735991036 -0.017496203504659216 0.16515735378437557 -0.2350689356371325 0.015342130130879166
1236938000.0 -0.2528333716469806 0.07212911755325448 -0.015371484763599143 0.1673187012079778 -0.014453564461577065 0.16529266209804364 -0.23578779444327103 0.016005284246174516
1237625000.0 -0.25241566527433423 0.07369953187848703 -0.011830438118445672 0.1677713063898178 -0.011416957934599601 0.1655624538543688 -0.2364567182657854 0.016584473802137945
1238312000.0 -0.25200875901060704 0.07528903261348611 -0.008291803969209463 0.16798153318118628 -0.008486338400354027 0.16568477492582823 -0.23708296468193524 0.017269643383573317
1239000000.0 -0.2513939270323571 0.07695914620052942 -0.004751575518404319 0.16809450114124075 -0.0054119215243019205 0.1659672459440301 -0.23776918658610002 0.017904619793898013
1239688000.0 -0.25106656875199523 0.07860750849105033 -0.001247682821791562 0.16807318328816553 -0.0023675010746537573 0.16623749723093897 -0.23848041750108304 0.018446281315292617
1240375000.0 -0.2504571968291261 0.08016351197355835 0.0022592713158575465 0.16800975598339585 0.0006728706672501361 0.16650996270259394 -0.2391015520204625 0.019128963489756307
1241062000.0 -0.24976032679985827 0.08175567792742439 0.005677265387865247 0.16785934480671688 0.0038658918280551754 0.1667381630579764 -0.23974492083956747 0.019826611259787068
1241750000.0 -0.24911151586258512 0.08330889290596954 0.009017705977332828 0.16756713624038808 0.007058239107822202 0.16704427615303138 -0.24036613170154708 0.020554495909136994
1242438000.0 -0.2484517742950087 0.08476364604769754 0.012416617033248246 0.16727524186262513 0.010397605735473768 0.16724075219670181 -0.2409662461411479 0.021291371054239727
1243125000.0 -0.24777152300465902 0.08623573821393714 0.015723095761228538 0.1669651448568677 0.013772364828840757 0.16752953532497888 -0.24154649605177117 0.022075766428851826
1243812000.0 -0.24705356263437495 0.0874169776918363 0.018962337352327316 0.16653258313528224 0.017177399670632587 0.16764677353027232 -0.2420472076058698 0.02304243504224755
1244500000.0 -0.24640063330800085 0.08881422284539037 0.022258918472591694 0.1661169104112247 0.020680229666964044 0.167587680095441 -0.2425501324318917 0.023978984691112922
1245188000.0 -0.24577101376280824 0.08995594268837245 0.025397113622190548 0.1656420634818105 0.024272196908554543 0.16750484757496062 -0.24299276054216737 0.025016747804541477
1245875000.0 -0.2452118718398675 0.09120794378450728 0.02867104910068562 0.1652517080279861 0.02793759533987094 0.16726740224335393 -0.2433452360308407 0.02613114763486755
1246562000.0 -0.244728559078915 0.09232027342569239 0.0318404738211482 0.1647391349447763 0.03153581830245553 0.16687633844516273 -0.2436158734298018 0.02726294155573025
1247250000.0 -0.24423174964308944 0.09350958244322628 0.03490373326467786 0.16419467706426655 0.03518891589228229 0.16628695266566837 -0.24384623189404678 0.028474078264509005
1247938000.0 -0.24385877763954353 0.09459409660938406 0.03812075147362359 0.16360541308761162 0.03877088060605726 0.16560866326031973 -0.24407605719767325 0.02981379219669537
1248625000.0 -0.24350321749991202 0.09571738686707654 0.04129627111825699 0.16309661878519885 0.042360780299469436 0.1647818800231873 -0.244276875529133 0.031022598915515422
1249312000.0 -0.2431409462146882 0.09696210142552265 0.04449246043637851 0.16252670817752818 0.04584538334544849 0.1639247679965879 -0.24442248548128237 0.03236856622862956
1250000000.0 -0.242860253047745 0.09814913138098066 0.047687277458956866 0.16187040663324906 0.04927891996249477 0.16280877052843232 -0.24452949309080713 0.0338139504517866
1250688000.0 -0.24267184559701066 0.09943671537225181 0.050828369878085165 0.16108669560728128 0.05268077642474877 0.16172382815686 -0.24466554471034316 0.035166086904024195
1251375000.0 -0.24245709225989562 0.10065647191390882 0.054071602554336115 0.1602920765318331 0.05596379444207325 0.1604613019458603 -0.24474383364451166 0.03657697386041186
1252062000.0 -0.24217671286357637 0.10193412809779347 0.05732358431559113 0.15949129281653887 0.05916716299734465 0.15915552981083902 -0.244881776623878 0.037931979956941426
1252750000.0 -0.24183802736370674 0.10326463725349057 0.06058309827557842 0.15847288630129705 0.062321097374240395 0.1578535847339092 -0.24508181347649222 0.03932734984741258
1253438000.0 -0.24148861223516124 0.10466128760410805 0.06400705219708831 0.15750581008490983 0.06541439665534667 0.15655090738023617 -0.2452434626532603 0.04069730740090341
1254125000.0 -0.2410923434291606 0.10590414687044414 0.06728559462179412 0.15629366571609754 0.06851364054607748 0.1551504869564886 -0.24550033135488097 0.042044404422028434
1254812000.0 -0.24079770188249477 0.10728053331537797 0.07062764259781082 0.15506324354067655 0.07143579282998336 0.15380712132906896 -0.24567696254295096 0.04335221149752787
1255500000.0 -0.24037666828909218 0.10865273688267867 0.07400045624204167 0.1538083686239052 0.07448748945095454 0.1524945985646661 -0.24598067545075664 0.04457950166112368
1256188000.0 -0.23981016990195947 0.10979242780566956 0.07726749421364115 0.1524083104088062 0.07740007006389785 0.1510337911495787 -0.2463186726665958 0.045888086454039606
1256875000.0 -0.23950761329507383 0.11095720518158761 0.08052478827264711 0.15084848963847095 0.08037691387987177 0.14963830326209904 -0.2465887534363189 0.04707669631896708
1257562000.0 -0.23894097270789416 0.11210777685736072 0.08387663400885483 0.14926626678618596 0.08337583071806673 0.14821641445155184 -0.2469677477173009 0.04838156430951507
1258250000.0 -0.23842390891132914 0.11320869973275995 0.08704078446349943 0.14758594060477373 0.08636503371105342 0.14672828676488983 -0.24721290995508927 0.04952537503104493
1258938000.0 -0.23789959018092594 0.11418902314460883 0.09022894705360943 0.1457970529631545 0.089366903444491 0.14515024632544926 -0.24756027650667517 0.05074535960349883
1259625000.0 -0.2374170436714747 0.11516120112025645 0.09337423463825191 0.1438262941638237 0.09245068735471824 0.14351953350589947 -0.2478547175176146 0.05206317068253905
1260312000.0 -0.23684937048239993 0.11622571801020154 0.09644241065724407 0.1418741379493559 0.09554046716619556 0.14180031892045214 -0.24815821910460703 0.05317587322659487
1261000000.0 -0.23643978642526145 0.1171819194970187 0.09950095887384215 0.13977941602330723 0.0986123680661608 0.1400520998352139 -0.24840398062362018 0.054428677220966705
1261688000.0 -0.23599122579573978 0.11799122397641687 0.10237795343313298 0.13780365249798124 0.10163826091107303 0.13811065690418145 -0.24867912267923026 0.0555258001688614
1262375000.0 -0.23551686557528245 0.11890862356989239 0.1053486504158222 0.13563998833660454 0.10474895149274444 0.13613923690416205 -0.24892283707193685 0.05682177473697365
1263062000.0 -0.23506211690448509 0.11992331400850027 0.10817485976976465 0.13344819343304712 0.10775002779711734 0.1339718923846493 -0.24903497859981355 0.058014453818104265
1263750000.0 -0.23464403442827797 0.12095917329694926 0.11099620743722637 0.13116690393066657 0.11079743928851761 0.13176330321543436 -0.24934445007776512 0.05928179167260613
1264438000.0 -0.23422193888118198 0.12188667531619637 0.11374492315661051 0.12891876358462806 0.11379182120086623 0.12946616611724673 -0.24935868839390113 0.06043719398769292
1265125000.0 -0.23381613974969084 0.12293058744229918 0.11648286964845501 0.12655002733924262 0.11671261815779223 0.12704762586816257 -0.24933571318931697 0.06167941101503723
1265812000.0 -0.23336722797030576 0.12401300721222275 0.11917522159540762 0.12405481502980925 0.11949632139704294 0.12462121222229021 -0.24937307011067655 0.06284298135139114
1266500000.0 -0.2329289409395583 0.1251581161317905 0.1217883026754031 0.12162472574315523 0.12222548773262076 0.12204428047702652 -0.2492891372178725 0.06404195657911821
1267188000.0 -0.23242032215200828 0.12630971073913286 0.12421544843895443 0.11919935850038889 0.12479202855148265 0.11945213769574464 -0.2491168078806034 0.06524238481418021
1267875000.0 -0.23180882642409414 0.1274156168803239 0.1268879966678448 0.11654868570117057 0.12729424194597558 0.11677351923732866 -0.24907610302357233 0.06649515854420382
1268562000.0 -0.2312377082895147 0.1286530109406615 0.1292833250091821 0.11398430698282282 0.12982955842726326 0.11407416352962 -0.2487709228174359 0.06771631478257918
1269250000.0 -0.23057059842719674 0.12982164849990444 0.13171113110565336 0.11136078075040784 0.1321804564634177 0.1113699033385678 -0.2485013048093987 0.06905253362314666
1269938000.0 -0.22994590796964495 0.13099412745642608 0.13398707625805387 0.1086622497203734 0.13447189951705998 0.10855007079989283 -0.24827595975438205 0.07033777047938478
1270625000.0 -0.22928077669260324 0.13235268100337672 0.136273981780883 0.10587406337230215 0.1366410703567549 0.10577781725295281 -0.24790530771667776 0.07159630095366638
1271312000.0 -0.2286246347370744 0.13350435167468094 0.1385481952017881 0.10305780143603877 0.13882905798015596 0.10297149146266256 -0.24763794400278946 0.07290875316513996
1272000000.0 -0.22786222725054178 0.1348303621385445 0.1406891690897882 0.10024305280990639 0.14090835138897115 0.10010896323623543 -0.24737468646784946 0.0742242865930984
1272688000.0 -0.22720469092990453 0.13593574574959938 0.14280782446343693 0.09726430616568592 0.14298306803882482 0.09716589065330902 -0.24704930600854771 0.07570846985365651
1273375000.0 -0.2264174906588223 0.13713371575297575 0.1448684299708646 0.09429923705926971 0.14491189878984093 0.09420648548638132 -0.24675586732929553 0.07708147009122186
1274062000.0 -0.22566970738358844 0.13840074940997676 0.14676237015385224 0.09129529864867898 0.14677625493397045 0.09118341827436789 -0.24649427764271645 0.0784678167344231
1274750000.0 -0.2248132160868142 0.13963221302626477 0.14872049270559662 0.08823141595180031 0.1486587290240481 0.08811034993892267 -0.24619940154480593 0.0798388465634806
1275438000.0 -0.2240830272305273 0.14079344388466683 0.15050924096622903 0.08514468451739952 0.1505059997682974 0.08505448589579642 -0.24592519257105894 0.08118869731193312
1276125000.0 -0.22326218010780025 0.14207741909666985 0.15230846496425268 0.08193766028995134 0.15226835482052958 0.08187233248802439 -0.2456239098555484 0.08253216900601316
1276812000.0 -0.2225452303555773 0.14326137488048082 0.15404451889825235 0.07880108104284149 0.1539604013989984 0.078728774474806 -0.24536752377705717 0.08396497757697689
1277500000.0 -0.22176207611885854 0.14438940434801403 0.15563620132920242 0.07562140457658338 0.1555466399775648 0.07561629965363892 -0.245056454957926 0.08534211656519398
1278188000.0 -0.2209634123219838 0.14563863079162614 0.15712580906529489 0.07232931991237124 0.15714894369394028 0.0723227453738607 -0.24474758080176573 0.08675176967214258
1278875000.0 -0.22015512327001358 0.14686983898421815 0.15867597331514713 0.0690014704628192 0.15864732613371813 0.06908485416356594 -0.24449076509287074 0.08822385356736909
1279562000.0 -0.21934819083172458 0.14802426614729428 0.15996932986401774 0.06559422035775903 0.16007008765653472 0.0657745477813486 -0.24413476144618856 0.08963643111435791
1280250000.0 -0.21847680430996347 0.14922077536417208 0.16126432463126195 0.062253833859102374 0.1613917764341735 0.06243680033948317 -0.24382188641726488 0.09097492968878959
1280938000.0 -0.21767810807822924 0.1503326071707174 0.16253792365429764 0.05875483409926705 0.16272782492883714 0.05908161827102073 -0.24357751301336367 0.09235618217930137
1281625000.0 -0.216805206176057 0.15149194727287077 0.16374952512814744 0.05544948984656846 0.16401337655298118 0.05567191526354745 -0.24327749496040613 0.09377331188802993
1282312000.0 -0.2159666881627937 0.15271062817684875 0.16484374116906003 0.05196650405752844 0.16518532471924105 0.05220272092867043 -0.24298830840916566 0.09518652494990056
1283000000.0 -0.21506486592673088 0.15377748093597657 0.16589426848342786 0.048615524024458255 0.16628771537009257 0.04870373512929593 -0.24270846190763318 0.0966315564959135
1283688000.0 -0.21420091423820836 0.1548895117488167 0.166844646221747 0.044960722496695624 0.16733402360159988 0.04522482385113611 -0.24245490351753096 0.09788168523208272
1284375000.0 -0.21327764234264582 0.1560392778388585 0.16780269179286206 0.04152840761834764 0.16827693300451635 0.04169457184146665 -0.2422603654583305 0.09914530969065406
1285062000.0 -0.21232121298299458 0.15713718080876837 0.16862384501177904 0.038088921020332914 0.16919054691283225 0.03812756341714603 -0.24199181116856144 0.10044467817092799
1285750000.0 -0.21137395230891226 0.15811926024596992 0.1694001505066451 0.034528219226780024 0.16997833758854092 0.03437357429846397 -0.24173964886821872 0.10169029680938736
1286438000.0 -0.21036323340418195 0.15925192400771893 0.17011904775018952 0.030962776635167603 0.1707323578082603 0.030724417530646708 -0.24145977663405263 0.10295392479714795
1287125000.0 -0.2093376665961296 0.1602388595944218 0.17079654954544757 0.027408511290785045 0.17135320222304196 0.027031411498124543 -0.2411626435985822 0.10416867748151432
1287812000.0 -0.20819316186465286 0.16125334204176583 0.1713471983991719 0.023854581515423044 0.17190945293648072 0.023252138860157215 -0.24080715960098667 0.10542278592221385
1288500000.0 -0.20703204730033475 0.16231499408754502 0.17187849959567666 0.020179910729327344 0.17233848215424258 0.019520533856050286 -0.24047495935761143 0.10655488682931498
1289188000.0 -0.20583793801962197 0.1631634049533859 0.17230825921489898 0.016543602625872393 0.1726666333719361 0.015810642871801825 -0.2400438161736748 0.1077992828559265
1289875000.0 -0.20446499241429247 0.16419652929332498 0.17273013200111914 0.012953040533119185 0.17291047255631653 0.012049378096121686 -0.23957803527514054 0.10905323219938064
1290562000.0 -0.2031761358459957 0.16520052885141548 0.17301446094167733 0.009288172972041887 0.17304837324258782 0.008268465826869631 -0.23907652816048924 0.11025301195517974
1291250000.0 -0.2017717707392482 0.16612430222158275 0.17309089894060437 0.005659754269000673 0.17296190752898824 0.0046090247217313 -0.23858454821016434 0.11155557983906605
1291938000.0 -0.20013994970934623 0.1669501712451372 0.17322932722873494 0.001938847745165603 0.17282625937914142 0.0009575367449302847 -0.23798461324886563 0.11284492532635906
1292625000.0 -0.1986285691061254 0.16759778173017312 0.17322939516546526 -0.001764791474606263 0.17260206573628045 -0.002597542374816768 -0.2373104761780319 0.11422484638252434
1293312000.0 -0.1970092019313183 0.1684665735304586 0.17310923158189853 -0.005560072847507176 0.17228963826734894 -0.00613729887627855 -0.236659294680416 0.11563737995823266
1294000000.0 -0.19527662715607425 0.16916271141226727 0.17299347090210487 -0.009230147265161151 0.1719507170214834 -0.009626377059617533 -0.2358671998240001 0.11701657215721119
1294688000.0 -0.19355759626637067 0.16978558183041473 0.17270117865868487 -0.013071348008147524 0.1716550701452287 -0.013123474614030961 -0.234962638905198 0.11848220264644718
1295375000.0 -0.19179830021928806 0.17032391676076855 0.17236418480045057 -0.016710716506426804 0.17116636875383318 -0.016495892400486285 -0.2340571052893584 0.11994749215705532
1296062000.0 -0.1900211589911466 0.17086214736835548 0.17178745800723327 -0.02035905483305998 0.1706400362459686 -0.01984916693107614 -0.23310394975428367 0.1213855428076931
1296750000.0 -0.18828239510267133 0.1713813773492988 0.17113396623917548 -0.024087754768651725 0.17010871676357475 -0.023127721217459703 -0.23203957292624422 0.12286235193440412
1297438000.0 -0.18654324638001626 0.17189583964460037 0.17030720388769757 -0.02771064915185003 0.1695904754661358 -0.026516919627788474 -0.23091703706491562 0.1244557851510281
1298125000.0 -0.18473771811477546 0.1722954372492852 0.16942483533987332 -0.031262461782016436 0.1690014079639132 -0.029801469179513578 -0.22977914765415378 0.1258074761997699
1298812000.0 -0.18298334248113504 0.1728659931302415 0.16852089759115638 -0.03489294534764915 0.1683743821952835 -0.0331847815447474 -0.2285972228724946 0.12740616239785332
1299500000.0 -0.18117069511284603 0.17323739463763782 0.16743732644371623 -0.0382824294685085 0.16768804136683876 -0.036641864228618225 -0.22742277926747184 0.12892231166303977
1300188000.0 -0.17946264658225616 0.17383795933810775 0.16635610799111547 -0.041666305057794735 0.1670637378237869 -0.04006364323925919 -0.22629854532501642 0.13035252692530333
1300875000.0 -0.17764045762270095 0.17417395700227248 0.16511637442157293 -0.04496588690218167 0.1663155289086601 -0.04353303883173167 -0.22508601921596214 0.1318477894868091
1301562000.0 -0.175904700785111 0.17480206724897154 0.16399001319938336 -0.048195555309770904 0.16553653210339617 -0.047112917216035256 -0.22398504452447168 0.13333806094851702
1302250000.0 -0.17408220923733114 0.175326570090659 0.16272456521749107 -0.05138903447734342 0.16452308568715818 -0.050657044171709735 -0.2228214898098572 0.13480005733455114
1302938000.0 -0.1723397035486242 0.1758864516315871 0.16138462874931206 -0.05444079460674415 0.1634865363172244 -0.05420038274140999 -0.22172413907785463 0.13630153479540452
1303625000.0 -0.17040640577939867 0.1764527012871183 0.16010692069625462 -0.05760112128668233 0.16223144655844646 -0.057778552921432615 -0.22079152102123653 0.1376653143696097
1304312000.0 -0.16849685347389162 0.1768839582726316 0.15872100182913992 -0.0606850249539374 0.16086809969491914 -0.061306898056622025 -0.21979253548136468 0.13906697755647834
1305000000.0 -0.16654825359023523 0.17752696464213163 0.15738332665434945 -0.06366207918155749 0.15934376240261391 -0.06480839421037173 -0.21892420436145388 0.14035429012904332
1305688000.0 -0.16463035201315998 0.17795624157919213 0.15601652598136104 -0.06660409205781669 0.15773727384016092 -0.06827246384068052 -0.2181094874919641 0.14169893665577604
1306375000.0 -0.16255643635378395 0.1784466880034685 0.154584587971536 -0.06960240622460186 0.155944385581322 -0.07167041564471559 -0.2173324574044088 0.14297471682685514
1307062000.0 -0.16046525588970675 0.17883217894769515 0.1532167089985037 -0.0725988450470422 0.1540770325552706 -0.07483854231743037 -0.21658623738300342 0.14422493413099438
1307750000.0 -0.15834322879201568 0.17907897562311495 0.1517422823771119 -0.07564310794951619 0.15208724131406026 -0.07803689877271408 -0.2158052120234126 0.14546154548433798
1308438000.0 -0.15633211343937972 0.179332032712325 0.1502456463320491 -0.07859690754612757 0.15000799593607858 -0.08106609014262788 -0.21516549988209424 0.14658635959794789
1309125000.0 -0.15421664855808725 0.17952381195236275 0.1487349343700904 -0.08161563380387876 0.14783469075288946 -0.08395120710588075 -0.2144218335162215 0.14780945011801705
1309812000.0 -0.15222045292033465 0.17962174681779253 0.14699963140259031 -0.0846492719190678 0.14572659009675185 -0.08674691820996663 -0.213510345388688 0.14908893018945646
1310500000.0 -0.1503750529096041 0.17963034873905825 0.14537914208360467 -0.08772803955761288 0.14358497479394833 -0.08938216788756716 -0.21263656439382267 0.15020212975297845
1311188000.0 -0.14836223415615407 0.17959804634089926 0.14358009038674258 -0.09079451927414939 0.14143054281956505 -0.09192298503902287 -0.21163720810244355 0.15142267269960888
1311875000.0 -0.1465581541291274 0.17952145340190367 0.14163413042711842 -0.09382769958704468 0.13931876163744364 -0.09441183414880373 -0.21084129302030058 0.1525878578174543
1312562000.0 -0.14475220431023572 0.17943185662075664 0.13967101401160872 -0.09683605435624547 0.13724852091643883 -0.09684562939200085 -0.20965723423954521 0.15371328987627061
1313250000.0 -0.14308588522837684 0.17915328319784063 0.13758252166605975 -0.09973019678198124 0.1352757179828223 -0.09918941947982392 -0.20852810022735857 0.15499997218890024
1313938000.0 -0.14154567642288074 0.17899702606340714 0.1354024228026789 -0.10266812631177376 0.1333919135402191 -0.10160487417757869 -0.20728618431509763 0.15612982678983023
1314625000.0 -0.13998365504926727 0.17890595629612754 0.13310955775468036 -0.10554393243682718 0.13146837672979947 -0.10397759231105032 -0.20600413033664008 0.1573562797816136
1315312000.0 -0.13843201460960658 0.1787642525551006 0.1306614661167836 -0.10820020971901342 0.12947422389786853 -0.10631472315514937 -0.20459149368961982 0.15848306223172598
1316000000.0 -0.13712103193725686 0.17865719977155617 0.12820790100688717 -0.1108019619936802 0.12759465909466775 -0.10878415254172517 -0.2031146597794917 0.1597152604743072
1316688000.0 -0.13557127492461304 0.17867825270976043 0.12556009699379814 -0.11339542571280034 0.12555319837226578 -0.11124995639808563 -0.2015344694356187 0.16084569802121826
1317375000.0 -0.1341229591248614 0.17871046717293965 0.12291050095900581 -0.1158144145664202 0.12341794012782506 -0.11373932158380469 -0.19975051678989872 0.1619806450201794
1318062000.0 -0.13262756821203386 0.17867925682962385 0.1201838534941633 -0.1180725407533589 0.12126311027374603 -0.11629722999348877 -0.19802634112829107 0.1631558255105771
1318750000.0 -0.1312245087986605 0.17854363586917613 0.11748899465742489 -0.1202367552128355 0.11902356565228983 -0.11885434584934713 -0.19633910550552416 0.1642975774404773
1319438000.0 -0.12962464828521117 0.17862029762664183 0.11464556758944051 -0.12234644116896191 0.11658435589586869 -0.1213941374727025 -0.19444966629232358 0.16541097500494664
1320125000.0 -0.1280460442269365 0.17858337255536216 0.11188766753482669 -0.12443956000154349 0.11402030388231114 -0.12393301211864008 -0.1926259782725386 0.1667128333151852
1320812000.0 -0.12645025632564907 0.17844701377857092 0.10917744766286469 -0.12627836312126198 0.11128940975162525 -0.126396103021417 -0.19084541514201095 0.16778687577736523
1321500000.0 -0.12471870241418685 0.17836945399538096 0.10644058086469468 -0.1282544577397575 0.1084689674719454 -0.12883030608864227 -0.18908629593691317 0.16892597639520185
1322188000.0 -0.12299299319939784 0.17825969922499701 0.10368628163258543 -0.1300549992070246 0.1055579199608815 -0.1311264836755854 -0.18741091586213846 0.17019905361388193
1322875000.0 -0.12137497153719592 0.17791086333633388 0.10093739001086272 -0.1317842270106469 0.1025010108572751 -0.1331866627887407 -0.18568058024558162 0.1713308340223671
1323562000.0 -0.11977301992945734 0.17768141972946191 0.09826379070796455 -0.13352600656520455 0.09934107203590369 -0.13524589408715007 -0.184171892330799 0.17252404269710608
1324250000.0 -0.11800621332549892 0.17721261830029128 0.09555703178536709 -0.13519669548449045 0.09618354495841279 -0.13707725408552932 -0.18271003561242305 0.17360577844541522
1324938000.0 -0.11640929891750507 0.17671941761581797 0.09287462705948521 -0.13678146639774177 0.09301214544968875 -0.13867731020173654 -0.1812892413477426 0.17484085832628501
1325625000.0 -0.11487665309251406 0.1762337386285539 0.09021656971603555 -0.1383296542317836 0.08983022434641576 -0.14019840209753878 -0.18001821066593066 0.17585568921681732
1326312000.0 -0.11342370682782008 0.17573498649451463 0.08755544803507247 -0.1398709135707807 0.08670029184397494 -0.14159783864162673 -0.17888356363178368 0.1770483502023026
1327000000.0 -0.11191929576360725 0.1751942963502651 0.08463590665579475 -0.1413802698678963 0.08362258497147694 -0.14279069398567662 -0.1777256704897707 0.17819264952621372
1327688000.0 -0.11061359648106554 0.17458180164663145 0.08192523302374834 -0.14287881793657356 0.08058967767285168 -0.14396745910637546 -0.17660811448798916 0.17920087539336296
1328375000.0 -0.10939103992325377 0.17413068895900577 0.07905558546669979 -0.1443697725830892 0.07763568559481453 -0.1449998901870869 -0.17557614088356552 0.18025283509389245
1329062000.0 -0.10822779544167653 0.1736393645163562 0.07623823051011014 -0.14573593978051338 0.0747604151652413 -0.14601996492217972 -0.17450850928627165 0.1813315737715766
1329750000.0 -0.10704389932623262 0.17324319063579396 0.07339960113596952 -0.14723775159191455 0.07195448664342749 -0.1470532092394887 -0.17351029051784778 0.18225983032178508
1330438000.0 -0.10597094919443191 0.1729114879996756 0.07039827920827171 -0.14853724995241885 0.06919848288353997 -0.14811478812131573 -0.17243988302412122 0.18317819393583243
1331125000.0 -0.10488016878983894 0.17265064206109954 0.06738686620045731 -0.1498222853415227 0.06648077482412898 -0.1491708891837964 -0.17113547527952458 0.18409912926939664
1331812000.0 -0.10391337700748975 0.17240809588555603 0.0643361705884417 -0.1510760494760694 0.06373744229507704 -0.150216075435257 -0.1699778917129646 0.1849686213476134
1332500000.0 -0.10283931717376181 0.17231491948276476 0.0613002834388318 -0.15226854101111217 0.060981007165589435 -0.15127360699697567 -0.16878731635178978 0.1858050717261725
1333188000.0 -0.10173359421072903 0.17225474508843938 0.058161688030673515 -0.153367360652641 0.058202824997210904 -0.15244716657820861 -0.16740086575003166 0.18653688922519604
1333875000.0 -0.10066051806465855 0.1721525633566793 0.05507305347905951 -0.15436874097072192 0.05542600726888435 -0.15362080503914358 -0.16588106028944677 0.1872028887142694
1334562000.0 -0.09955893490340631 0.17216218956895127 0.05192092447182725 -0.15538939451030928 0.052465212029439906 -0.15478034794021653 -0.16431734196716316 0.18789271087007883
1335250000.0 -0.09830572868454421 0.17217107011022909 0.04870796760527001 -0.15629596817430705 0.049517880287792505 -0.15591557043467252 -0.1626369260329468 0.18852876327196602
1335938000.0 -0.09709650013557596 0.17212593047773425 0.045591253739999234 -0.15713353616872405 0.04640976312763146 -0.15696407170155818 -0.1608106233627613 0.18900624881561404
1336625000.0 -0.09584602937266352 0.17207739610601525 0.0424686371009676 -0.15779383845491665 0.04324795431569985 -0.1579641195673175 -0.1588805771069546 0.18954851570612302
1337312000.0 -0.09454927733373346 0.1719564153147553 0.039356172797646666 -0.15845021530912526 0.03996451684687545 -0.15887336665130214 -0.15692710892848188 0.1899598579698767
1338000000.0 -0.09326726460988884 0.17175032110322028 0.03608197983538867 -0.15904960488089157 0.036623497773160645 -0.1596691657450546 -0.15490779815450884 0.19040598222585206
1338688000.0 -0.09205615920849178 0.17147800623653864 0.03302992651231782 -0.15948351033388397 0.033271173035255085 -0.1602211393826924 -0.15283795290783425 0.19093643709529606
1339375000.0 -0.0907909826228325 0.1711731251706248 0.029767824709189886 -0.15983691804422034 0.029906190158416286 -0.1607366958412639 -0.15059965828894173 0.19127922425977092
1340062000.0 -0.08964999555471355 0.17081312509182014 0.026767402722870197 -0.16018145125939345 0.026479947712837508 -0.16112953258988583 -0.14848344507306216 0.19173301765240847
1340750000.0 -0.08853759817055763 0.17046725101458574 0.023632563539160007 -0.16050321609873253 0.023142136864872567 -0.16140336597703048 -0.14628254653907877 0.19210384526375945
1341438000.0 -0.08758672365973164 0.16985151761020825 0.020536102579188774 -0.16078866178437015 0.01981854129121309 -0.16148814582438148 -0.1441247983217399 0.19263403877470417
1342125000.0 -0.08657821651932456 0.16949670639667297 0.017299207905213852 -0.1610171736084237 0.016567036375247528 -0.1614742885682701 -0.14205522794627545 0.19311142657019792
1342812000.0 -0.08572920824435888 0.16905143986792198 0.014197154731260422 -0.16114908162599467 0.013376310609594943 -0.16141479657844054 -0.14007083685184354 0.19355626366338233
1343500000.0 -0.08492770676318365 0.1685733964443936 0.01107266456563975 -0.16126267290351692 0.010282484058514653 -0.16129454128392293 -0.13811510159972823 0.19416668140989005
1344188000.0 -0.08413266553482969 0.16814739105907764 0.007992030961614924 -0.1612048625742156 0.007280374243887912 -0.16100287788774845 -0.13637264629125848 0.19474114869128603
1344875000.0 -0.08351491914323955 0.16787566449865082 0.0048926311592641675 -0.16124448284681808 0.004328960120722124 -0.16087834365157955 -0.1346484284419727 0.19532751495491293
1345562000.0 -0.08277390404705673 0.16760669023272887 0.0018288942810240174 -0.161197151367739 0.0014256244148736345 -0.16060163293473578 -0.13301918253438313 0.1959028767391792
1346250000.0 -0.08210017935039088 0.16742174797486845 -0.0012905450954600335 -0.16104307364979847 -0.0013975756469469063 -0.16039307505006783 -0.13158960494433505 0.19640755047990696
1346938000.0 -0.08148621355206391 0.1671693509770374 -0.00434729541052519 -0.160964440438744 -0.004250500646630844 -0.16015192271331455 -0.13016042661309443 0.19691641306675337
1347625000.0 -0.08074232813358585 0.16702919555137788 -0.007439066169940563 -0.16071120624322638 -0.007059530699555998 -0.1600130459654724 -0.12875905361611728 0.19760106879954328
1348312000.0 -0.08003895131401706 0.166941485217308 -0.010506316941391808 -0.1603562648007723 -0.00984540587039122 -0.15980078383846752 -0.1275940762087461 0.19802329913349495
1349000000.0 -0.07918598852293866 0.16682939605698843 -0.013501328964413983 -0.15991779283172292 -0.012693878829267084 -0.15957004827427065 -0.1263717808701956 0.19846888891721595
1349688000.0 -0.07845680379667375 0.1667187034627309 -0.01656129918099163 -0.15947980845101764 -0.015610066844653285 -0.1594136944544495 -0.12518295290408277 0.1988612152148453
1350375000.0 -0.0774989855227636 0.16649533165976835 -0.01940251260016665 -0.15897970846549045 -0.018522705843023804 -0.159078029492559 -0.12397297785414398 0.19922155457720475
1351062000.0 -0.07659486328606502 0.1663932728073583 -0.02242041566519759 -0.15837547532222743 -0.02151470672103971 -0.1587639451113742 -0.12286358071962902 0.19946400598870961
1351750000.0 -0.07571833408270505 0.16613983486487438 -0.02538541065798004 -0.15770392011328702 -0.024600988790996724 -0.15840349519185704 -0.1215630541192406 0.19965896540702804
1352438000.0 -0.07466920567130376 0.16584346895546578 -0.02828038002061843 -0.15708208307064353 -0.027749595790739035 -0.1580782049847337 -0.1203307913970536 0.1998724669544197
1353125000.0 -0.07369244262392292 0.16549181822785128 -0.031212368722727517 -0.15649350009319357 -0.030897080896840918 -0.15760577597547104 -0.11895950001411329 0.19989226998958948
1353812000.0 -0.07279565638306297 0.16496126169603192 -0.03411627856853065 -0.155782132793273 -0.034010621602023255 -0.15701058638926738 -0.1175449664693624 0.19994473656014436
1354500000.0 -0.07183383927089951 0.16453797946790574 -0.03694871807619895 -0.15495783327121274 -0.037196139405127955 -0.1563134127971017 -0.11602155240882353 0.19989969393968543
1355188000.0 -0.07092526566925667 0.16386638554761715 -0.03977142476703867 -0.15416588551782218 -0.04034447976971878 -0.15546547648421008 -0.11441076406987857 0.19972439886764082
1355875000.0 -0.07015668991196128 0.16336871890583168 -0.04263414494834305 -0.1533791381167714 -0.043451139069053395 -0.1545434719202191 -0.11279729210771713 0.19953894122703872
1356562000.0 -0.06935507754855716 0.16267581872618267 -0.045415329987223134 -0.15249845309592303 -0.046484095982328735 -0.15348197109024167 -0.11098583297247402 0.19929765743368877
1357250000.0 -0.06858655458156318 0.16208085391482321 -0.048270834935983664 -0.15167155793506124 -0.049479987061426096 -0.15234917385719476 -0.1091103320602075 0.1990149641688432
1357938000.0 -0.0679362813295046 0.1614309016615817 -0.05106539548547183 -0.1508088824644004 -0.05239477897158437 -0.15120553155553632 -0.10717339895265512 0.19868845964203113
1358625000.0 -0.06736149441359231 0.16081658745544575 -0.053877942779202964 -0.14983662270516682 -0.05527979809740929 -0.14994215422062676 -0.10514091716780674 0.198255929309088
1359312000.0 -0.066822664265281 0.1601502562897276 -0.05666555343711213 -0.14885696444201293 -0.05805304884593711 -0.1486215469559649 -0.10311883896933023 0.19785984030169163
1360000000.0 -0.06627965593982064 0.15955752245965335 -0.05955041555555033 -0.14782631581902453 -0.06070802846180426 -0.14736001364342352 -0.1010018882051875 0.19739651517448262
1360688000.0 -0.06580878835572722 0.15899172254646976 -0.06235072760061811 -0.14665423936836713 -0.06331138165697861 -0.1459828599488253 -0.09887411620964807 0.19705481677906425
1361375000.0 -0.06532741017693304 0.15847515530791073 -0.06506642884794261 -0.14555220411280773 -0.06585561075335128 -0.14458909772970024 -0.09679412319125709 0.196713801570073
1362062000.0 -0.06486686653978443 0.15798322623661168 -0.06780218170528089 -0.14434819010390834 -0.0684166776953894 -0.14329132357681254 -0.0946445371422056 0.19638195554458973
1362750000.0 -0.06437138955912274 0.1574224338237492 -0.07060354661129717 -0.14300249826309083 -0.07090562467125874 -0.14192627586656553 -0.09251558803992108 0.19612168571978109
1363438000.0 -0.06389550838949856 0.1569514506788623 -0.07342125989079773 -0.1417179436997034 -0.07339051269872462 -0.1406404417697214 -0.09052175106023674 0.1958874234647111
1364125000.0 -0.06344859477648417 0.1564986943437908 -0.07613930348894991 -0.14029007139993108 -0.07587762817719682 -0.13930516696517373 -0.08848181830552539 0.19560396461329685
1364812000.0 -0.06290041682346637 0.15595906862529377 -0.07879007004136022 -0.1388286706761934 -0.07841155541734193 -0.13796960112181927 -0.0865366571180842 0.19544583758079628
1365500000.0 -0.062368995926383654 0.15540186338445716 -0.08142980680463169 -0.13733325614831163 -0.08090145521028305 -0.13669819250078985 -0.0846901436509888 0.19534762148075568
1366188000.0 -0.061852923099524185 0.15474822153761206 -0.08414042951667172 -0.13570488923715507 -0.08339754581459727 -0.13536656606181238 -0.08296100696094234 0.19519343528111271
1366875000.0 -0.061294279026180815 0.1540593016219045 -0.08674978500102239 -0.13412451288568136 -0.08592515950595006 -0.133998743888972 -0.08119935106907214 0.19505973842841365
1367562000.0 -0.060818265094427275 0.15338306821395845 -0.08928563078317993 -0.13241850693565255 -0.08848817264107693 -0.1325155104876718 -0.07964062645628672 0.1948871549521666
1368250000.0 -0.06027051736724684 0.15257941341330322 -0.09169209539842764 -0.13065314010102083 -0.09101325955716044 -0.1309749824012838 -0.07814411389425671 0.19477273382160948
1368938000.0 -0.05979862028002027 0.15179136737320545 -0.09409781628336529 -0.12885111963081322 -0.09356701602003488 -0.12943267661342303 -0.07659485584275372 0.19455665132537603
1369625000.0 -0.05936546774634561 0.15089010371325456 -0.09655286546484929 -0.12697825722647704 -0.09610284982824838 -0.1277201456677145 -0.07514335229204923 0.19422582455931253
1370312000.0 -0.05883223700565308 0.14987059674957046 -0.09892179132360797 -0.12511277475535004 -0.09864970404553262 -0.12596242942715824 -0.07372935545220845 0.19400118873923933
1371000000.0 -0.05856311280566203 0.14889861548127523 -0.1013078316129647 -0.1232795173673898 -0.10117418731620208 -0.12409937223232873 -0.072268532956832 0.19359134395477956
1371688000.0 -0.058199664731445985 0.14792903682290018 -0.10346316459292376 -0.12124167011830939 -0.10364919397815976 -0.122170677183995 -0.07081816222449112 0.1931983637504683
1372375000.0 -0.058011281351060644 0.14689253648192716 -0.10573062166866186 -0.11930077387603706 -0.10602311571193727 -0.12013525484425559 -0.06943088882145161 0.19262121881335562
1373062000.0 -0.05770008492608017 0.1457747000165667 -0.10794918250949564 -0.11734731690214445 -0.1083792821200854 -0.11804879868762905 -0.06794198602680221 0.1920648251056478
1373750000.0 -0.05761543401734631 0.14470367523208574 -0.11009157919374944 -0.11524584952890381 -0.11068495001894917 -0.1158989773890546 -0.06656798146876312 0.19144869986936236
1374438000.0 -0.05739630770345107 0.14370956908144342 -0.11223446569274659 -0.1132491802845252 -0.11289277832897236 -0.11368054422166168 -0.06504861637465825 0.19068758919403125
1375125000.0 -0.05731577336554872 0.14266248253205585 -0.11429284808991674 -0.11105253949644844 -0.11508403630850098 -0.11140118027964634 -0.06349146165232997 0.18975270919794118
1375812000.0 -0.057229947440054295 0.1417121865907059 -0.11636999526755334 -0.10894660797437782 -0.11720668414526314 -0.10911531960013625 -0.06194512433332593 0.18883875135830777
1376500000.0 -0.057203152715278545 0.14074381993639107 -0.11836338375285763 -0.10683107536184272 -0.11928636134214332 -0.10682904924516788 -0.060311790689671 0.18790985167130708
1377188000.0 -0.057071997942374976 0.13972609775881506 -0.12044027864548043 -0.10466475590677511 -0.12127342813763717 -0.10449022480603835 -0.05861475366077756 0.18685088271653438
1377875000.0 -0.056958664225136096 0.13889132229581252 -0.12241042257377774 -0.10245639254794536 -0.12321746313679773 -0.10215393818394088 -0.05687108790986335 0.18584128848126125
1378562000.0 -0.05678668762741405 0.1379275606001465 -0.12439937569270652 -0.10013355779214735 -0.1250752642015821 -0.09981903892244505 -0.0551553116874622 0.18471665228007592
1379250000.0 -0.05670476727429401 0.13708723295292835 -0.12640233936899878 -0.09793686830592975 -0.12695140286818418 -0.09748845845002842 -0.053330315190248716 0.18338541812384362
1379938000.0 -0.0565250214908305 0.13629114005501608 -0.12834079757132602 -0.09555701569030982 -0.12876871946861945 -0.09509232628241068 -0.05141131044426826 0.1822297606264101
1380625000.0 -0.05640678705054292 0.13542927057884552 -0.13017254952048424 -0.09328934898685204 -0.13051328781519617 -0.09271225357702462 -0.04963434210174623 0.18106763901540082
1381312000.0 -0.056237556150988285 0.13455500488107566 -0.13207939520690554 -0.09074708249122217 -0.1323216305793266 -0.09035211826472941 -0.047706716115571944 0.17982681260727326
1382000000.0 -0.05606085624078401 0.1336855259964461 -0.13385522202198047 -0.08836491086472768 -0.13400729445095072 -0.08792452055702343 -0.045811343264330555 0.17859541734856058
1382688000.0 -0.055838091338471015 0.13291238509482978 -0.13575655650351626 -0.08582315122243511 -0.1357395553585676 -0.08550760923543888 -0.04389108040518144 0.17746571592080282
1383375000.0 -0.05562718722768759 0.132037686957829 -0.13744981999652858 -0.0832913231395462 -0.13735048879753758 -0.0829403748180598 -0.04196436332997158 0.17619436271255395
1384062000.0 -0.055467319780514314 0.13119462888064043 -0.1392165881074504 -0.08073287701353046 -0.13902008787082623 -0.0804987052790084 -0.04012366738343742 0.17518671920952164
1384750000.0 -0.05526208556693275 0.13033828679643342 -0.14079717453156335 -0.07802234733661738 -0.1406662687900892 -0.07787394187021612 -0.038286936776573785 0.17403731042768403
1385438000.0 -0.05507253059196781 0.12945810111966247 -0.1423902279761795 -0.07541942094836437 -0.14224213961306859 -0.0753001085829035 -0.0365492796358858 0.17285376332592645
1386125000.0 -0.05501175602439999 0.12864505720036187 -0.14394901224167797 -0.07273747766844381 -0.1438272015314946 -0.07266579152002783 -0.03488057604390679 0.17176744318817905
1386812000.0 -0.05489063022183978 0.12779642289790769 -0.14549668774459973 -0.06999521179264709 -0.1453843875070467 -0.07004182931532614 -0.03319700552691377 0.17065303934180426
1387500000.0 -0.05479181217229804 0.12700885444008875 -0.14694979810742434 -0.06729415297022255 -0.1468894436273949 -0.06725187788227485 -0.03161658990266166 0.16950356575086822
1388188000.0 -0.05470294783820461 0.12618245779910567 -0.14834082485647065 -0.06439801313907978 -0.1483458494378743 -0.064508093065538 -0.03005310174403361 0.1683879429785165
1388875000.0 -0.05459561336956188 0.1253997555896329 -0.14968796810324628 -0.061663183627420216 -0.14971619395049188 -0.06174825794832297 -0.028639765665411477 0.1672400516571433
1389562000.0 -0.054629826058322103 0.12460969127774693 -0.15092483313005975 -0.058789223163440874 -0.15101139852091428 -0.058889736718156505 -0.027267143530233566 0.1660795062800496
1390250000.0 -0.05463603749543125 0.12387495070159119 -0.15204996359468795 -0.055825570733386974 -0.15227127744372762 -0.05594746889635512 -0.025938910365878608 0.164855114596629
1390938000.0 -0.05462800917560732 0.12309887008365483 -0.15319351223789907 -0.05289353081776307 -0.1535989323155666 -0.05304282480231156 -0.02461419129116532 0.1636883189727114
1391625000.0 -0.05478397194722575 0.1224191832648881 -0.15437048523538524 -0.04997538766807269 -0.15466445693466765 -0.050060434234346286 -0.023359333402286128 0.16241437551569454
1392312000.0 -0.05481894801798902 0.12178227096592414 -0.15538784589071095 -0.0469959897640669 -0.15577122943981578 -0.047087523957711264 -0.022192987141706977 0.16104497611424504
1393000000.0 -0.05497876666964979 0.12113507889467462 -0.1564332262497715 -0.04401900917023534 -0.15678440077195505 -0.044028968307611355 -0.021048895961293612 0.1596841063701509
1393688000.0 -0.05505729959284885 0.12047604122826645 -0.1573510249008799 -0.04098458127677163 -0.15770801417897323 -0.040997119230651184 -0.020006598678445998 0.15829732156530507
1394375000.0 -0.055233085131735846 0.11981373256928059 -0.15822067302931547 -0.037984991408393724 -0.15853107609520167 -0.03794915515882315 -0.018929295997179796 0.15692323852694454
1395062000.0 -0.0553505036186799 0.11928561036578277 -0.15901829929743713 -0.03492726569669259 -0.1593455914011125 -0.03481992922728696 -0.0178782098071105 0.15540977955674204
1395750000.0 -0.055579059461931236 0.11857185773841668 -0.15972638388059973 -0.03187505688265139 -0.16008689391795516 -0.0317416432115668 -0.016900114626062487 0.15394441276148912
1396438000.0 -0.055697005518013466 0.11809730004661799 -0.16040369258966572 -0.028795890288785823 -0.16076578114036505 -0.028589365195530753 -0.015883534035654363 0.1524834838531093
1397125000.0 -0.05585906429741987 0.11749893463563973 -0.1611020891932732 -0.025735868602496572 -0.16138387593213294 -0.025475072393872557 -0.014884834146568438 0.1508931979471308
1397812000.0 -0.05603872011944328 0.11693420369095985 -0.16164129791872547 -0.022533924483930837 -0.16189921073368613 -0.022277095940337582 -0.014007943547298672 0.1492610560343174
1398500000.0 -0.05613035294887616 0.1163083929017737 -0.1622448648459084 -0.01949507925169444 -0.16235853609863074 -0.019165346607328528 -0.013088120334697084 0.14772309610806328
1399188000.0 -0.05629823532639158 0.1157686887644115 -0.16274937361240094 -0.016291341283838124 -0.16283515437877527 -0.016001735625988257 -0.012079517690783243 0.14610522327055298
1399875000.0 -0.056497765385846055 0.11516282658474246 -0.16312338055767645 -0.01318046604070005 -0.1632711562366125 -0.012869446610152501 -0.011097523594173294 0.14456970341540787
1400562000.0 -0.05649327608227444 0.11457290999131918 -0.1635869469065039 -0.009928526424527953 -0.1635514806920594 -0.009688872861098959 -0.010236099407726807 0.14284830376804628
1401250000.0 -0.05665533580334033 0.11393058051562491 -0.16381496414078164 -0.006780374827468454 -0.16378724606565637 -0.006552877010678386 -0.009355099450203028 0.14122109073246164
1401938000.0 -0.0567309543843319 0.1133143434265498 -0.1640156490853325 -0.0036661584433053357 -0.16399958651438692 -0.003308251598717085 -0.008436249649472883 0.1395355660259634
1402625000.0 -0.056829719349546594 0.1127342713696479 -0.16427277128671633 -0.00031613586537516155 -0.1641591662180838 -0.00021932547807201666 -0.0075713559942309355 0.1378774659948514
1403312000.0 -0.056934209991858324 0.11204114994292119 -0.16428030023254903 0.0029112908678936536 -0.16417055033908204 0.0030184992751643197 -0.006703237000726385 0.13620624723397315
1404000000.0 -0.05696100814379351 0.11139567381240782 -0.16434638622245837 0.006237750447658464 -0.16425025609193117 0.006201264867826909 -0.005812258687243112 0.13449808557549595
1404688000.0 -0.0570415729110445 0.11059825224807679 -0.16425277791941995 0.009508472931346 -0.16428274002068483 0.00943840888973162 -0.005051401235139362 0.1328489935996083
1405375000.0 -0.05705962397507412 0.11000618419187624 -0.164166705844775 0.012774782466447284 -0.16416757464318865 0.012658782809792707 -0.004160115137247548 0.13118034037231782
1406062000.0 -0.057157080754393644 0.10934829320942398 -0.1640349273706683 0.016065432222128456 -0.1640605810372674 0.01592473245561211 -0.003451055474870963 0.12941563129534764
1406750000.0 -0.057221595632946244 0.10866486867813023 -0.1637654898349285 0.019410921260635088 -0.16385707994227225 0.0191306987448361 -0.0027396900300425036 0.12768164615922667
1407438000.0 -0.05732484958986188 0.10801720604929738 -0.16352046067901368 0.022654924784297335 -0.1636328324037507 0.02244929949597217 -0.0020041315639301722 0.12597320004112186
1408125000.0 -0.05735775754169292 0.10737970654323303 -0.16300280720182878 0.025977608128371923 -0.1633054928358079 0.025763881731616884 -0.001468990716802701 0.12415571657872908
1408812000.0 -0.057488065552317384 0.10690161510865694 -0.16260137845676234 0.029125084177894257 -0.1629450773905223 0.029015162982798704 -0.001005823461270422 0.12248401702138491
1409500000.0 -0.057582523619121466 0.10635699604309319 -0.1620825083512448 0.03245698861352776 -0.16243558812988151 0.03232135536687922 -0.0004332097824925767 0.12073374307060829
1410188000.0 -0.057668139359820327 0.10588992598551518 -0.16149629136329782 0.03578271325785394 -0.1619362557753365 0.035598250604656 -9.427174456217918e-05 0.11894103108796314
1410875000.0 -0.05772951324617341 0.10545510321603603 -0.16089002029772437 0.03895305782842241 -0.1612836266059087 0.0389268933316573 0.00025107103447828596 0.11730763448172778
1411562000.0 -0.057790118804063415 0.10517234360988059 -0.16016382819204508 0.04206908525264187 -0.1606891671764072 0.04213748160487325 0.0005611804908152231 0.11565753614482491
1412250000.0 -0.057896946014012386 0.10487654731649103 -0.15939720728542847 0.04526929473820938 -0.1599080874537029 0.04546860058540761 0.0007905193802585894 0.11394685033559733
1412938000.0 -0.05778888710549371 0.10471539400222776 -0.15848220035219654 0.04838656150726857 -0.15904446589029508 0.0487056316210763 0.0009598830239625348 0.1123120808617895
1413625000.0 -0.05784651222616333 0.10458581127057628 -0.15759898511840872 0.051496213888772624 -0.15812918725369118 0.05192136911113484 0.001081690655705779 0.1107214832320016
1414312000.0 -0.05774158937541134 0.10457256198519957 -0.15665168301007054 0.05459823529544237 -0.1571048452627334 0.055174071391239574 0.0010619348417602213 0.1091174860472742
1415000000.0 -0.05774377695361691 0.10455196834933994 -0.15563275900105447 0.05770486027490487 -0.15603101550714624 0.05828164988188437 0.0010733281434849933 0.10764360667820527
1415688000.0 -0.05754782532801216 0.10446417779858047 -0.1545573962693444 0.06068738366693388 -0.15480170383723657 0.06141576656677583 0.0009516005741036647 0.10630441015865807
1416375000.0 -0.05734685653354297 0.10453639784967478 -0.1534044388158707 0.06369956700615696 -0.15357428707683443 0.06448447609557581 0.0007659565900099259 0.10500293794545587
1417062000.0 -0.05726697788182921 0.10457131844265755 -0.15221354347950886 0.06678051149604515 -0.15229595839403146 0.06750126635181872 0.0006041900080626132 0.10358100540778228
1417750000.0 -0.05700463374138991 0.1046089969166696 -0.1510477078503993 0.06980741410476611 -0.15093749196136594 0.07055931107279921 0.0003028699842181101 0.10229957161582452
1418438000.0 -0.056782217956005694 0.10466936433584666 -0.14976569490205033 0.07288254247530966 -0.14967138952513462 0.07353563468728368 5.780563109101011e-05 0.1010688801737099
1419125000.0 -0.05662143730500929 0.10464996865457231 -0.1484972134677278 0.07593647540096617 -0.14825692376455932 0.07645765842687728 -0.00023009114708400413 0.09986780658157901
1419812000.0 -0.056474826325472564 0.10465012996519374 -0.14715910760888795 0.07897531881542529 -0.14681361232383722 0.07944519184650033 -0.0007213244582025685 0.09877454948858418
1420500000.0 -0.0563266953652028 0.10474104787726383 -0.14570473043609555 0.0819730030231244 -0.14522896881810582 0.08236286648721414 -0.0011765337614768427 0.097611951449865
1421188000.0 -0.056184214892190075 0.10474885643997064 -0.14411615756112828 0.08500764900919414 -0.14362947673166207 0.08525508099164003 -0.0015738004592139258 0.09648070703270639
1421875000.0 -0.05614072410633022 0.10481619846192387 -0.14256771034851862 0.08806672904149646 -0.14204745485063422 0.08804336645775673 -0.0020060607608449526 0.09535299864951406
1422562000.0 -0.05615312636080539 0.10489019036055576 -0.14081106434545682 0.09099941488679429 -0.1403870206504705 0.0909108310772745 -0.002539467353120018 0.09416248582615826
1423250000.0 -0.056179053161005625 0.10496669789615166 -0.13902373291684123 0.09388369305605221 -0.1387019066521775 0.09371495669997383 -0.0030776203434963486 0.09300497250892185
1423938000.0 -0.05629853734359666 0.10524010072412014 -0.13717364975502339 0.09684318285712722 -0.13689041765620558 0.09653290771479911 -0.003576033321008702 0.09184869346059196
1424625000.0 -0.05639056782566177 0.10538600413780257 -0.13522522833876083 0.09969821505468718 -0.13494650529092475 0.09930786429112361 -0.004098816355342766 0.09064491880481552
1425312000.0 -0.05658323572874602 0.10559870001313927 -0.13319537807973306 0.10254403739954371 -0.13307557215109012 0.10211238147658483 -0.004660623725567301 0.08937335375234931
1426000000.0 -0.05675174187065189 0.10588975792971546 -0.13096897941096897 0.1052404669485713 -0.13108427457714134 0.10481800917874165 -0.0052215688958057544 0.08798052271918583
1426688000.0 -0.056986701581743654 0.10624466181973763 -0.12872085991195537 0.10791695552496602 -0.12897402276251219 0.10750684213598692 -0.0058829976971289735 0.08673780682139332
1427375000.0 -0.057093767765080065 0.10666702456018204 -0.1263964854712598 0.1103720116824401 -0.12675742282863806 0.11015565835344872 -0.00650112903691998 0.08528672607581114
1428062000.0 -0.05728187415529988 0.10707836957539699 -0.12401314387172678 0.11302411056163436 -0.12451740285104983 0.1127442151871574 -0.006957565469205808 0.08402942434885144
1428750000.0 -0.057391646965923075 0.10756206447186392 -0.12172284720090508 0.11543902780746018 -0.12216654731649912 0.11527504827894973 -0.007681017500428668 0.08275603895433285
1429438000.0 -0.057474435358619035 0.10806835094504186 -0.11914125048929838 0.11780597289639443 -0.11986147854284564 0.11783399293331918 -0.00821876929896501 0.08128160055346952
1430125000.0 -0.05741570978890328 0.1085634953760208 -0.11677622687515615 0.12018250824195476 -0.11740954946620802 0.12027386908769784 -0.009024217149431569 0.08004760156133404
1430812000.0 -0.05738631465188524 0.10903126521081255 -0.11424845276258311 0.12239200599431518 -0.11492863693628852 0.12258517402796898 -0.009559899016265725 0.07874532195968507
1431500000.0 -0.05727038599494936 0.1095401238684912 -0.11182864650496517 0.12459146183322072 -0.11240928567508376 0.12491798917823245 -0.010185080727226204 0.07757823081578709
1432188000.0 -0.05713788958643534 0.10998150635350011 -0.10925518222096435 0.1266550488381616 -0.10982016434314101 0.12714344520086385 -0.010814555066627441 0.07643985245311768
1432875000.0 -0.05693448850510382 0.11028935374761253 -0.10678586413535356 0.12867977008071033 -0.10720270909428938 0.12921675106605326 -0.01154031710809821 0.07533847310647195
1433562000.0 -0.056706717096989816 0.11066356740170401 -0.10425018900570092 0.1307020749056375 -0.1046128315356655 0.1313634186516607 -0.012207490029767029 0.07436762573830556
1434250000.0 -0.056503693108158684 0.1109566906303668 -0.10165701478260646 0.13258971691002377 -0.10191216860129812 0.13330392716620662 -0.012877193475956972 0.0736104199387563
1434938000.0 -0.056245340148740115 0.11116962250634255 -0.09920940075208609 0.1345292247643048 -0.09926890503862433 0.13529270766128126 -0.013540162288072366 0.07287255180449134
1435625000.0 -0.056097209799326204 0.11134863329975354 -0.09661725415738985 0.13640987722263928 -0.09652772835383686 0.13721480255796598 -0.014248210360423097 0.07228451958360145
1436312000.0 -0.05587820017010293 0.11154093749600143 -0.0940304202289733 0.1382312882552149 -0.09379483198414952 0.13895188070026632 -0.015037023797130612 0.07177734685243126
1437000000.0 -0.055732382418319314 0.11171236609476012 -0.09144462594779947 0.14014445843580775 -0.09101619012354605 0.14081435794348018 -0.015681895650049484 0.07143498438887741
1437688000.0 -0.055507822678059794 0.11186468895838861 -0.08875220296713004 0.14200234321583444 -0.08827076440372975 0.14264678489483215 -0.016491509932774977 0.07113341791944018
1438375000.0 -0.05543903947858943 0.11202085051868788 -0.08594617344059391 0.1438342240777194 -0.0854070014279463 0.1442765090523987 -0.01722503565434175 0.07107068034892688
1439062000.0 -0.05521779754927306 0.11223081780033231 -0.08319681658653433 0.14549543330473882 -0.08257590839004766 0.1459785816789537 -0.018042546404702448 0.07091281497819402
1439750000.0 -0.05522121011310823 0.11253078852631675 -0.08032099139129761 0.14726952238680513 -0.07974763239042029 0.14751101075759893 -0.018854622497681533 0.07085160289355684
1440438000.0 -0.05505292389787374 0.11284063801311332 -0.07743487436400312 0.1489531876863247 -0.07680612143101805 0.14912676452401613 -0.01975585167961047 0.07083250106635532
1441125000.0 -0.0548967712531645 0.11319833988349329 -0.07447997781671846 0.15056492017145456 -0.07394681452173343 0.15064587604140717 -0.020599634507000888 0.0708810322350738
1441812000.0 -0.054814010328265654 0.11358004692246941 -0.0714417428658464 0.1521037907135506 -0.07096476530026241 0.1521292543431271 -0.021512447857350063 0.07088251184145065
1442500000.0 -0.05461674101462131 0.11412742742719516 -0.06829343035150627 0.1535725838393933 -0.06795853588683003 0.15353537975909218 -0.022425996537967233 0.07078153096051683
1443188000.0 -0.054269226048170055 0.11468658342538414 -0.06514445759717014 0.1550440895140677 -0.06491580874878146 0.1548826622674616 -0.023422074495598296 0.07069807263624528
1443875000.0 -0.05392884422441719 0.11523124741740694 -0.06198897699951119 0.15634230705739216 -0.06190001364181635 0.1562197050784282 -0.024332869483964306 0.07064218591941845
1444562000.0 -0.05362564546550913 0.11576446992877604 -0.0588260972977673 0.15765783907214156 -0.05874090811591035 0.157462765892992 -0.02529150244508051 0.07046046806772036
1445250000.0 -0.05313374002268088 0.11631348433034427 -0.055624276526745446 0.15875444829236646 -0.055599056036693704 0.1585976488016145 -0.026219765744096894 0.07015461618651338
1445938000.0 -0.05262234606856198 0.11695896612293302 -0.05234180570570196 0.15985136632736707 -0.052445083723403535 0.15971992483138675 -0.027246818477049094 0.06969866251379359
1446625000.0 -0.05207512916937188 0.11749722291855108 -0.04904408699914969 0.160842074021031 -0.04934813911857683 0.16076899440102554 -0.02820068644854773 0.06928173265447415
1447312000.0 -0.051572171198023965 0.11800032993203169 -0.045883276378018575 0.16176492790259056 -0.04610403853098631 0.16169435274116584 -0.029169907424432612 0.0688083471731914
1448000000.0 -0.050921211995966935 0.11844272979874215 -0.04262058820628982 0.16259862819814805 -0.042851712189549994 0.16265075650438013 -0.030124599475968645 0.06820946344343072
1448688000.0 -0.05028291581627565 0.11882662787991907 -0.03928708054628284 0.16340435190006516 -0.0395633046694663 0.16348390487333084 -0.030952148506659477 0.06755516172314496
1449375000.0 -0.0497484415172881 0.11921944682696624 -0.03613682276555511 0.1639719907621262 -0.03630591318764623 0.16418362462800104 -0.031811034245434515 0.0669470852214049
1450062000.0 -0.04917111487957466 0.11949677068438495 -0.03298952578352511 0.16458609615329808 -0.03310484319318588 0.16486001762459337 -0.03265375705723857 0.06627183876772207
1450750000.0 -0.048629486603496405 0.11974402409001296 -0.02968769078696457 0.16512285012483682 -0.029826922765423387 0.16550837404486635 -0.0334162513205631 0.06556918235606814
1451438000.0 -0.04807804489315964 0.12004729079635906 -0.026553202753910425 0.1656170985632108 -0.02655789631789707 0.1660222390289938 -0.034104098481375834 0.06488105779423638
1452125000.0 -0.047625012159494086 0.12013485272584094 -0.023259482560044238 0.16603769852435188 -0.023265318066522225 0.16651234990260186 -0.0347439459592066 0.06430230435230043
1452812000.0 -0.04725485427743638 0.12035617358359438 -0.02012604322957552 0.16648330112820683 -0.019987417091284855 0.1669021459956155 -0.035320837610569186 0.06379289856257885
1453500000.0 -0.046897581311091896 0.12054138882046364 -0.016841018268116858 0.1667558333687593 -0.016668569797651005 0.1672408881611278 -0.03578945630477348 0.06334279833694784
1454188000.0 -0.046522114243744146 0.12079151049366939 -0.013642972237688383 0.16706592625360023 -0.013410545408642876 0.1675493299081824 -0.036232442469583674 0.06303935163390115
1454875000.0 -0.046250773914191856 0.12094653960290015 -0.010477796056821293 0.16734473382170115 -0.010126764822173286 0.1677561409517916 -0.036667669440210174 0.062861963335374
1455562000.0 -0.04591799085234473 0.12119177986116812 -0.0071418604828724945 0.16749157007458434 -0.006855297835196979 0.16791487241045985 -0.037054481553922936 0.06277430953736834
1456250000.0 -0.04565515308293351 0.12150599566143516 -0.003911167144779665 0.16771726205553364 -0.003600162499630464 0.16795196036902493 -0.03739033298575242 0.06281216835272559
1456938000.0 -0.045431468971675944 0.12172498161367366 -0.0006188921769457849 0.1679340353361671 -0.00034871925245705585 0.16807373745557944 -0.037741839149793704 0.06295650048706813
1457625000.0 -0.04515610777693097 0.12194856155503522 0.00265649973740316 0.16796543698170427 0.002896434452251135 0.16808121297427248 -0.03800312002126828 0.06327356653048628
1458312000.0 -0.04481879580645622 0.12222420047270054 0.0059047753734759205 0.16808832281068822 0.006156598152683384 0.16809439529415382 -0.03839381297882518 0.06369774596813452
1459000000.0 -0.04442319374635566 0.12252604926522354 0.009301775376437983 0.16803859341614372 0.009417895915050267 0.1679767081749862 -0.03875524287201803 0.06415682891806393
1459688000.0 -0.04402273252961186 0.12265209049571106 0.012671274965945185 0.16782985885125967 0.0126592870306565 0.1678244829758068 -0.03912608175714174 0.06475136931477471
1460375000.0 -0.04356787651840383 0.12287501654700594 0.015921223470483272 0.16751633837364635 0.01594328353761558 0.16759559262735282 -0.039480100044519746 0.06528864782344593
1461062000.0 -0.043030593830422695 0.12296283374798717 0.01925827515093557 0.16723953673485348 0.019196256442442446 0.167294090141962 -0.04003030211245234 0.06584971153606752
1461750000.0 -0.04247730847939391 0.12302296147208197 0.022607228094526387 0.16681089755894488 0.022499589031316006 0.1669270907458938 -0.040549873338517756 0.06659402505670112
1462438000.0 -0.04196746505109019 0.12294841878122137 0.02584813720050728 0.16633225142728686 0.02578496842937268 0.16645983301994757 -0.04111535236688539 0.06709580309283629
1463125000.0 -0.04133784030995549 0.12290125187206144 0.029093590406020196 0.16571470431560004 0.02907472400695264 0.16596521777382536 -0.04171190183339871 0.06771302953014606
1463812000.0 -0.040814655412584076 0.1226749729732195 0.032378454999324194 0.16508927697689788 0.03237192532521843 0.1654384795193973 -0.042448899854364376 0.06815021050029166
1464500000.0 -0.04021103000098274 0.12242546016755439 0.035493443778320914 0.16437620879916182 0.0356328811769737 0.16477334145191547 -0.0430455174851316 0.06856432986040933
1465188000.0 -0.03965963589528221 0.12207489510448055 0.03870285936529136 0.16360959763624147 0.038881692553126186 0.16406473957551712 -0.04380310496994891 0.06890062819664139
1465875000.0 -0.03917904305397483 0.12166192356616097 0.04186539888509487 0.1628268076950361 0.042109231500384675 0.16328059627906255 -0.04450463441643136 0.06921144119401841
1466562000.0 -0.038723234655522555 0.12128542421632245 0.045019077543632866 0.1620105061215611 0.045337220260615284 0.16242219325334617 -0.04532969271076493 0.0693002497448132
1467250000.0 -0.03834119903982904 0.1207754262533722 0.04807856814034819 0.16108941897479084 0.04849982003914087 0.1614941341894627 -0.04607741663166122 0.06927314224851812
1467938000.0 -0.03789525113116471 0.12029646386831995 0.05124070188989894 0.1601836464131419 0.051713663764132764 0.16058108460060913 -0.04682593977377202 0.06931086002786131
1468625000.0 -0.03744947632290651 0.11971450711041945 0.0543551248362191 0.15913078782458467 0.05489645352383773 0.1594915428177978 -0.04745284651817202 0.06920188742725142
1469312000.0 -0.03723098300339537 0.1191691401979952 0.05749284222404441 0.1582118552931723 0.05812892325080721 0.1584178414402417 -0.047999886153721576 0.06907320196684934
1470000000.0 -0.03689775406718866 0.1185560935889127 0.06055901405226162 0.1570097516006829 0.06118197988947484 0.15723747143723232 -0.048648755421368615 0.06882177326407952
1470688000.0 -0.036743319120841146 0.1180785831432664 0.06361733232520672 0.15608596542209713 0.06426397484619821 0.1560423504390088 -0.0490111170160395 0.06850097455820135
1471375000.0 -0.03642934370457953 0.11756070730580605 0.06676291985862272 0.1548823733954225 0.0672349904302701 0.1547112099397038 -0.04945483708807473 0.06819194119024634
1472062000.0 -0.036270670095778716 0.11703633845005651 0.06978267419264327 0.1536425743431839 0.07025244251326705 0.15337641901097496 -0.04962021013081016 0.0677980368229721
1472750000.0 -0.03600365864907828 0.11661228716233046 0.07284997484950813 0.1524261623462502 0.07322020137192378 0.1520743301945837 -0.04975003534878924 0.06757142797028329
1473438000.0 -0.0357876910968291 0.11615266870346577 0.07588200088146717 0.15097724290525258 0.07622665795600683 0.1505925679964783 -0.049778965444126105 0.06736821997002063
1474125000.0 -0.035534382070268614 0.11569226160092852 0.07891700795218369 0.14948767394545504 0.07906348322705968 0.14904847351831876 -0.049565891774689216 0.06710952192995978
1474812000.0 -0.03519055678109126 0.11530831877333965 0.08183467311454441 0.14802261292262364 0.08200974226996131 0.14756700085639388 -0.04958390591453506 0.06703563854917204
1475500000.0 -0.034946065794458366 0.11476438600677055 0.08487295248011668 0.14647441645821568 0.08488100031393997 0.14600558460011834 -0.049233163638311074 0.06702208759248082
1476188000.0 -0.034562370614310445 0.11427232883185422 0.08776535362602204 0.14485475253131835 0.08783167500888626 0.1444154991499782 -0.048909773643176016 0.06705046842458656
1476875000.0 -0.03428692982230087 0.11374704790401755 0.09079356862007164 0.1430749209420544 0.0906581438646864 0.14275067280323805 -0.04848124934425359 0.06726485516536233
1477562000.0 -0.03395773726003583 0.11319553807424308 0.09363843810090533 0.14127727092497003 0.09344317456778624 0.1411413736277498 -0.04814867879246855 0.06740238501754726
1478250000.0 -0.03354916595552576 0.11263112466582255 0.09646657106552495 0.13939984634295785 0.09627722092477631 0.13936055083714644 -0.04768609532826301 0.0678063188050923
1478938000.0 -0.03332395219687052 0.11203323382863149 0.09921312622947431 0.13753689289386362 0.09897910897406001 0.13755314185544626 -0.04741262088018218 0.06822474241221152
1479625000.0 -0.03310755147179479 0.11129815538152393 0.1019478554139457 0.13555889631560145 0.10175956424312603 0.13563353150131938 -0.04707483498869161 0.06867725701767172
1480312000.0 -0.032847515283892396 0.11060600663935241 0.10461358837235364 0.13348186808044446 0.10438406337752153 0.13370567803091518 -0.04674358522695763 0.06922973819665751
1481000000.0 -0.03270878888964662 0.10986888152262997 0.10721200704034624 0.13131336547080608 0.10702965936795132 0.13168340422464653 -0.046391683721978376 0.06971768419869177
1481688000.0 -0.03246658233017996 0.10908432970121501 0.10976985790885413 0.1292033859018312 0.10966306634797471 0.1295996355804482 -0.04619283554384644 0.07026412351421811
1482375000.0 -0.03235541225379071 0.10841314150624996 0.1123359914170045 0.1269716695306726 0.11222282520733534 0.12746954067585928 -0.045979548051731794 0.07093480383965085
1483062000.0 -0.03226302164949935 0.10761301455292269 0.11482225236142007 0.12475754190527558 0.11477930329086583 0.12526482790803584 -0.04593805657305101 0.07143462501178145
1483750000.0 -0.03210548646450127 0.10676266028225977 0.11722997720622093 0.122452815903956 0.11725889001547547 0.12300902697194585 -0.045898037450208914 0.07192125851523334
1484438000.0 -0.03201997078840595 0.10599499162757618 0.11959773634828694 0.12022311277497996 0.11968596179683247 0.12072439879695748 -0.04586800022329422 0.07241182948583365
1485125000.0 -0.032031680650385676 0.10527818135094114 0.12178045840232721 0.11780835530218722 0.12205926068874615 0.11834137509118309 -0.04610814831547616 0.07267659027368739
1485812000.0 -0.03196423362480221 0.10450159941249446 0.12407979771790252 0.11549603852859662 0.12437170622017663 0.11589714816264671 -0.046176449584997226 0.072986627325079
1486500000.0 -0.032086788026138104 0.10376711978819206 0.12627355976847218 0.11306123948966586 0.12669821184416394 0.11347782180222639 -0.04632326255063334 0.07306804386151965
1487188000.0 -0.032027338888265665 0.10293556113557749 0.1285213129977694 0.11058482884080463 0.12891022970089747 0.11092464712504475 -0.0464267904168356 0.07321666637192834
1487875000.0 -0.03208578807203925 0.10227388645458015 0.1305549571974016 0.10811822591339468 0.1311662966447714 0.10840898420807733 -0.04677808006174416 0.07311451224240567
1488562000.0 -0.03202176996579921 0.10158658701676761 0.13273392979603818 0.10560545927733893 0.1332944029172611 0.1058690096195886 -0.046880044873080146 0.07287262728214638
1489250000.0 -0.03200698288277693 0.10075146763057423 0.13465286540259175 0.10315400675130917 0.13535299268594853 0.10318816334695269 -0.046949598245613906 0.07263235315641532
1489938000.0 -0.03201350555246612 0.1000647460867411 0.13677479727186642 0.10053013632206595 0.137486494065511 0.1006002491624883 -0.04706901727199423 0.07218697244111978
1490625000.0 -0.031939781214974025 0.09936131477105085 0.13865231811385095 0.09795563814392771 0.13944475667133419 0.09790575914943156 -0.04705086650353252 0.07177517965306426
1491312000.0 -0.031887310279730914 0.09863614104219641 0.1406872159056949 0.09531726525321065 0.1414193448614346 0.09517716530255026 -0.04692876276707906 0.07126426382513547
1492000000.0 -0.03178417177755121 0.09800764315438569 0.14256364005686079 0.09267098118714995 0.14320283523777944 0.09239209063086147 -0.04699076174049031 0.07053299759465749
1492688000.0 -0.031698818831583195 0.09728818583282145 0.14437151340001497 0.08991821433230918 0.14502986102489304 0.08970719928855105 -0.0466924394174058 0.06997572481634061
1493375000.0 -0.0315442346871129 0.09661802116703347 0.14626862610539407 0.08716326645178123 0.14684159070580532 0.08688695121162597 -0.046419193190385975 0.0693039612814552
1494062000.0 -0.03140828426079089 0.09584980602085537 0.14806386126486354 0.0844136159523818 0.14854421044056274 0.08399153899954025 -0.04617335131162528 0.06869509249162455
1494750000.0 -0.03125312249294959 0.09516785679511403 0.149758153484057 0.08156431353476973 0.15018559446757732 0.08108933167370068 -0.04560441306733811 0.06797687459263686
1495438000.0 -0.0310509112304661 0.09456928128507379 0.15149140449560433 0.07862137939535865 0.15184118471901356 0.07814891614360911 -0.0452321528454154 0.06740473278888415
1496125000.0 -0.030872678065461026 0.09381201511409097 0.15319808399525608 0.07571262212188615 0.1533580315305537 0.0751820921401232 -0.04483264142968607 0.06674674871311746
1496812000.0 -0.030690024386298274 0.09311128704293846 0.1548149428577148 0.07280981151570619 0.15497964709935289 0.07222518088579326 -0.044218053220770465 0.06624282711137192
1497500000.0 -0.030456547451895757 0.09247303469828112 0.15634844207373588 0.06975109959290934 0.15638261134354947 0.06918664589548064 -0.04372811628631962 0.06574768042080786
1498188000.0 -0.03033325069208802 0.0917408536006133 0.15794037389860177 0.06671050108686419 0.15785067608272196 0.06615084983751415 -0.043230356451682404 0.06522521097035605
1498875000.0 -0.030124961875495952 0.09105672134701208 0.15934080306576046 0.06355835106415518 0.15916369582660456 0.06308877246626832 -0.04257531230976861 0.0649676979862059
1499562000.0 -0.029911054932201375 0.09029624923485563 0.16079623879624444 0.0604779466416782 0.1605326267790898 0.05998003131334418 -0.042173518618520055 0.06476255354389525
1500250000.0 -0.029762309620045956 0.0896490532452733 0.16211887133633232 0.05722991522581568 0.16181701677474472 0.056901824083232265 -0.041700736379468695 0.06444800861918616
1500938000.0 -0.029630524067410867 0.08898418367249783 0.16344272229840823 0.0541078000579735 0.16305919241236153 0.05379641780349171 -0.041425755045252415 0.06421647875637133
1501625000.0 -0.029505604383434938 0.08830674746350398 0.1645777444469248 0.05071915501481978 0.16426647250916498 0.05068519479372472 -0.04098949954824877 0.06412063998466115
1502312000.0 -0.02932897496496604 0.08774473606229624 0.165674477085806 0.047448066862460565 0.16537856665258693 0.047450121294481416 -0.040805946706992766 0.0639981663342446
1503000000.0 -0.029274443350196615 0.08706844144583528 0.1667325676874659 0.04409941963374931 0.1664461819392139 0.044203549087327675 -0.040613362200910656 0.06384049381042321
1503688000.0 -0.02926960262578479 0.08647295863780632 0.1676319634945366 0.04079323015226693 0.16737419516029364 0.04100979173088978 -0.0405656067915559 0.0636621475177475
1504375000.0 -0.02923437677612104 0.08591045239083424 0.1685629123513153 0.03740210731482212 0.1684157869742698 0.0377295824069389 -0.040401161967029045 0.06356074605576877
1505062000.0 -0.02916169461767378 0.08533039198802204 0.16931213647313872 0.033882629204655845 0.16926879717165308 0.034423219298062344 -0.04040519599292291 0.06328456975183644
1505750000.0 -0.029182301537918336 0.08487306495178483 0.17010489586393748 0.030560644465159135 0.17014822168814006 0.03109281999648782 -0.040626704997385694 0.06310030217054031
1506438000.0 -0.029089292580236452 0.08435985945772018 0.17062536620384852 0.02707180992540074 0.17077083005313673 0.02753608265099991 -0.04055787896234934 0.06289869056747563
1507125000.0 -0.029047501798963992 0.08397506012147785 0.17118322876454858 0.023554814986852184 0.1714695808909991 0.024053475676227832 -0.04064578152514779 0.06243212003479676
1507812000.0 -0.02906092024436259 0.08346834257536313 0.17168211819921175 0.020097134382117274 0.17197773960769588 0.02059392184942495 -0.04082085449013461 0.06188533566999314
1508500000.0 -0.028983380874371082 0.0830161007677229 0.17194260294031724 0.01659496092266491 0.1724280229664796 0.017027001480166903 -0.04092349575429838 0.061378138352084825
1509188000.0 -0.028920671354172017 0.08259321321165518 0.17224139742562372 0.013104815849707635 0.17273513091973886 0.013495922946218923 -0.04109080160685173 0.06078991434140966
1509875000.0 -0.028843590935485972 0.08212068373203092 0.17244497933051878 0.009693442243975331 0.17306967528487074 0.009881764905710442 -0.041405297606181966 0.05998902274783042
1510562000.0 -0.028710338901705035 0.08169101884655293 0.17261011200443288 0.0062869271962444455 0.17326961685883535 0.006321831485521633 -0.04139285681613417 0.05935215521707483
1511250000.0 -0.02856303154090745 0.08115477504867018 0.17260179845232287 0.0028321162142895947 0.17342244306390822 0.002804924667966086 -0.04147995615409813 0.05839398454080533
1511938000.0 -0.028419978780690903 0.08070018233953911 0.17265642007673523 -0.00043721037765635573 0.17343662778070817 -0.0007298759350502123 -0.041610392999304406 0.05751305223189892
1512625000.0 -0.02818755652700937 0.08015566428697106 0.1726114246041002 -0.00394319443126649 0.17336504128202326 -0.004303703526628693 -0.04170210923117609 0.05656193326575935
1513312000.0 -0.02808904773032645 0.07948737208208198 0.17256429314970415 -0.007174336313060817 0.17326417967529387 -0.007821497964897653 -0.041756921176722576 0.05546000064804996
1514000000.0 -0.027903408424941555 0.07883754437874278 0.17239324109386006 -0.010633560382202423 0.17302863048972003 -0.011277580294213538 -0.041814460446623285 0.05453598800010587
1514688000.0 -0.027773889351001408 0.07806690833403786 0.17229271231711174 -0.01398504203650461 0.17271626672018536 -0.014688724962379489 -0.04183800040420668 0.053331416148021525
1515375000.0 -0.027663003818963593 0.07739035511214772 0.17201782110733588 -0.01737138566170103 0.1723368905771422 -0.01809989579927476 -0.04181599442720753 0.05237893451398086
1516062000.0 -0.02755581984798302 0.07660542486147805 0.17181487230680995 -0.020769325981159804 0.17204740469115662 -0.02153816924537802 -0.041929395633235306 0.0513608727232742
1516750000.0 -0.02745873561437114 0.07583407087666208 0.17143562825792416 -0.024217027631433304 0.1716500916833208 -0.024910936150606536 -0.042034266141447216 0.050208241223282324
1517438000.0 -0.02747640914154109 0.07495001033794113 0.17103108340466847 -0.027533494912422636 0.1710930284355408 -0.028346026912917724 -0.04210101970226464 0.04924242850278206
1518125000.0 -0.027539482942962885 0.07421101445248328 0.17054533005777928 -0.03112601575293197 0.17056030304942651 -0.03171464871962931 -0.04218708722769425 0.048288800375958604
1518812000.0 -0.027573323605618642 0.07342338102483276 0.17006280103253713 -0.03465447790556971 0.16985697181432163 -0.03503799744830625 -0.042388350760071296 0.047428368999076424
1519500000.0 -0.027666986585148996 0.07268184460246599 0.169466851953837 -0.038142807425922035 0.16919381676356923 -0.03847290544820972 -0.042708475053693976 0.046670472915578444
1520188000.0 -0.027798076423072124 0.07191260869300306 0.16878491226936737 -0.04165299935461824 0.1685284188074762 -0.041857284592912714 -0.04291568563656802 0.04588844341755447
1520875000.0 -0.027940528781519383 0.07117212024658748 0.16795767445804247 -0.04508801052391247 0.16770239704722997 -0.045209802965147455 -0.04327363357034479 0.04505620574868705
1521562000.0 -0.028030430746378836 0.07063710170409251 0.1670492703406158 -0.04853232482466546 0.1668220849922788 -0.048606103730142014 -0.043698495306289095 0.04445505004570017
1522250000.0 -0.02815658765287354 0.06992764146095168 0.16612023809996251 -0.052023097083824674 0.16593324742030377 -0.052001156911239 -0.04417357956957004 0.04381759870088535
1522938000.0 -0.028230850729103172 0.06945557388413132 0.16512899179790996 -0.055408384542775975 0.16495921151102905 -0.0554108556938753 -0.04476114932833152 0.04321242822042094
1523625000.0 -0.028291253848316718 0.06904176728546622 0.1639894738069766 -0.058785645548855146 0.16390017483868322 -0.05880212473109011 -0.0452533022597471 0.04259156747182746
1524312000.0 -0.028242687669258824 0.0685876849083934 0.16272535481786274 -0.06216757963959063 0.16278511075611932 -0.062208853252997534 -0.04586319313809756 0.04211554583334765
1525000000.0 -0.028230672005614247 0.0681451180471568 0.16147084399838954 -0.06544517685004889 0.16152466407089439 -0.06552074931671463 -0.04648941501970809 0.04163161266498243
1525688000.0 -0.028232442460609918 0.06774470019587174 0.1600858011187137 -0.06872042787545243 0.1601871595302282 -0.0688020121532401 -0.04713074854460715 0.04114929976973493
1526375000.0 -0.028075574663014927 0.06743274170568761 0.15854305350433234 -0.07187122322304688 0.15885903449338062 -0.07212163021159974 -0.04769886215497594 0.040641333674279356
1527062000.0 -0.027933245406707545 0.06696104985810555 0.15699920301413356 -0.0751366834541365 0.1573192410940583 -0.07535152806574119 -0.0483273500661716 0.040190434317724795
1527750000.0 -0.02781878568542111 0.0666313795264857 0.15548449062779746 -0.07821931538501152 0.15572550205553734 -0.07850135407803369 -0.048928650893375406 0.03972161971054439
1528438000.0 -0.027562232410086443 0.06608099211805987 0.15379094085656864 -0.08135538894468569 0.15405943099327668 -0.08165067855548479 -0.0496384717397585 0.03913340612427654
1529125000.0 -0.02742636398739033 0.06574396211106659 0.15222346549025156 -0.08435443194336528 0.15242947484067199 -0.08478058198863343 -0.0501862766376732 0.038552485326200085
1529812000.0 -0.02731941316998546 0.06512409957746453 0.15050107495228465 -0.08728346105823358 0.15060629303502318 -0.08773593257503241 -0.05077542477377342 0.038065042001033
1530500000.0 -0.027188279758549545 0.06473759379212644 0.14870330802491394 -0.09034593939387711 0.14871267741011449 -0.09075888590273974 -0.051357168065497234 0.03747899564537363
1531188000.0 -0.02710472105431893 0.06418865311819555 0.14687017185397583 -0.09328462586662171 0.14686297198223316 -0.09362997284593597 -0.05196109773965809 0.03690359409179713
1531875000.0 -0.027142160351883257 0.06367207605570972 0.14502622158221254 -0.09619265438282286 0.1448794685658302 -0.09649969378761021 -0.052543680505077676 0.03623929472436758
1532562000.0 -0.02718419913982648 0.06316151993118303 0.14310514391975682 -0.0990539448742443 0.14296257342549012 -0.09930282641677195 -0.05319345598435761 0.035552132302783576
1533250000.0 -0.027268606968870953 0.06259975803396513 0.14107582424595105 -0.10188249544777175 0.1409255884919922 -0.1020390920467615 -0.05382363401862316 0.03487593605555279
1533938000.0 -0.02750002533031203 0.06216682102784439 0.13912593043463078 -0.10469003568089444 0.13895317050478215 -0.10475102914677195 -0.054547379879049285 0.03418354559814037
1534625000.0 -0.02782909093798267 0.061702819999314006 0.13702169205462167 -0.10748035535857296 0.13684951382660138 -0.10743783119851216 -0.055266199207314244 0.033465357482466075
1535312000.0 -0.028177707383971448 0.06130015494254671 0.1348460710778611 -0.11023230622562685 0.1348054818952887 -0.11016316804721529 -0.05605004225179997 0.03280797061014853
1536000000.0 -0.0286165320853733 0.06087033738322546 0.13272126426447828 -0.11297398775563723 0.13274017497533802 -0.112838482270624 -0.0569816934247476 0.03207452516401828
1536688000.0 -0.02903425248592442 0.060529929525838314 0.13038943729092264 -0.11551853590172172 0.13051511370879007 -0.11543838964431344 -0.05786281623791644 0.03147793838323775
1537375000.0 -0.02951640252970697 0.06023728452764107 0.1281099264520816 -0.11819800455884602 0.12829801529315868 -0.1180124480796837 -0.058949283709024976 0.03084351797573425
1538062000.0 -0.030055847676445726 0.05995255157516117 0.12570423266264744 -0.12068946735250213 0.12601656525525468 -0.12061926745925731 -0.06006937755339421 0.030204887937593308
1538750000.0 -0.03058386896548364 0.059782989874943716 0.12331267489119065 -0.12314212781182184 0.12365307215756816 -0.12313787983907157 -0.061200102470991655 0.02973226034276663
1539438000.0 -0.03109799674017747 0.05949649904015552 0.12084457344641378 -0.1255076251641992 0.12131104729925676 -0.12563450599889217 -0.062443393258438104 0.029262430614133677
1540125000.0 -0.03160321160192701 0.05931569797952543 0.11830983796812168 -0.1278772283275423 0.11888677097991948 -0.12808350235233693 -0.06371250917201943 0.0288623963807794
1540812000.0 -0.032072150901158024 0.05908047957673434 0.11573373599826056 -0.13017547826129988 0.11631192085096642 -0.1305502004535415 -0.06506942979583889 0.028483300440648014
1541500000.0 -0.03260523102189166 0.058777706927534604 0.11319999627256028 -0.13241969858616642 0.11372689793838694 -0.132928177656856 -0.0664364926877563 0.02816893439559569
1542188000.0 -0.033106441322999176 0.058395851714553755 0.11051866977888579 -0.13461802848648347 0.11112175828756639 -0.13535113199031895 -0.06786314892479313 0.027905230219582775
1542875000.0 -0.033618489208852576 0.05799325118181778 0.10781820597626302 -0.1368093516438115 0.10838709227546915 -0.13758964899574924 -0.06915324989777955 0.027687678210690406
1543562000.0 -0.0342251666528783 0.057525176602529385 0.10517300347169721 -0.13891070795336435 0.10561797027768746 -0.1398500293072327 -0.07051771033803109 0.027452260615079462
1544250000.0 -0.0348442212163563 0.057008209068277964 0.10252365276306545 -0.14097519205992737 0.10272804948159198 -0.14196405985045293 -0.0718515137425748 0.02728619094435971
1544938000.0 -0.03545597236424558 0.056441011481804144 0.09977025789667049 -0.14299177362978452 0.09982706039393736 -0.1440464698785596 -0.07321928076037651 0.027180039496953606
1545625000.0 -0.03618391761557715 0.055826698456135165 0.09709347495898314 -0.14495774641186235 0.09683360802616821 -0.14613232405142682 -0.07441964835436023 0.027055178022425817
1546312000.0 -0.037038941361634985 0.055196379747271124 0.09426535337666281 -0.14706294297519193 0.09384490717249117 -0.1480646665744705 -0.075613165063261 0.02702175069018261
1547000000.0 -0.037934997444359 0.054554760561240916 0.09149272519697986 -0.14907637154248862 0.09084067547524784 -0.14992706723907157 -0.07670888207483857 0.027019092026498114
1547688000.0 -0.03889002165081713 0.05395704351042047 0.08850537863772899 -0.15092085529303775 0.08775537978388814 -0.15168725269591302 -0.07775422094779282 0.026839180234616313
1548375000.0 -0.03996911902371933 0.05328626529682994 0.08562419455297476 -0.1528708922818746 0.08468873336067138 -0.15345366600368715 -0.07878366900979306 0.02692107216867685
1549062000.0 -0.04109339778896405 0.05274876600785905 0.08255174322889615 -0.1547640446317737 0.08156745645800606 -0.15511413632841686 -0.07974998496028277 0.026911846149760582
1549750000.0 -0.042280133044602757 0.05226239121113966 0.07945345444652539 -0.15655144750212177 0.07846534195109665 -0.15671954584499795 -0.0806799733726183 0.026938939478771403
1550438000.0 -0.04343162552568199 0.05182531396076834 0.07629541790912078 -0.15818831989597756 0.07531528540521627 -0.15827238584416572 -0.08149059577407276 0.027035757482018172
1551125000.0 -0.044683409370782794 0.05146346262137836 0.07314073836567925 -0.15993448246770484 0.07214702391693796 -0.15974722356756466 -0.08241021323435958 0.027262287218910865
1551812000.0 -0.04592513540412447 0.05127366704147011 0.06976779170410174 -0.16162105315959724 0.06892040645836273 -0.16115050895035324 -0.08337740035899387 0.027307821160113977
1552500000.0 -0.04708626854881823 0.05105936647426499 0.06632818362385695 -0.1630978502411627 0.06573123949276057 -0.16255276738578456 -0.0842894890962292 0.027625097925413348
1553188000.0 -0.048211343876926625 0.050906652548366085 0.06284881680123869 -0.16452488954924632 0.0625261007688662 -0.16393021892154486 -0.08521639243536148 0.027824141922095803
1553875000.0 -0.04932070116634895 0.050933237971887445 0.0593352127519703 -0.16581548446549615 0.05921743470406704 -0.165219957934581 -0.08639760518065097 0.028107309962238525
1554562000.0 -0.050314935458773316 0.05083509468093319 0.055774386218592785 -0.16717348456766826 0.0558749639895922 -0.16644195000964623 -0.08745647608896402 0.02851070454886997
1555250000.0 -0.05139875713573751 0.05085388153836592 0.05218425549446641 -0.16826433173017644 0.05254783905339116 -0.1676507357036873 -0.08858297845980374 0.02872994133434962
1555938000.0 -0.05229748962984737 0.05080872998022924 0.04854979662296412 -0.1693472294821282 0.04906672979569383 -0.16880093540226088 -0.08983844097591831 0.029256934796480994
1556625000.0 -0.05317810633823393 0.05089600322705476 0.044848960300655334 -0.17010869739069234 0.0456530982057692 -0.1697959708306424 -0.09117926223821105 0.0297960108107064
1557312000.0 -0.05401720346593232 0.050803545175848404 0.04135759166779795 -0.17089676972534137 0.04215192958233463 -0.1707462328733363 -0.09263653540991629 0.03027196252023502
1558000000.0 -0.054887687446983975 0.050740511823017004 0.037733388690294564 -0.17157954934791372 0.03861702407484861 -0.17163991429707048 -0.09415338861119471 0.03075097557475011
1558688000.0 -0.05579450441928961 0.05071888208019383 0.034268968964243064 -0.17219833532405301 0.03502640774217004 -0.17239207584498964 -0.09580580799704108 0.03142712525792354
1559375000.0 -0.05674880146132597 0.05060752698966013 0.030612816708237123 -0.17268148446579898 0.0314304279766028 -0.17314134776216455 -0.0974221842836493 0.03201443717560466
1560062000.0 -0.0576493174745076 0.05046248746933039 0.027100420211259857 -0.17308197702217168 0.027755068460925687 -0.17372422427818945 -0.09912249570772738 0.03260123078545409
1560750000.0 -0.058712239081239986 0.050435537177299525 0.0235860948292908 -0.17337346004796728 0.024090836979504274 -0.174211583763903 -0.10090586063820327 0.033273568404076956
1561438000.0 -0.05984590155059763 0.05038850464932829 0.020023893124891827 -0.17374771866531466 0.020372662090210554 -0.17468051588357283 -0.10259355386416813 0.033952889343505384
1562125000.0 -0.06097165030133571 0.05037729782682875 0.016628568258044332 -0.17384315510257822 0.016757834720802108 -0.17496752650359948 -0.1043126461921316 0.03457565147465035
1562812000.0 -0.062185003711795354 0.050472851375617925 0.013231316002664282 -0.1741541604211977 0.013067301088624911 -0.1751822076104057 -0.10602322668979036 0.03524883693434931
1563500000.0 -0.06345939543774877 0.050492037243944785 0.009809368599223106 -0.17417648295690413 0.009475330692880734 -0.17528321709761382 -0.1076842225004666 0.03576499150263255
1564188000.0 -0.06482610189081843 0.05072908114473062 0.006369011473723499 -0.17433323014988342 0.005880072520580953 -0.1752956885272331 -0.10925106656122868 0.036399359260495485
1564875000.0 -0.0662145655152448 0.05095343044070542 0.0029461423132049335 -0.1744007815190471 0.0022362351322911794 -0.17523599329178807 -0.11069257212796783 0.0369436712269797
1565562000.0 -0.06761219285050268 0.0512967469090628 -0.0005102225890585873 -0.1743056980615704 -0.0013171394294597648 -0.17511487742223814 -0.11203277238456447 0.03744232155379504
1566250000.0 -0.0689710232992574 0.05173123481247522 -0.00389804461763966 -0.17432325770899867 -0.00484820057683328 -0.17485337445170723 -0.11331512143449281 0.03807740338660824
1566938000.0 -0.0703848094041065 0.052298811347585586 -0.007368303240325617 -0.17419199615107422 -0.008306324498508622 -0.17457207471615932 -0.11437274437539338 0.03854396415355451
1567625000.0 -0.07168901293943632 0.05272694246540033 -0.010815017676753589 -0.1740461041877956 -0.01176236235297601 -0.1742710405072312 -0.11540190425693325 0.039131225615610235
1568312000.0 -0.0730299509741767 0.053425347716323054 -0.014465398872856791 -0.17388146379580535 -0.01515774163891272 -0.1738797075507392 -0.11618571721584854 0.03978245707288763
1569000000.0 -0.07426989943940654 0.054095732215203626 -0.017930573919203552 -0.17355147260131068 -0.018631364146096528 -0.17342224602669326 -0.1170270081934582 0.04043433708441915
1569688000.0 -0.07544959977388949 0.05475233770312594 -0.021462324797941593 -0.17325977913077267 -0.022047431399030145 -0.17293833236241535 -0.11767213945285494 0.04107585696569668
1570375000.0 -0.07665402339380507 0.055480518080753646 -0.024911568379420646 -0.1727256818673767 -0.025426846051618983 -0.1723970142438968 -0.1181740759201352 0.041797209391779916
1571062000.0 -0.07780893282356373 0.056066174532136435 -0.028520188069962253 -0.17221219215491795 -0.028847603353530253 -0.17183121562778494 -0.11872180860900335 0.04261346658161561
1571750000.0 -0.07886891553029968 0.05670677170668404 -0.032059316525246684 -0.17160369497108796 -0.03217610834196799 -0.17121172268544907 -0.11926665369967303 0.04354250919831297
1572438000.0 -0.07992392235537533 0.05734471076895213 -0.035546134155052825 -0.17078043418414496 -0.03558352542220387 -0.17051921296503722 -0.11967961144275013 0.0444789762880208
1573125000.0 -0.08110404375215542 0.05788012045006083 -0.03903411543356904 -0.16998709786677618 -0.039064432528251994 -0.16978114993802518 -0.12020050645227107 0.04555321048319778
1573812000.0 -0.08210747811329226 0.05831502615839531 -0.04254273187139183 -0.1689596140591337 -0.042517789202970925 -0.1688576158793679 -0.12073738529028011 0.046618624582413136
1574500000.0 -0.08319433889941075 0.05898567998370485 -0.04600675758975571 -0.1679414707546163 -0.045925123629324806 -0.1680208031544391 -0.12136467282777544 0.047827251091016786
1575188000.0 -0.08436664049039845 0.059399970519073725 -0.04934790381544214 -0.16687200365703536 -0.0493719645414643 -0.16691411006181286 -0.12196229486949886 0.049081795399945914
1575875000.0 -0.08543804271544944 0.05988601929034825 -0.0527401552361359 -0.16562591717892797 -0.05287240384183658 -0.1658304241953174 -0.12270622130690373 0.050416074883074015
1576562000.0 -0.08657749843811273 0.06028712606421124 -0.05606954120455783 -0.1643196951826716 -0.05614711688885758 -0.1646028436010387 -0.12349357454744646 0.05176787378675332
1577250000.0 -0.08768887678946613 0.06089266646652275 -0.05940755670312349 -0.16294934309273346 -0.05952332768816098 -0.16328484673928098 -0.12431497846188488 0.053149134211613665
1577938000.0 -0.088808272934677 0.061351698561387495 -0.06265524118347426 -0.16158085608897776 -0.0628582171301912 -0.16184381103795462 -0.12517891316648486 0.05453117856237207
1578625000.0 -0.08996743449260819 0.06191432531393795 -0.06582974407266078 -0.16007401103736663 -0.06611175693431796 -0.1603823224782211 -0.12611753300266348 0.055982318021180304
1579312000.0 -0.09111325664481794 0.06252675523510062 -0.06898715271631208 -0.15852946680619343 -0.06931704316574087 -0.1587816799884332 -0.1271700809533605 0.05733609458275864
1580000000.0 -0.09228630579381862 0.06318633443716061 -0.0720712935750998 -0.15693655703524179 -0.07245549638133983 -0.1571040746700021 -0.12831500350597974 0.05870706625404127
1580688000.0 -0.09339307411154929 0.06386199591807484 -0.0750640634245316 -0.15522981436449715 -0.07550898682534121 -0.15537086177041598 -0.12944672059531162 0.060008362173894395
1581375000.0 -0.09446162352756231 0.064617493922791 -0.07816699015531925 -0.15366133492044387 -0.07849829511206141 -0.15366335250534396 -0.13055888420211087 0.06123214716348092
1582062000.0 -0.09544372427104093 0.06547907452765676 -0.0811187392862976 -0.1519199866429964 -0.08144549509773798 -0.15187682969090954 -0.13167405343553112 0.06232880065362222
1582750000.0 -0.09633143389756196 0.06622778961537845 -0.08409457368856454 -0.1502003924509001 -0.08434951547569922 -0.1500454739157522 -0.13282939289922024 0.06347523602964181
1583438000.0 -0.09719166554263912 0.06714296305768036 -0.08694702845727385 -0.14841304143581174 -0.08721228860062051 -0.148154203012689 -0.13393906164223793 0.06438150660120828
1584125000.0 -0.09794486734245852 0.06799307462289539 -0.08981798220735715 -0.14647011369161794 -0.09002535995593607 -0.14633247737682537 -0.1349228003296262 0.06534685326789684
1584812000.0 -0.09870360639537092 0.06890384728865902 -0.09262313512561313 -0.14450837946296893 -0.09268064584820841 -0.1443948690073813 -0.1357869056135098 0.06611976597371089
1585500000.0 -0.09939185922003807 0.06975442183007084 -0.09531718654191595 -0.14256389397654118 -0.09541477073355327 -0.1424112239123247 -0.13660694337273185 0.06685257694526235
1586188000.0 -0.09996700868459321 0.07065681378154838 -0.09796892528751601 -0.14054582095821708 -0.09810786011732467 -0.14042621592705376 -0.13734065014600902 0.06754519425553009
1586875000.0 -0.10054918225336067 0.07151556732554158 -0.10059477384862955 -0.13839342626120482 -0.10063617551565035 -0.1383803590896845 -0.13784966058157813 0.06810154828668168
1587562000.0 -0.10107822077925548 0.07240881956427835 -0.10325563800859527 -0.1363602479468741 -0.10329874730095776 -0.13635829250427328 -0.1383462561664257 0.06864423024382034
1588250000.0 -0.10150472797777431 0.07331112166034998 -0.10578146504044696 -0.13418395423296983 -0.10588036351997693 -0.13422685757483424 -0.13859990663373253 0.06928087550679965
1588938000.0 -0.10189811343645692 0.07420613244536454 -0.10837543616441822 -0.13185042954960288 -0.10841066958222986 -0.13214866737773034 -0.1388151062900219 0.06982370575620646
1589625000.0 -0.1022567693095335 0.07503004137898545 -0.11067486074519828 -0.12974596246162787 -0.11094978412131376 -0.12996258948403386 -0.138899715063839 0.07050208966270129
1590312000.0 -0.10263670674923693 0.07588650964941802 -0.11320724280375055 -0.1274083311627345 -0.11334561588983329 -0.12776957637887104 -0.13887656155664055 0.07115715900480289
1591000000.0 -0.10307673240451419 0.07674525316229736 -0.11557693729585876 -0.12514482962137624 -0.11576045757937237 -0.12545076652459203 -0.13878262027342791 0.07192301745480628
1591688000.0 -0.10338418179179014 0.07759555335666417 -0.11786740320403054 -0.12280747625651457 -0.11809004173252284 -0.12314301972110707 -0.13862545995613162 0.07280116730294743
1592375000.0 -0.10377903773870441 0.07851515259840698 -0.12011269640915978 -0.12042283436629261 -0.12045870512239586 -0.12079443978321527 -0.13842584613307565 0.07375303147236942
1593062000.0 -0.10402296818628913 0.07935899948362517 -0.1224117376484949 -0.11800899417877929 -0.12269328154061258 -0.11840296941459556 -0.1382439771352548 0.07484245737379536
1593750000.0 -0.10440065065124499 0.08031402146633265 -0.12456148104411688 -0.11562064128047013 -0.12500587976751107 -0.11595641705821713 -0.13808604370719088 0.07600436197512098
1594438000.0 -0.1046711157781487 0.08119322189434348 -0.12672983545354108 -0.1131863048029694 -0.12713729968918874 -0.11344892307699779 -0.13789337759766807 0.07724324598599336
1595125000.0 -0.10495729022701206 0.08213695503166096 -0.12879103379913764 -0.11070676502244967 -0.1292162306083292 -0.11089851902301776 -0.13780554499791917 0.0786307247951977
1595812000.0 -0.1051058829835848 0.08310977844372876 -0.1308120184523943 -0.1082003137360047 -0.13129238796555748 -0.10834217657625933 -0.13777276323110274 0.08006551462720454
1596500000.0 -0.1054917487010866 0.08400414877191309 -0.13264673997571463 -0.10568667813366996 -0.13323415104575423 -0.10574761783010436 -0.1378331116238512 0.08145888186284377
1597188000.0 -0.10563106218664318 0.08495139406373094 -0.1346640527882398 -0.10313148424177877 -0.13525954175126415 -0.1031046370775727 -0.1378844058328255 0.08314455438981927
1597875000.0 -0.1058468441849119 0.0858749973862665 -0.13652310958525402 -0.10036653277500475 -0.1370534382437325 -0.10039138015009547 -0.13813917174874413 0.08464826782872303
1598562000.0 -0.10597652952461485 0.08681579747699757 -0.13829820603653106 -0.09777972996152515 -0.13893455867087232 -0.09765432836992538 -0.13846118688918194 0.08627823771449704
1599250000.0 -0.10605752467513536 0.08781955678525084 -0.1399945558239267 -0.09505361826661311 -0.14072236806200908 -0.0949506939070333 -0.1388306357955723 0.08773661878725832
1599938000.0 -0.10612775531375791 0.08873213023695649 -0.14179192672732518 -0.09224304875383527 -0.14244279831683598 -0.09210314123084273 -0.13929695104741716 0.08937462653064644
1600625000.0 -0.10624668967654578 0.08968424384155002 -0.1435220945849661 -0.08955130133343783 -0.14415362892978587 -0.0893646525717502 -0.13985755284527937 0.09083708648517645
1601312000.0 -0.10624577940868328 0.09056415135722967 -0.14521969078241245 -0.08671906454034153 -0.14579323234572955 -0.08647672931121672 -0.14040882286375703 0.09225050209114682
1602000000.0 -0.10629868515866656 0.09148587301708014 -0.14678533677405953 -0.08387240294088158 -0.14736023325500025 -0.08366122665072628 -0.14111701264361842 0.09354465679751545
1602688000.0 -0.10620570607082228 0.09249519177198336 -0.1483604679583096 -0.08114727883208013 -0.14885746941572592 -0.08075404546873464 -0.14177468104336824 0.09479806383359837
1603375000.0 -0.10618959926566049 0.09332471708124077 -0.14979881940975598 -0.07811342148503636 -0.1504034711342537 -0.077823179382545 -0.1425010041836137 0.09585959472780044
1604062000.0 -0.10605921531213672 0.09414800994052219 -0.15137406723938082 -0.07529651461713396 -0.15173679587962674 -0.0748740416836102 -0.1431773340847796 0.09694976989743444
1604750000.0 -0.10594241564130952 0.0949750341176403 -0.15278938735602016 -0.07237514529389731 -0.15313902078245428 -0.07195525621524126 -0.14367599280247542 0.09786929364111548
1605438000.0 -0.10586253684238406 0.0958801522717658 -0.15417537830509548 -0.06942526647995736 -0.1544154587515478 -0.06898845492562723 -0.14424885310228788 0.09860047666359371
1606125000.0 -0.10572003198557384 0.0966340978411489 -0.15555571182558847 -0.06650428524179118 -0.15566639681739788 -0.06597113055150929 -0.14470537175619222 0.099304719642784
1606812000.0 -0.10549032997440543 0.09742243656967339 -0.15684939475159734 -0.06344622073212934 -0.1569208789047952 -0.06291825118842881 -0.14508764629709842 0.09998702589456576
1607500000.0 -0.1052284890842266 0.09858664399940667 -0.15853252251761432 -0.060292017898436974 -0.15849471281789299 -0.05964460049143339 -0.14514188444483433 0.1006239632133631
1608188000.0 -0.10494310398300129 0.09934819933897808 -0.15966127144141734 -0.05718191580120723 -0.1595584081269063 -0.0565695222681109 -0.1451553034901134 0.10124706442887418
1608875000.0 -0.10465639169747293 0.10002722392503718 -0.1608986875946071 -0.05410301271856088 -0.16057397610368382 -0.053436679341901765 -0.14519832175169847 0.10197885660769165
1609562000.0 -0.10443066927307247 0.10066334051696889 -0.16202699892073358 -0.05088415689551472 -0.16162034620078522 -0.05044156605980432 -0.1447978477216189 0.10261949516717316
1610250000.0 -0.10409011417325112 0.10139675441294688 -0.16302584303180961 -0.04775362123535534 -0.16254276723852268 -0.04733751146303561 -0.14467741248209276 0.10340565161563106
1610938000.0 -0.10388255181108012 0.10209623274384774 -0.16397600443992108 -0.044450550687057895 -0.16353778791044507 -0.04423956925997715 -0.14431524217995198 0.10432818373968573
1611625000.0 -0.10355627165938257 0.10270810299004544 -0.16488459878890374 -0.04113367107410723 -0.16437401677096458 -0.04117743446574822 -0.1439182778000845 0.10524061144972363
1612312000.0 -0.1032605202981291 0.1032908097345376 -0.1657525289495761 -0.03788888382028414 -0.1651828332294811 -0.03799054043953599 -0.14327679834211984 0.10628880498702971
1613000000.0 -0.1030397210204324 0.10400077253808411 -0.16638089385718127 -0.03442360423950441 -0.165981883825882 -0.03485454917914801 -0.14247621924246537 0.10734431232250333
1613688000.0 -0.10281278112159595 0.10463721860570523 -0.16691991980809306 -0.031080150295556126 -0.16664188741231023 -0.03169177067679485 -0.14203754417576658 0.10847277372746966
1614375000.0 -0.10258163425462132 0.10536438592897357 -0.1674514008376047 -0.027717472807678493 -0.16735063826743823 -0.028540785608210443 -0.14145495390158136 0.1098868675841833
1615062000.0 -0.10235779466441948 0.10598723631595934 -0.1678770934418613 -0.02432998079781813 -0.16789326477887437 -0.02521913797551409 -0.14052862283315215 0.11125116372069996
1615750000.0 -0.10215118262956378 0.10667746042953623 -0.1681325604212249 -0.021126914569429157 -0.16842927220996 -0.02192131982456581 -0.1399883726092448 0.1127274793240038
1616438000.0 -0.10201762746665233 0.10732010308239907 -0.16840687473210744 -0.01768270118217143 -0.16894645336770261 -0.018637824670160813 -0.13932411808984482 0.11450033416596357
1617125000.0 -0.10173318206045545 0.10814958582820236 -0.16852503572227615 -0.014503363858548689 -0.16918989351636815 -0.015287720695842291 -0.13872185893491681 0.11595828193477355
1617812000.0 -0.10152610522378427 0.10884352149168298 -0.16866220652845632 -0.011298429213108646 -0.1695800771341414 -0.01193376677740769 -0.13833604693278737 0.11752085092443103
1618500000.0 -0.1012388063715304 0.10967447744807775 -0.168663056285749 -0.008141725920117472 -0.16976477038776516 -0.008506856855738919 -0.13785298334537077 0.11923509961478576
1619188000.0 -0.1011023945804476 0.11038499314205474 -0.16860710278884616 -0.004917130066925198 -0.16976499747811474 -0.005111611217774008 -0.1374325215130196 0.12068831525615628
1619875000.0 -0.10078003161768162 0.11119115619483616 -0.16847964246112984 -0.0019305719115564632 -0.16985289728099257 -0.0017719326692712404 -0.13722797252040664 0.12213164850191816
1620562000.0 -0.10056313149571029 0.11199495309017483 -0.16835150590867975 0.0012191149036544858 -0.1697421539502566 0.0015673835650122773 -0.1370638595507665 0.12363903778873399
1621250000.0 -0.10024908035680981 0.11274855891322608 -0.16818632959597413 0.004315942307985005 -0.1695121979167364 0.00488854629177969 -0.13688471121859808 0.1249980988879036
1621938000.0 -0.09991468169895107 0.11337963475337023 -0.16798735706063483 0.0072730339595401955 -0.16931601261863213 0.00812326250517203 -0.1369413837620891 0.12630312581838635
1622625000.0 -0.09952136719143212 0.11407934153173065 -0.16775604560979732 0.010285593762433314 -0.1689266385775572 0.011407980071365308 -0.1369959232429106 0.1274665062893434
1623312000.0 -0.09921744372980347 0.11482489119598377 -0.16754721876482223 0.013304875519733948 -0.16845321786767195 0.014702560396533067 -0.1370296334403037 0.12852978302099932
1624000000.0 -0.09903211343365102 0.11541005617346527 -0.16735251048074298 0.016410768991727005 -0.1681294931651688 0.017823895229767878 -0.1370463570305128 0.12944910619434383
1624688000.0 -0.09872055941995904 0.11584391627596438 -0.16712499395556543 0.019402290171582 -0.16769688058731588 0.020917971318351408 -0.13707716225149827 0.13011381812914424
1625375000.0 -0.09855064693547926 0.11643410998463555 -0.16699358245206952 0.022569789808291184 -0.1671690990722097 0.024181506167723993 -0.1372085459868686 0.13118964298902838
1626062000.0 -0.0983472893325641 0.11682151004891443 -0.16675120189785816 0.0257963739975091 -0.1666854458329413 0.02729574842775588 -0.13722746707223352 0.13177986899940297
1626750000.0 -0.09821301997221603 0.11725789574712851 -0.16632245112995625 0.028883176044063392 -0.1661049121659979 0.03035792589902964 -0.13735322316913717 0.13224966428712237
1627438000.0 -0.09811779796041124 0.11770955798187728 -0.16609014331213034 0.03224934225774154 -0.1654604802786374 0.03358263846449575 -0.1371223853776379 0.13315240899885455
1628125000.0 -0.09805521717286717 0.11814221342234167 -0.165771741620076 0.035557571637722434 -0.16479920102804171 0.03672230733373639 -0.13709051127932756 0.133579347856312
1628812000.0 -0.09815056470048238 0.11856308024558221 -0.1650267103656132 0.03890096738820226 -0.16419606617918922 0.039889217338369136 -0.13669300893179892 0.13387280607928415
1629500000.0 -0.09817722637303646 0.11892047463053451 -0.16470609721378704 0.04237099720102639 -0.16350860484521146 0.04298026432631182 -0.13646306106401146 0.13456530086423435
1630188000.0 -0.09825338666241538 0.11932113506520314 -0.1639326562436638 0.04573733252596087 -0.16283615758008446 0.04617022890357045 -0.1361219318266195 0.13493954944704964
1630875000.0 -0.0984285411236397 0.11981668675632803 -0.1631543117722958 0.04930343179428147 -0.16197434233209895 0.04944284370584296 -0.13547225213639766 0.13580500404389462
1631562000.0 -0.09854262630974879 0.12038128968680381 -0.16223997460778766 0.05277721692324702 -0.16117707349113117 0.05267723149403394 -0.13497970726666156 0.13636839042074372
1632250000.0 -0.09862330313633534 0.1207854443352412 -0.1611881259129314 0.05630178038688185 -0.1602789297843421 0.055993933444479733 -0.13454373260801575 0.1370862528618078
1632938000.0 -0.09874407190852673 0.12141788604834283 -0.16000294354128344 0.059768128756067435 -0.15929653982250253 0.05924825009225537 -0.1338849387385402 0.13771634227342824
1633625000.0 -0.09882566668952592 0.1219893149804296 -0.15867388403201058 0.06322493074074563 -0.158157019628702 0.0625668233563741 -0.13318678336467957 0.13866535147731068
1634312000.0 -0.0988522102652653 0.12259062704743055 -0.15711705361582434 0.06660048829276564 -0.15690719218916863 0.06586040729435291 -0.13246183755122293 0.1395251448726072
1635000000.0 -0.09886168958213158 0.12327643959391933 -0.15550301997581864 0.06991987696702003 -0.15558393663521047 0.06907580652994327 -0.13193372508631387 0.14048249122085296
1635688000.0 -0.09888559799152762 0.1237365262247133 -0.15399045081226997 0.07301081963666815 -0.15413701456871115 0.07231691324675767 -0.1311496835593512 0.14142905891517746
1636375000.0 -0.09883137633161387 0.12441734210776899 -0.15208702209404748 0.0761166805314813 -0.15258212808950206 0.07552123979796466 -0.13049390239823244 0.14243697500721636
1637062000.0 -0.0988236184132908 0.12513394268901037 -0.15033456436380543 0.07912880046499308 -0.15094199839569156 0.07870021895006807 -0.13008188855334565 0.14345221508595463
1637750000.0 -0.09877812786870445 0.12564260908501088 -0.1483651056046907 0.08209700715532448 -0.14922038135470653 0.08173906407175174 -0.12954610162432606 0.14442924741314478
1638438000.0 -0.09858952862719184 0.1261196518750557 -0.1465293046017906 0.08474963131871109 -0.14727601472179003 0.08463184147105203 -0.12915341830324112 0.14516049997892624
1639125000.0 -0.09840818934198145 0.1266459640211665 -0.14444827217583453 0.08749048518822279 -0.14536166903136954 0.0875828745034154 -0.12884653675560045 0.14608086369105477
1639812000.0 -0.09839075476731632 0.12709356229183572 -0.14259033863823137 0.09004747876134338 -0.1434132994969135 0.0903097805838048 -0.12867623789383847 0.14691062082848524
1640500000.0 -0.09837662113276062 0.12752039062269455 -0.14068877685561557 0.09253941640697354 -0.14150809124131192 0.0930112606443127 -0.12841520708524834 0.1479204222538678
1641188000.0 -0.0983822730166089 0.12800145142775654 -0.13884194620193346 0.09516425553607388 -0.13962864077025405 0.09574723232505908 -0.12871191087938175 0.148445596112697
1641875000.0 -0.09850329085521112 0.12845760063915954 -0.1369293426182791 0.09754798721274682 -0.1376650307419367 0.09818874651294617 -0.12853692625424024 0.1492544877326343
1642562000.0 -0.0987183916050718 0.12887234811476048 -0.13511190477537513 0.09979192622942135 -0.13561461321664553 0.10058471276211656 -0.12865511648198522 0.1496636724091366
1643250000.0 -0.09895712769196896 0.12926380040765753 -0.13322245038365388 0.1022107629766091 -0.13372356120627812 0.10308519287701892 -0.1289542629835695 0.15027047409137345
1643938000.0 -0.0992876255700397 0.12973667820613366 -0.1312965722552683 0.10449537913449425 -0.13169959075924614 0.10550104898588655 -0.12919746944672308 0.15078353739470776
1644625000.0 -0.09957108904581354 0.1302821324883802 -0.12942891965252054 0.10692422328442129 -0.12970146500059726 0.10786413254683305 -0.12934871708398812 0.1511665646013958
1645312000.0 -0.10011257722356162 0.13093911555896456 -0.12752797453737222 0.10938799522285872 -0.12771525597977745 0.11035371696364801 -0.12983105728046487 0.15165665794255417
1646000000.0 -0.10063791609512104 0.13158564812116477 -0.12564754987031596 0.11181120879252798 -0.12572313384479686 0.11277021127151308 -0.13004173279667042 0.15196414094475658
1646688000.0 -0.10111903841185375 0.1323558311866301 -0.12356956297799039 0.11421843765905668 -0.12359865722214582 0.1152798051586978 -0.13027073645310575 0.15231231773528406
1647375000.0 -0.10160144820107374 0.13320858071115277 -0.12146744228953611 0.11666023713186628 -0.12149381642411289 0.11776039238016962 -0.13057627771789135 0.1527532639112237
1648062000.0 -0.10222318743878042 0.13410536080842825 -0.11941036934237068 0.11921336369977226 -0.11931003156563803 0.12015843166992655 -0.13071468465935887 0.15308615117424373
1648750000.0 -0.10266190250132995 0.13498806265741248 -0.11718728884605323 0.12165505703887709 -0.11695039265263708 0.12272567931289381 -0.13111365592919125 0.1535479690617018
1649438000.0 -0.10319223635286764 0.1360777305731309 -0.1148633058443248 0.12415432608561756 -0.11458458369810584 0.1252472597556456 -0.13122047136805362 0.15421104634386756
1650125000.0 -0.10368196301322585 0.1370673044324415 -0.11248808003828656 0.12659131650424915 -0.11202586870820891 0.12771128108361288 -0.1312873685058546 0.15471376988348284
1650812000.0 -0.1041664860421178 0.13803770890535746 -0.10994416192768712 0.12897597548953185 -0.1093923826264464 0.12998831113367576 -0.13140350898740288 0.15524296630068113
1651500000.0 -0.10461518104486492 0.13907186323290033 -0.10759413022071604 0.13138905644594823 -0.10671816712571906 0.13226207991821998 -0.13144806247873703 0.15589992216661355
1652188000.0 -0.10507275604771338 0.14005126743385587 -0.10466131525241565 0.13367743579677832 -0.10387508810905711 0.13455344552082546 -0.13135512494000864 0.15664696126324162
1652875000.0 -0.1055086613402608 0.1410508039343311 -0.10206079894507318 0.1358843494359415 -0.10105673245393726 0.13680219038983082 -0.13137331877846986 0.1573567242249272
1653562000.0 -0.10593396787294693 0.14191777120554436 -0.09914338990582781 0.1380692203386263 -0.09816895199759124 0.13873309840989398 -0.13118693145902424 0.15813827626119095
1654250000.0 -0.10635351280062652 0.14270742617091892 -0.09625447768337886 0.14014589590523233 -0.09507530939167232 0.14063028696875332 -0.13109434356119803 0.15890913480210045
1654938000.0 -0.10683395034286203 0.1434080241769818 -0.09332963440504316 0.14219425699892357 -0.09208502890868565 0.1423112586294689 -0.13107108425136238 0.15977344993739764
1655625000.0 -0.10742724873421203 0.14427193390809737 -0.09022873463555221 0.14404676690855056 -0.08905882821711153 0.14400665772538046 -0.13084227179254326 0.16056624257877583
1656312000.0 -0.1080872862662337 0.14483674180532632 -0.0872367574324053 0.14576097417158193 -0.08598793204530678 0.1454959969394465 -0.1307728072269454 0.1613244032371524
1657000000.0 -0.108633733543246 0.14556550804325122 -0.08414455223359875 0.14737916726117828 -0.08296161994664128 0.14699549360556735 -0.13068357304936667 0.16222087044471445
1657688000.0 -0.1093707996593226 0.14625176362616696 -0.0809732614068176 0.14895740588260695 -0.08001295884442179 0.14834876446579237 -0.1306580535076591 0.16291307204000136
1658375000.0 -0.11023065591949494 0.14685531382222963 -0.07786323788335085 0.1504980041124465 -0.0770668089963123 0.14972844829606594 -0.13063959744995632 0.16365874451736784
1659062000.0 -0.11104511887114786 0.1475679968938452 -0.07461010326136785 0.15188204794929502 -0.07409666525948938 0.15098743125343436 -0.1306142579363179 0.16440510978409884
1659750000.0 -0.11192387700727915 0.14836784048248536 -0.071374076589811 0.15323396995814195 -0.07117695830258645 0.15226344000361958 -0.13075618197181593 0.16511093146380681
1660438000.0 -0.11277267775704235 0.14920318113952394 -0.06824646847012998 0.1546639161271888 -0.06831830753371784 0.15357025944229397 -0.1309019522516121 0.16577595622776806
1661125000.0 -0.11379324386297376 0.15011526025144853 -0.06503194877287335 0.1558509986474095 -0.06540627782831632 0.1548375269408449 -0.13104932120252155 0.16635875216393423
1661812000.0 -0.11467113195022888 0.15105133579811403 -0.0618051639024733 0.15697148886553652 -0.06251403504647905 0.15614577957277712 -0.1313030375375532 0.1670601829288843
1662500000.0 -0.11548328036518611 0.15212858016257813 -0.05871528435443269 0.15815140664106486 -0.05954358854899675 0.1575325618649522 -0.13149118819998165 0.16758607607513093
1663188000.0 -0.11632369918758115 0.15316047726143317 -0.055476813708685284 0.1590691316349454 -0.05666039495728692 0.15879760064519244 -0.13174679272415737 0.16821789576201987
1663875000.0 -0.11705263991962502 0.15437019949524022 -0.0523075499774522 0.1600426643160329 -0.05363523050762369 0.1599649247760408 -0.13212752849907322 0.1688217056133361
1664562000.0 -0.11764425838843193 0.15557765131327192 -0.04914068919337554 0.16091547633288922 -0.05048452897399702 0.1612118777824604 -0.13217057438127486 0.1695162949167432
1665250000.0 -0.11819166621994005 0.15678460520766285 -0.04587432195087518 0.16177557446138732 -0.04726494157419833 0.16232749820340558 -0.13247982023163665 0.17011882123232108
1665938000.0 -0.11875842131274889 0.15794246150033028 -0.042840421805207266 0.1624310683749885 -0.04411173780782433 0.1635522434467212 -0.13271553640939213 0.17095015214234704
1666625000.0 -0.11921801667685739 0.1591054437072897 -0.03953233588831697 0.16335982232903443 -0.04075617786512825 0.16461016945153645 -0.13283850347709858 0.1717311399810987
1667312000.0 -0.1195485522385105 0.16025401385523672 -0.0364852175233451 0.16390389843818914 -0.03725437763097522 0.16549697987511208 -0.1330530208122188 0.17260564752115057
1668000000.0 -0.11991129285339472 0.16141679913400817 -0.03330555478510206 0.1645385801906435 -0.03374749320019787 0.16630566517765402 -0.13312587614211785 0.17357167416979194
1668688000.0 -0.12029922505302777 0.16249145336228454 -0.030255496075292373 0.1650375593514098 -0.030225391083293834 0.16704092935784456 -0.1332586974812133 0.1746284227650944
1669375000.0 -0.12067263145067456 0.16351944210898609 -0.026991643763614574 0.16551029940203285 -0.02670439526465526 0.1675585391403502 -0.1333835788592059 0.1757806394980943
1670062000.0 -0.1209581005354487 0.16459275219822017 -0.023815186195679794 0.16602434835960794 -0.023100911601780832 0.16797834460752487 -0.1333596985271315 0.17699172035777286
1670750000.0 -0.12120832424157967 0.16572639800423744 -0.020630272609523867 0.16640262301202302 -0.019438170988796476 0.16823349106657356 -0.13326875940480823 0.17832770625490205
1671438000.0 -0.12166371936130733 0.16671097846090502 -0.017451393954377187 0.16671971326230575 -0.015966358736266555 0.1684549756997611 -0.13328829747519869 0.17965424327921245
1672125000.0 -0.12207502903241368 0.16779680667794486 -0.014324163630568154 0.16703306893649353 -0.012495656039302217 0.1684382146774627 -0.13332561413789848 0.1810510994702131
1672812000.0 -0.12263024580735003 0.1688515940023385 -0.011133394867593994 0.16741761978179995 -0.009041121739327359 0.16842114495645014 -0.13320399386164353 0.18241770322842887
1673500000.0 -0.12306200401246914 0.17014105848264097 -0.0077622675584891766 0.16767836199596564 -0.0056387576619793675 0.16825442335232924 -0.1332017174277764 0.18388339061442552
1674188000.0 -0.12355092621782056 0.17146245192075085 -0.004585656246625664 0.16789519796456312 -0.0023991733021943677 0.1681623126842201 -0.1330911629863902 0.18534642253103775
1674875000.0 -0.12404868727634316 0.17271672620824477 -0.001333570111447915 0.16812937802413014 0.0008147630528933126 0.1679097413803505 -0.13312724661670255 0.18682023478377496
1675562000.0 -0.12459106194025177 0.1741022752758549 0.0020350406244048075 0.16826283602211334 0.004018146509373182 0.1675879997907073 -0.13306270621499514 0.1883126777574714
1676250000.0 -0.12507009069431574 0.1756599602775018 0.005331315391189413 0.1682346247784393 0.007153145584321211 0.1673458826758111 -0.1330803154459264 0.18967591470645045
1676938000.0 -0.1256591737168371 0.17719638735980298 0.008841368879826906 0.16824194695825148 0.010225263438070129 0.1670805286572566 -0.13306673288010867 0.19112929763906955
1677625000.0 -0.1260822478667256 0.17880536603862618 0.012269038995796781 0.1681184085479059 0.01322173167227992 0.16675257705828814 -0.1332333656703016 0.19230828345665216
1678312000.0 -0.126459842939754 0.18051960893022537 0.01565722251976689 0.16791223513679107 0.01633460531694026 0.1664482670282143 -0.13325301253296554 0.19349886359716592
1679000000.0 -0.1267155519709496 0.18228800533658088 0.019211674337455863 0.16762823788947864 0.019496194454877103 0.16615410280519144 -0.13324014454883232 0.19480228576678404
1679688000.0 -0.12704393671622316 0.18406105280726184 0.022697538379129807 0.16722192289563645 0.022578795861391558 0.16586448914262109 -0.13317705139450134 0.1960382365685241
1680375000.0 -0.127245058702488 0.18579837179361386 0.026205648076945007 0.16678612599721188 0.025801575796781332 0.1655329556975716 -0.13331377332889843 0.1971962472748335
1681062000.0 -0.1273877660999911 0.1874765677342768 0.029714438670480934 0.1661801460181988 0.02909123195850261 0.16515244619715314 -0.1334380884200477 0.19820117793270906
1681750000.0 -0.1275369210282378 0.1891700286803036 0.033266058678959126 0.1653482980963721 0.032377820851020964 0.16471911943638043 -0.13343338534270435 0.1995006336363173
1682438000.0 -0.127559514519558 0.19096419878768445 0.036703882545398026 0.16451495604894867 0.03579883891209851 0.16415420942824538 -0.1332109344599433 0.20051873220347924
1683125000.0 -0.12766888969743226 0.19266064826904475 0.04016779697817816 0.16358158357726468 0.03915987403050632 0.16356883255537297 -0.133134466893967 0.20156580518422496
1683812000.0 -0.1278707800586405 0.1943369447366982 0.04354068546651156 0.16258665937424124 0.04260961642047378 0.16288196506083316 -0.13295043457288447 0.20286255711652457
1684500000.0 -0.12793555419716143 0.19582634656192904 0.0468564574790826 0.16145894970699784 0.04607211424824098 0.1619652459587479 -0.13250608983250436 0.20386464127412254
1685188000.0 -0.12795192163049687 0.1974403024623081 0.049970695059826736 0.1602870941791642 0.049495716335575986 0.16101353072616104 -0.13214005263751064 0.2050815244020853
1685875000.0 -0.12804610917200204 0.1990766871696687 0.05331283538015984 0.15892145439291133 0.052912725904648725 0.15995942414360365 -0.1316499770116374 0.20653761015174532
1686562000.0 -0.12806733033320605 0.20052873368376217 0.05640258841928057 0.1575168483468086 0.05621869062604904 0.15862423012258875 -0.1309395146765013 0.20789977103324214
1687250000.0 -0.1283289012912639 0.20227548680006727 0.059494021720377654 0.15606772768339608 0.05955037699705333 0.157318557237779 -0.13041400633776487 0.20936041575902434
1687938000.0 -0.12831301020961422 0.2038898215401185 0.062474373424739174 0.15468795187055445 0.06282383356379244 0.15594797682093933 -0.1296992920518444 0.21105489375411524
1688625000.0 -0.12843651432549286 0.20546208436980637 0.06532579246433755 0.15323003588954678 0.06596210845618097 0.1544190190116095 -0.1287825841971919 0.212655785224431
1689312000.0 -0.12850904451427828 0.20723117400889735 0.06817853869464405 0.15176740280295178 0.0690294803960955 0.1528685337255204 -0.12826220321272175 0.21474165003651283
1690000000.0 -0.12862134715622836 0.20893060277804149 0.07095986999172532 0.15028636304961768 0.07191696443800051 0.15116598275383542 -0.12712294116082964 0.21678499942214455
1690688000.0 -0.1286585308828111 0.21061331292301683 0.07377032683665867 0.14882301068381754 0.07484355884453305 0.14945268142278584 -0.12673810298107915 0.21875447884002208
1691375000.0 -0.12858371213684364 0.21242432571731834 0.07640353754830553 0.14724646495474192 0.07761470163224378 0.1476422437217131 -0.12592347877777813 0.22064272236163598
1692062000.0 -0.12855426859018043 0.21417336775570658 0.0791429736092042 0.1456534367502512 0.0803583696924384 0.1458724822758486 -0.12512128826726693 0.22273447016892262
1692750000.0 -0.12839812928518335 0.21603729485257042 0.08179624836152734 0.14401390350371668 0.08302902976955943 0.14404060391817977 -0.12433691714966344 0.22505438413721504
1693438000.0 -0.1282710634051138 0.2178603360071257 0.08449910003845064 0.14231168165265032 0.08562996706505158 0.1421685690484491 -0.12372396748195233 0.22690571271592178
1694125000.0 -0.12801918952890495 0.21978763058911716 0.08718481863688751 0.14063353054076438 0.08824253517284235 0.14033230300230035 -0.12302676449158458 0.228979604907607
1694812000.0 -0.12765965118166814 0.2216722156968938 0.08979295350736702 0.13886081358769925 0.09074389391340525 0.13849101374222852 -0.12244856620134531 0.23121980683512253
1695500000.0 -0.12731122777911696 0.22349252920272591 0.09253150677272953 0.1370738143590221 0.09328594157366528 0.1365701351866441 -0.12211119568640964 0.23309263930450302
1696188000.0 -0.12689912632267167 0.22533962839365335 0.09508133259225973 0.13513454111126513 0.09574656699910077 0.1347551624575618 -0.12156345368212139 0.2350971159548368
1696875000.0 -0.12641074794851845 0.22725186266738936 0.09762204844824365 0.1333476084133609 0.09820690261759911 0.13284487277931684 -0.12112733407232054 0.23690141002550552
1697562000.0 -0.12582125563961347 0.22910915982204655 0.10020935090239727 0.1313662657591207 0.10077838198259577 0.13083458040822518 -0.1208261825943282 0.23872453901063911
1698250000.0 -0.12523332385623315 0.23103299897104343 0.10282783188528571 0.12926786667219156 0.10325028761909358 0.12879801161260115 -0.12037331517036812 0.24028381681191086
1698938000.0 -0.12465685269911632 0.2328330201905909 0.10534501058547917 0.12697380517739681 0.1057443717598038 0.12662182743733563 -0.12005170685861352 0.24202660599455808
1699625000.0 -0.12397109083623029 0.23465461956553674 0.10786461658416778 0.12478326869839743 0.10820746211074182 0.1245136689615644 -0.11951644777404967 0.24319152601959562
1700312000.0 -0.12318981556552364 0.23650806562923937 0.1103209986818291 0.1224589217864019 0.11058943161824854 0.12228270240811352 -0.11910388114077626 0.24451724160970514
1701000000.0 -0.12242089391752466 0.23836414172948658 0.11275770662307591 0.12015686577557788 0.11301101975311664 0.12000296191000065 -0.11842169605484182 0.24590866649798487
1701688000.0 -0.12171370095288418 0.24011449104369054 0.11506002171385854 0.11774161142362717 0.11536325755245432 0.1176274536372097 -0.11770339068528363 0.24720440109702146
1702375000.0 -0.12087769957725084 0.24209326166540437 0.11755602625826331 0.11528537757053355 0.11770193222619244 0.11524773939566661 -0.11687394112490877 0.24836125779059462
1703062000.0 -0.12006408168644495 0.24404416240139376 0.11967710691080137 0.11280285879731965 0.11993301374320246 0.11267478131964206 -0.11608001824123541 0.24941950679645514
1703750000.0 -0.11918700767726105 0.24589823338090058 0.12179480811935163 0.11019239919107227 0.12213801471192773 0.11013508454539274 -0.11490369634521307 0.25051276950479545
1704438000.0 -0.11826709717054945 0.24776475007899507 0.12392536658671761 0.10762929654636205 0.12428970917764422 0.10750997028988804 -0.11384902039654379 0.2517921639172083
1705125000.0 -0.11738360356066793 0.24984485148193578 0.12607746932732689 0.104975681608486 0.12640210807602148 0.10485947520254495 -0.11258158136771518 0.2530581002409092
1705812000.0 -0.11648825186872476 0.2518426013853837 0.12797629048757 0.10237125131544896 0.12837518223352737 0.10215571135454016 -0.1111132355292344 0.2542208128837846
1706500000.0 -0.11550314940556057 0.2537164427578232 0.12985881977074126 0.0996358803498279 0.13030415079593938 0.09940860041793674 -0.10957467791962691 0.2555536032301021
1707188000.0 -0.11451131560644483 0.25583257460555825 0.1317306447505508 0.09698053025135935 0.13209514546456233 0.09667773838275036 -0.10790001701789165 0.25707583771576514
1707875000.0 -0.11351829250991596 0.2578766819915385 0.13355556313038466 0.0941913616200839 0.13389691916702742 0.09394688920412285 -0.10625710883165972 0.2584645390231393
1708562000.0 -0.11232844529016735 0.25994186859523255 0.1352301930383071 0.09162844514878916 0.13568780676883485 0.09116807692030725 -0.1045114207267398 0.26015222372864355
1709250000.0 -0.11124538608377318 0.26191197692373885 0.13692364726818407 0.08866976434771014 0.13735732637861492 0.08842395331977378 -0.10271175042491269 0.26188972862362425
1709938000.0 -0.10991062703601234 0.26407988274950817 0.1386049056730974 0.08594034039642236 0.13896938473265796 0.08560024155946058 -0.10110289698033727 0.26387975494934507
1710625000.0 -0.10874053082221723 0.2662161755048376 0.14008654477105897 0.08302626612237468 0.1404726960223609 0.08284435124879282 -0.09929432033827781 0.2657752187668293
1711312000.0 -0.10750621751530004 0.26823389899612127 0.14155413834818592 0.08025491675489625 0.14183311612341143 0.07993434025200369 -0.09766862339560073 0.2676797945624431
1712000000.0 -0.10621794645584677 0.27034296826133564 0.14298127439975086 0.07742666028272012 0.1431782244478203 0.0771068855405726 -0.09595234944098235 0.2698003734046608
1712688000.0 -0.1048296724892575 0.27240696925253555 0.14432105927953595 0.07452618138111386 0.14444654848992228 0.07420318302365891 -0.09439569437924068 0.2718600652483296
1713375000.0 -0.1034774205577094 0.2745300979827355 0.14555589838315555 0.07159092674521514 0.1457641866268333 0.07131581326382391 -0.09288233645637707 0.2741045960126839
1714062000.0 -0.10213091294516845 0.2764956272224515 0.14682374079506874 0.0686975372440149 0.1469076485955805 0.0684558450616421 -0.09165545975738044 0.27623552873672536
1714750000.0 -0.10077064370089604 0.278572552675005 0.14795048572593747 0.0658102658925163 0.14796244759458735 0.06554342490666387 -0.09034630381304613 0.2782962113051574
1715438000.0 -0.09938460114867419 0.2805646515727294 0.14910171586538581 0.06274715886660184 0.1490560139160342 0.06258430150530243 -0.08917401376727623 0.2802752536790181
1716125000.0 -0.0978628667743065 0.2826665681313416 0.15006821272729115 0.05971399013308845 0.15000360471433483 0.05966197748597941 -0.08792745885811855 0.28229521586900125
1716812000.0 -0.09627189944455382 0.2847148947426192 0.1509841196297413 0.05660115199805792 0.15089770638114916 0.056598437680078 -0.0869387273175555 0.2842315257129225
1717500000.0 -0.09475041720218891 0.2867977609938089 0.15184578239702276 0.053596665935646895 0.15181889553775696 0.053650373366158494 -0.08604089222170452 0.2859167046289227
1718188000.0 -0.09316377997992878 0.28861265917193396 0.15262066624213866 0.05057549467660966 0.15257088461945367 0.05061476037328942 -0.08497598838127113 0.2876165356046981
1718875000.0 -0.09155938516103902 0.29075561773352065 0.15335218619882854 0.04756992303566457 0.1534675342128924 0.04765000002446667 -0.08391693467604593 0.2889687931406526
1719562000.0 -0.08971697795863884 0.29268862799207473 0.15400814046120395 0.0444681792368125 0.15416084779098893 0.04457431669153985 -0.08292508726156195 0.29045303520178284
1720250000.0 -0.08813456845620891 0.2944884354229622 0.15450034168787574 0.04140891816777185 0.15481853440553056 0.041556076047826636 -0.08171222039776173 0.2916398641940141
1720938000.0 -0.08638951938976715 0.29644039768689306 0.15505873001811513 0.03819573891530668 0.1554572016045223 0.038416220021064706 -0.08060216289695228 0.2926639052949897
1721625000.0 -0.08466385529563579 0.2983482632954327 0.15554106212989427 0.03512284840562879 0.1560575802156912 0.03538152446068398 -0.07919717374760277 0.29383781030550665
1722312000.0 -0.08285982732942541 0.30019389539062874 0.1560029975051086 0.032060661477220455 0.156573318106008 0.03223176705868392 -0.07771043479925119 0.29472406282320784
1723000000.0 -0.08102248959321613 0.30210184929917305 0.1563951334036714 0.028951702105887645 0.15710831108654782 0.029166252857055305 -0.07621489393542001 0.2955650875992468
1723688000.0 -0.07922877351984059 0.3039013569735725 0.15672412046212836 0.025912184088761024 0.1575470081595511 0.026043133443077238 -0.07451924131741798 0.2962633072430183
1724375000.0 -0.07737399574406753 0.30573615195291165 0.15686945219741955 0.02281955986972452 0.15793501122745496 0.022902221892873185 -0.0726648526232691 0.2970481804631995
1725062000.0 -0.07549112456038834 0.30756250302751637 0.15713094055983265 0.01978254365845142 0.15822919963621299 0.01970175633661388 -0.070614543033765 0.29773181852525
1725750000.0 -0.07345327157139499 0.3093342144797844 0.15736318640327565 0.016788922333583346 0.1584604855852448 0.01651601212849489 -0.06849361082737396 0.2985736146873114
1726438000.0 -0.07165959251001826 0.31107863979114136 0.15758914145133912 0.013853321058282232 0.15866249942201854 0.013416596935707202 -0.06616798355455841 0.2993212400669633
1727125000.0 -0.06964642756446307 0.3128743236184898 0.15761947980290683 0.0109249728038929 0.15872224245498487 0.01013288310205569 -0.06380100185651949 0.2999615911363215
1727812000.0 -0.0675784999999686 0.314582359118836 0.15778100817512974 0.007813467755247461 0.15866339751031994 0.007003184778314004 -0.06115940134814029 0.30103857755057417
1728500000.0 -0.06538332901160206 0.31648991170786794 0.1575952414627041 0.0047941372513592055 0.15866388972747586 0.0036725431303112365 -0.058714340449974485 0.3019123511177145
1729188000.0 -0.06333977824571374 0.3180497932587827 0.15765397439584927 0.0019775988481675684 0.15838700156438865 0.0006033049248565419 -0.05622001256012364 0.3030833596100817
1729875000.0 -0.06116369865773832 0.3200056424699795 0.15768892333699158 -0.0010617897434999945 0.15814862297862398 -0.0024395355025191223 -0.05357793995213438 0.30420173932694794
1730562000.0 -0.058928755383016375 0.32171987819004955 0.15764024130573945 -0.004055718258487156 0.15793685005536875 -0.005547094577951167 -0.05095835693610418 0.3057493617059851
1731250000.0 -0.05656749395625611 0.3234429204629732 0.15755344903081386 -0.007036675202708937 0.15756448034674403 -0.008551256188226941 -0.04849778884924519 0.3071557924533695
1731938000.0 -0.05419543571294766 0.3249215825043351 0.15734750782127158 -0.009980061755166664 0.15704180306435822 -0.011483884322579019 -0.04598055370684274 0.30860112623281116
1732625000.0 -0.051901648384940505 0.32647912187835204 0.1571749159490467 -0.01299661753689618 0.1565957325158918 -0.01432907871411254 -0.043707852860294966 0.3102391259450223
1733312000.0 -0.04958124774387802 0.32817341202561323 0.15686974864679576 -0.015980674206268287 0.15615418009064036 -0.017188601785864798 -0.04143367270582799 0.3119553444033702
1734000000.0 -0.04717297124447179 0.3295951591942828 0.15655829230791668 -0.01898205622115064 0.1556351885982354 -0.019908138663718527 -0.0394662664008245 0.31356296400576333
1734688000.0 -0.04466926442176022 0.33103699488495 0.156265923144233 -0.02197774336518252 0.1551932835575867 -0.02269843139445658 -0.03762559741688331 0.3152826298248561
1735375000.0 -0.042264961675183364 0.3323686182609513 0.15566627056724275 -0.02516303348112351 0.15459184121078165 -0.025442369900355703 -0.035788193264616665 0.3168463362697038
1736062000.0 -0.039846451182706355 0.33367278363530634 0.1550914730054646 -0.02805005129057824 0.15395730240792563 -0.028065261546496217 -0.03395812498903718 0.31832291563165427
1736750000.0 -0.03740906878022012 0.3348998532119098 0.15448180011728202 -0.031047721106235486 0.1534182925404812 -0.03082089356255663 -0.03238285599396597 0.3198486140852334
1737438000.0 -0.03495634391217223 0.33604491331815733 0.153623304976135 -0.03403550933335647 0.15272283967027037 -0.03362993250148301 -0.030871226655721656 0.3211747206281193
1738125000.0 -0.032592504339211466 0.3372036139320737 0.1528183988543266 -0.037060747075099335 0.15213385640615937 -0.036398752513212417 -0.029212063744370055 0.322340837869846
1738812000.0 -0.03015862314896899 0.33839208781797403 0.1518218252056386 -0.04004242290594305 0.15142466405789823 -0.03917918080767263 -0.027671178757022654 0.3231884541211121
1739500000.0 -0.027644540525999194 0.33933499373697706 0.15079884896656573 -0.042975147257339585 0.1506254112513884 -0.04212320453071209 -0.026357579329241057 0.32437607394929263
1740188000.0 -0.025253469293394542 0.34048902840250145 0.1497109857384996 -0.04596388887238345 0.14970574826486724 -0.04500089171890376 -0.024594000402743586 0.32530485645663365
1740875000.0 -0.022936856073652586 0.34149507125379225 0.14849860984664331 -0.04881786186304775 0.1488066740927452 -0.047949413382808885 -0.02287453030176278 0.3257879766100986
1741562000.0 -0.0205262471292965 0.3426347772023785 0.14718892807275827 -0.05177785147674573 0.14784257326449882 -0.05079479793111331 -0.020940812338711656 0.32627280503767325
1742250000.0 -0.018137121586139657 0.3434790025271057 0.145871497489434 -0.05453098479418437 0.14664813479305205 -0.05371198563109275 -0.01910934156389918 0.3267429105114917
1742938000.0 -0.01567060321514394 0.34454064696299713 0.14439042685385825 -0.0572138580951716 0.14543295240886628 -0.0566873144170331 -0.01709465097750852 0.32689630676448184
1743625000.0 -0.013076176039349486 0.34541458951757975 0.14294198131296937 -0.05979058622505107 0.1442009863797056 -0.05954039511809253 -0.015003634295104921 0.32714040524553045
1744312000.0 -0.010533616388816423 0.34628535956323037 0.14148458759876284 -0.06229168863770674 0.14280618177642768 -0.062350449985014635 -0.01277656534838453 0.32727509173966596
1745000000.0 -0.007914079033097281 0.34731784004966365 0.13986402017408078 -0.06489618806705423 0.14129303221921655 -0.06515594772191267 -0.010317707502224547 0.3270138003852047
1745688000.0 -0.005249793112856308 0.3481227605457115 0.13840577957585226 -0.06724795234183141 0.13974405863276199 -0.0678328886363393 -0.007777997132674415 0.32715963147577626
1746375000.0 -0.0025780650187030036 0.34897150038672464 0.1369144425313367 -0.06954096828811608 0.13818910025828227 -0.07050428815002831 -0.0051627452184384815 0.3272322575395526
1747062000.0 5.1139334194766044e-05 0.3497186155004991 0.13543714993881356 -0.07180297330707074 0.1365875938957243 -0.0729965983337402 -0.002311949849669342 0.3272755030472276
1747750000.0 0.002838594995069906 0.35031196941239967 0.13391810936352655 -0.07403743266753006 0.13486701398088008 -0.07550587925932173 0.0002331352656591763 0.3271217850097372
1748438000.0 0.005560630597856061 0.35092160457358795 0.13244209912138258 -0.07620928297473821 0.13314436533506016 -0.07791197164527745 0.003226427673506488 0.32727547301747445
1749125000.0 0.00830716168544324 0.35149389007357335 0.13105167304993964 -0.0785405174022114 0.13140834250964822 -0.08026070546810835 0.006256014726562101 0.3275600262155205
1749812000.0 0.011142768391652302 0.35194777647386055 0.1296091232600786 -0.08063187179992375 0.12972356755104192 -0.08239408271908552 0.009044016012656095 0.32763909930165447
1750500000.0 0.013731183773731417 0.35228796373951643 0.12822667958842024 -0.0827657094869945 0.12805008029711643 -0.08451558877176472 0.011839031123541092 0.3281315109885172
1751188000.0 0.016473106773234932 0.3525803288025104 0.12688176474487814 -0.08507581837112473 0.12637616446198646 -0.08664655530172169 0.01450949961361351 0.3285671051756541
1751875000.0 0.01911954000105861 0.35278203363623156 0.12545137087532865 -0.08727502427948138 0.12474742525745407 -0.0887867923013479 0.017304081243115374 0.329153473247883
1752562000.0 0.021835998115462465 0.35304253704646527 0.12404979445091932 -0.08953252043200148 0.12314782062235748 -0.09089210465303685 0.020044069140616044 0.3297307162001544
1753250000.0 0.024418467804269883 0.3531467153351533 0.12271599674675061 -0.09184834439595264 0.1216302920208493 -0.0929631433170029 0.022412229492213682 0.33062553292264735
1753938000.0 0.027072592092686632 0.3531798086056684 0.12115618929231421 -0.09420548829808441 0.11998411494100936 -0.09499955258281015 0.024862613420258268 0.3311024165097997
1754625000.0 0.029674001617404647 0.35340055435299217 0.11965450688691286 -0.09651626529857973 0.1184668814688497 -0.09719524727560454 0.02677439930787344 0.3319168430023241
1755312000.0 0.03224759697510813 0.3534614886929849 0.11798844948897616 -0.09898428238774577 0.11684517371412283 -0.09933811380462478 0.028906446444758795 0.3324993032288049
1756000000.0 0.03471738241983399 0.35348400404513564 0.11634898889969494 -0.10135834754672189 0.11522538711066702 -0.10151762844207443 0.030549215638445384 0.3330215078223241
1756688000.0 0.03745430619527271 0.35357836891626726 0.11442778733107191 -0.1038460591605056 0.11347295133334785 -0.1037096920224947 0.032559215896429516 0.3338277700025227
1757375000.0 0.04000408870197799 0.3536266127893081 0.11253844474939943 -0.10604884126268588 0.11161194549512561 -0.10602068679573187 0.03407078189866417 0.3342400577564983
1758062000.0 0.04249215212555544 0.3535959375341492 0.11046862328180643 -0.10839260405908578 0.1096983279935454 -0.1082119632107178 0.03577529834648554 0.33449605601128407
1758750000.0 0.04496515053669585 0.3536502098104215 0.10832049010059853 -0.11062351038366094 0.10771516148812264 -0.1103636154014445 0.037399769020406516 0.3347070544714142
1759438000.0 0.04764142195406467 0.353772524457611 0.10604373975575761 -0.112846699527464 0.10559839419017246 -0.11253427409061177 0.03893350869692044 0.33475786525677725
1760125000.0 0.05018329434112091 0.3536404379474155 0.1036705175298751 -0.11493415717460824 0.1033487420085324 -0.11459588248811287 0.04069034596519983 0.3344318649309934
1760812000.0 0.05287890037568412 0.35372011474614823 0.10126722683118983 -0.11702161887240566 0.10097338154002836 -0.1166943934626554 0.04254214162921626 0.33449616832417906
1761500000.0 0.05530823444551048 0.3535561363351453 0.09860800190379701 -0.1189278033451133 0.09856748969565039 -0.11854405100154333 0.044306275824609435 0.33366250538240977
1762188000.0 0.05815600784940403 0.3535934021186708 0.09596779223155952 -0.12076292793656909 0.09603441612437588 -0.12046246561984762 0.04609882136136974 0.3332257246323007
1762875000.0 0.06069878346153567 0.3534173194685896 0.09349598665080618 -0.12250346926212947 0.09351321293720034 -0.12220620384509807 0.04817797662603408 0.33260144310175793
1763562000.0 0.06316725923637476 0.3530251341391074 0.09075371898893363 -0.12408485984849289 0.09096978518734437 -0.12385671220896953 0.050496949003219736 0.3317925518831582
1764250000.0 0.06577033853822448 0.352677232184239 0.08812200755708094 -0.12574677116460564 0.08845464963098781 -0.12532489913883293 0.05242708302087402 0.33111968124729146
1764938000.0 0.06823534407887286 0.3523304866229421 0.08560717796481067 -0.1269838496407919 0.08589704159074303 -0.1268494959747094 0.054524316968810826 0.33015844674492634
1765625000.0 0.07059797314505425 0.35190363914008366 0.08297493891381451 -0.1283835229399945 0.08335163717716423 -0.1282067777431694 0.05684315111374355 0.32914885232815955
1766312000.0 0.07299794485355719 0.35140549599605475 0.08041690518146939 -0.12951847624389762 0.08081662153859459 -0.12950686434969685 0.05894783467179566 0.3281314559794759
1767000000.0 0.07524004861270096 0.3507351421366374 0.07789804925872841 -0.13075043292410457 0.07840363942023806 -0.13072239952554124 0.06122458302346312 0.32722544954398464
1767688000.0 0.07741867108307462 0.3501577816813603 0.07543287274568589 -0.1319084347755207 0.0760322863277034 -0.1319698630123766 0.06345397500688885 0.3261688193182247
1768375000.0 0.0795226299341475 0.34936975098504514 0.07287369926231518 -0.13306467684128964 0.07355531437332291 -0.13318925750415658 0.06573772364744236 0.3251243081242278
1769062000.0 0.08166766868725772 0.34876466835215303 0.07054962578382783 -0.13405238294416605 0.07117330264814657 -0.13447302801867433 0.06811792077503954 0.3242081241710143
1769750000.0 0.08372249646973427 0.3478380820342829 0.06817325106479215 -0.1351128876264143 0.06883371136804475 -0.1356717384546058 0.07037453883457653 0.3232065547682083
1770438000.0 0.08587505293649376 0.3471726557144017 0.06581462379414695 -0.13607881604008507 0.06642528143597193 -0.13690568460777744 0.07257216790181668 0.3223717632079706
1771125000.0 0.0877517249754814 0.3462795551093623 0.06355455028599613 -0.13717435958315405 0.06397279001545286 -0.13812390375061182 0.07476840052054645 0.32134031004959823
1771812000.0 0.08975538290752327 0.34544314715080165 0.06117854095355269 -0.13814386975861254 0.061520376483313315 -0.13929910424855496 0.07703616958949437 0.3206922261945831
1772500000.0 0.09188813310934645 0.3446364310677819 0.05892045939291677 -0.13931345343812493 0.05899243147132212 -0.1405796627819032 0.0789878542465497 0.31982765039836314
1773188000.0 0.09398580252279917 0.34387121407682397 0.05643834968972747 -0.14049456292252033 0.05646841719641731 -0.14176665219470633 0.08103828164404112 0.31934137695834547
1773875000.0 0.09593638030282403 0.34307025091622506 0.05399343233483635 -0.14140778681190969 0.05374956563622796 -0.1429886480774114 0.08298563492909732 0.3185737860401518
1774562000.0 0.09796641035066642 0.3423241753117338 0.05139881923405543 -0.14256564987032513 0.05109432529168826 -0.14406999784464838 0.08478206074796597 0.31791121493004004
1775250000.0 0.10012516681443014 0.34136193173216856 0.048917826020430946 -0.1437255144821751 0.048253980499448935 -0.14512018749540415 0.0865121297940399 0.3175212930063852
1775938000.0 0.10219208852898728 0.3404550302364533 0.0463646103323601 -0.14485481904075367 0.0453695302391946 -0.14619618049713304 0.08812091212782328 0.3168581113738636
1776625000.0 0.1045588988601691 0.339590799246332 0.04352363798904094 -0.1459365436360426 0.04240980459661334 -0.1470847079571982 0.08970990509219627 0.316200370280661
1777312000.0 0.10670064124259838 0.3386279327350086 0.04079114870377607 -0.14699281934599942 0.0394773499663776 -0.14796414504148228 0.09123477908001154 0.31556220569786947
1778000000.0 0.10887045785584541 0.3376294709792746 0.037969473003440786 -0.14803869874268177 0.03650196875845238 -0.1486518855238419 0.09265064423512862 0.3146909290470991
1778688000.0 0.11095535839234001 0.33668652388968595 0.03514995448650357 -0.14897068896262347 0.033496449288907736 -0.1492869744172867 0.09411783738012872 0.31403765130807193
1779375000.0 0.1134145339411131 0.33543442861083506 0.032138096084564874 -0.14970978835452448 0.030529873404032692 -0.14975130493068922 0.09554601464184127 0.31315463936241494
1780062000.0 0.11551524493526473 0.33451515474450083 0.029158970543355506 -0.15044881587880926 0.027588939229580237 -0.15021243850760702 0.09701091778003655 0.3120436263219402
1780750000.0 0.11757687196888107 0.3333188958622484 0.026025638091933243 -0.1510060272642869 0.02462143088501291 -0.1505388899016713 0.09856751250879692 0.31096142010338923
1781438000.0 0.1196576996752773 0.33227519138719747 0.022998351408606534 -0.15161642071574402 0.021747854611085485 -0.15090680181553578 0.10014841693122663 0.3097465466309834
1782125000.0 0.12181134376137771 0.33110679604050264 0.019928252601213423 -0.15211380286842022 0.018867083232875073 -0.1511811825842357 0.10177692557644166 0.3086349232958934
1782812000.0 0.12381981657457755 0.3299462080792715 0.01685384945172723 -0.1524242807172234 0.016061907247924355 -0.1514496118903381 0.10344095657078149 0.3073808411803835
1783500000.0 0.1256977312309536 0.3287734889832978 0.013788938345994598 -0.1527845414359202 0.013207113856187433 -0.15164103770764534 0.10530327469656994 0.3060733032017146
1784188000.0 0.1276740329335591 0.3276143439667088 0.010661978688040617 -0.1528873319776368 0.010476220477803961 -0.15190659290242323 0.1070094730180626 0.30490570548100865
1784875000.0 0.1293983722616173 0.32641585012317015 0.007635196528235266 -0.15291514882694116 0.007730360484151327 -0.1520280588983323 0.10877738378167578 0.30365463613972876
1785562000.0 0.13128556533081992 0.3252734095048089 0.004683791659886965 -0.15298383830704249 0.004992638232039762 -0.15219494245760534 0.11037190990039376 0.302649299975656
1786250000.0 0.13313403340636526 0.32424132353819984 0.0015905352676781137 -0.15307046750062192 0.002229501603281069 -0.15244681492424966 0.11204296303758753 0.3012445936544366
1786938000.0 0.13494521014550945 0.32332048146945414 -0.0013589927415683532 -0.1528964459075733 -0.00047210619170358743 -0.15255203598022624 0.11377788861472148 0.30038080775672477
1787625000.0 0.1366071422598861 0.32229516377974204 -0.0042352647895035735 -0.15278425508598056 -0.0033445842461325144 -0.15265204004867364 0.11531926222511238 0.2992210814929244
1788312000.0 0.13851556357524714 0.32128085349989083 -0.007087879634313212 -0.1526008791776976 -0.006272292666487409 -0.15274755037518137 0.11682994509719263 0.2981246128770528
1789000000.0 0.14014794572198352 0.32040714338297754 -0.00993576264362674 -0.1523751669894102 -0.009137436676282914 -0.15275702593677784 0.11823613677879069 0.2970297819914996
1789688000.0 0.1417929131925731 0.31930683369657503 -0.012827202806961695 -0.15211431100581382 -0.012120403077257435 -0.1527006181080375 0.11962221559201854 0.2959818351731742
1790375000.0 0.1436991418755319 0.3185151898398496 -0.015733133844635205 -0.1518708503219031 -0.01511762682496599 -0.15271414953133824 0.12092381095271504 0.29482286183877865
1791062000.0 0.14550553643120467 0.31750066615376926 -0.01852553255538999 -0.1515264257967461 -0.018188675320129053 -0.15247017705060822 0.12237312424153247 0.29371680079274276
1791750000.0 0.1472408377567816 0.31657271751935456 -0.021366633273071766 -0.15112987985894094 -0.021232218204188413 -0.15222554222587742 0.12382668494342014 0.2928482216338002
1792438000.0 0.14895337027777114 0.3156995001256031 -0.024175132276723656 -0.15073042793452004 -0.024349363500541503 -0.15188333321141828 0.12492108065341044 0.29186514188040436
1793125000.0 0.15063787567809006 0.3147196757577483 -0.02704183123809757 -0.15024037519166764 -0.027394041230917397 -0.1513821910074499 0.1262807380126882 0.2909527404908458
1793812000.0 0.1523784038357523 0.3138205069268593 -0.02991331909220203 -0.1497693618589093 -0.03038751204270124 -0.15083666045358843 0.12738170485941872 0.29009747164924826
1794500000.0 0.15403089584397292 0.3127630608580703 -0.0325302431624446 -0.14915127094217875 -0.03341278532640265 -0.15024170100425224 0.12844563496973063 0.2892651215651297
1795188000.0 0.15568902690816008 0.3117948209176589 -0.03539486880652845 -0.14862319510612162 -0.03632366675467224 -0.14957830154273694 0.12976895650901463 0.28848083925558515
1795875000.0 0.15730038201535215 0.3109654844601203 -0.03826841452191485 -0.14800221379411438 -0.03929941375469852 -0.14882880203347337 0.13069304617394037 0.2875793229026583
1796562000.0 0.15870355403231537 0.31007023656980565 -0.04105905244655241 -0.1473596933579866 -0.04209828469624323 -0.14788557978983766 0.1316620213609627 0.28685416294092475
1797250000.0 0.16028313648527004 0.3089836075038087 -0.04383276751857307 -0.14669308927828334 -0.04505258464825071 -0.14692122005245914 0.13266330357774 0.28591193357913924
1797938000.0 0.16151432969951549 0.3079650687987405 -0.04656231101474291 -0.1458336810417142 -0.04773366891671865 -0.1460743345171261 0.13348194238529665 0.28502728950816053
1798625000.0 0.16286970204386134 0.3071226488722086 -0.049431900536323736 -0.14496021833858705 -0.050569662961011556 -0.14505895939358548 0.13448441959775045 0.28396214827955957
1799312000.0 0.16421356622391978 0.30601250710119204 -0.05223425030512329 -0.14398292980502236 -0.05329544432470075 -0.14406307272699354 0.1355861339178906 0.2828629543957135
1800000000.0 0.16551214903010697 0.3050558170329046 -0.055141061707154285 -0.14317534931962878 -0.05611668986366459 -0.14293245954496003 0.13679612717182538 0.2818685188733426
