! Created with skrf 1.9.0 (http://scikit-rf.org).
# Hz S RI R 50.0 
!freq ReS11 ImS11 ReS21 ImS21 ReS12 ImS12 ReS22 ImS22
1800000000.0 0.15967899845320355 0.2894030872330629 -0.056524634807725946 -0.14327946148696016 -0.05776416026150725 -0.14272800057064097 0.13350818231663922 0.28650406406802553
1801062000.0 0.16126186611346352 0.28793852040022 -0.060967741785224565 -0.14152826502064697 -0.06190344415872878 -0.14096657030893253 0.13568214918945407 0.2851269723491951
1802125000.0 0.1631246085469823 0.2864817778546615 -0.06524838336555913 -0.13982561601365093 -0.06617903777723 -0.13913151050592568 0.13732477849250585 0.28410231138637004
1803188000.0 0.1647492890798351 0.28508298356468514 -0.0694997600449422 -0.13795879896303637 -0.07028499041652816 -0.13721905343294924 0.1391711850296339 0.28288936328368464
1804250000.0 0.16661708178669796 0.28366100403587047 -0.07376192248125174 -0.13583713690315685 -0.0743757829554261 -0.13517227194852516 0.14087700649241724 0.2816896056484481
1805312000.0 0.1684006782425635 0.2823183115819775 -0.07806117626481351 -0.1336546048704404 -0.07852826989454079 -0.1330587093436487 0.14299090699171474 0.2807218972600404
1806375000.0 0.17021768527538472 0.28091277569242296 -0.0822564694974936 -0.13117865414955543 -0.0826829254729182 -0.1307502640370119 0.14517594879732648 0.279531497594862
1807438000.0 0.17200973783220505 0.2794947255248489 -0.08639272161021908 -0.12876469222640205 -0.08664810943622987 -0.12835375348274106 0.14713116668155657 0.27860589489835813
1808500000.0 0.17402085677210238 0.2781359522200891 -0.09035880552107081 -0.12604239888179328 -0.09067269742909109 -0.12579918109196314 0.14889692136705465 0.2778380807662994
1809562000.0 0.1757169736587875 0.27674937593116894 -0.09422244688726812 -0.12320154849411945 -0.09447235930305282 -0.12305351260778485 0.15072789643207224 0.2770480620651604
1810625000.0 0.17763708453747684 0.27552085208463745 -0.0981202454224627 -0.12029943302810117 -0.09836726762756982 -0.12003417630701183 0.1528910254831377 0.2765507863158632
1811688000.0 0.17938155381338491 0.2742303066979943 -0.1016987867717845 -0.11723589319737669 -0.10203046597363626 -0.11697069404729392 0.1543266505738282 0.2757609599806173
1812750000.0 0.18123813525610913 0.2726425517440729 -0.1051808217058693 -0.11389302411685472 -0.10562978782560901 -0.11370651615670123 0.15592133289708301 0.27518685313088304
1813812000.0 0.18289259379488113 0.2715616336061779 -0.10865720579483965 -0.11062285796666667 -0.10907664698610486 -0.1103183705204159 0.1572265912245449 0.2741913011978458
1814875000.0 0.1846321464211325 0.27031978745511265 -0.11209630095236109 -0.10716111767292309 -0.11249342926032481 -0.10685743153882417 0.1591779752721252 0.27342660620369025
1815938000.0 0.1861828740826282 0.2691895144800683 -0.11536755063774423 -0.10355044654837087 -0.11576487707531491 -0.10308737053048286 0.16080806426719485 0.27261314665409553
1817000000.0 0.18770842401878438 0.2679450453372394 -0.11851902244163427 -0.09980020564393019 -0.11893518014395563 -0.09943688445575784 0.1628956403582812 0.272064480139351
1818062000.0 0.1893584645291984 0.2668199452951765 -0.12166556348420074 -0.09595383466228621 -0.12192359580638112 -0.09562924031739223 0.1646388367143705 0.2714696594377887
1819125000.0 0.19090222367234497 0.26567134041670815 -0.12447939562857917 -0.0920722540580763 -0.124813343719005 -0.09172447130652099 0.16654316150146345 0.27120223697135254
1820188000.0 0.1923662108658665 0.2646463618865524 -0.12729420462435265 -0.08807309205621525 -0.12757654421707668 -0.08771321475990246 0.16859986619101391 0.27076480415134274
1821250000.0 0.19388173277235649 0.263614603683549 -0.13007434639112775 -0.08391365546191076 -0.13015995123091512 -0.08364560400440546 0.17068804840940568 0.270564869629147
1822312000.0 0.1953342231181587 0.2626748425048799 -0.1325448785942106 -0.07976525028741117 -0.1326542935550227 -0.07946364716615364 0.17230450606851502 0.2705980015907672
1823375000.0 0.19683501815800009 0.2618845102982985 -0.13479652792465033 -0.0754837981703203 -0.13504433334684043 -0.07535252762813445 0.1741397110542526 0.2704407883029359
1824438000.0 0.19823148285982434 0.26085417421697177 -0.1369890827767787 -0.07121594565904976 -0.13730123868002372 -0.0711276245987395 0.1762029099544213 0.27026138576630127
1825500000.0 0.19975738123577386 0.26017712637428525 -0.13913682005410852 -0.06694126769605267 -0.1394566530178658 -0.06693478836523045 0.17824046507111738 0.27017159330107005
1826562000.0 0.2013485320457564 0.259399674204075 -0.1409367230491681 -0.06272447042990445 -0.14154525087296688 -0.06265108322893644 0.18016038142344576 0.26994241402427943
1827625000.0 0.20269669293027706 0.2587275996173552 -0.14279248023391028 -0.05837837535528616 -0.14350379326680657 -0.058243259026785905 0.1825047947428714 0.27007240725788006
1828688000.0 0.20407237512532833 0.25798885393615306 -0.14458612635609067 -0.05405841968269351 -0.14540853886381586 -0.05382338710958504 0.18467830167301463 0.27010797458621805
1829750000.0 0.20538497826558008 0.2571495568802363 -0.146052451637118 -0.04979229287331543 -0.14703383636804282 -0.0493407445013835 0.18665994345016693 0.26995945921925435
1830812000.0 0.20689892190863002 0.25643876633757545 -0.14751541959601705 -0.04542567258701135 -0.1485671949627552 -0.04480209938785425 0.1887483271033376 0.26983112609522975
1831875000.0 0.20827703967692596 0.25554262350947277 -0.14880403769876904 -0.04099791812622905 -0.1499405080197745 -0.04015401629187459 0.19043777868334463 0.2695394273649853
1832938000.0 0.20935314790212714 0.254777790520898 -0.15011922558206195 -0.03653988447121156 -0.15099390307501379 -0.035371641259435545 0.1924145863035976 0.26914042021280427
1834000000.0 0.21076959498293693 0.2539194353649992 -0.1511247615195583 -0.03168927538038818 -0.15182551025485905 -0.030363112607067744 0.1942169605809603 0.2681460574612403
1835062000.0 0.2120635132238809 0.25293592718135643 -0.152011966615766 -0.026816694250726664 -0.15230552066158032 -0.025308243000176422 0.19631104133343663 0.2668718524503737
1836125000.0 0.213144705726293 0.2520734359185409 -0.15264109666517367 -0.02182161679502535 -0.15262601270961484 -0.02029901216860517 0.19852996614977889 0.2656145569498929
1837188000.0 0.21447748480136036 0.251150178244366 -0.1531683737558919 -0.0168466711868339 -0.15275426349960525 -0.015228241704843831 0.20094840046273013 0.26416735059961544
1838250000.0 0.21588685590451717 0.2502537951127782 -0.15353575586818632 -0.011707847668937751 -0.15268306789356859 -0.010297676715164092 0.2033625564815734 0.26270220499977903
1839312000.0 0.21717018366588878 0.24940194524698633 -0.1535155795773296 -0.00639731278999674 -0.15246450284065738 -0.005328435705787144 0.2062454252940025 0.26134123012379334
1840375000.0 0.21865008403993955 0.24867197254487267 -0.1534159438322206 -0.0011215560040584488 -0.15206418258568233 -0.000536260663787032 0.20926515993777797 0.26021440097089443
1841438000.0 0.2202809332462296 0.2480515574025203 -0.15307108083889293 0.003979423705538594 -0.15167808027496432 0.0041607472493737216 0.21213203147920506 0.2593008685471186
1842500000.0 0.22190449371138155 0.24725717719260706 -0.15230787968491927 0.009083171207353127 -0.15117685694750946 0.008761786324683525 0.21505698218244707 0.2581145325516035
1843562000.0 0.2236572844390364 0.2464822721185361 -0.15142584283325397 0.014155609846497602 -0.15065126646598243 0.013214686244884647 0.2182056497503381 0.25707881750963474
1844625000.0 0.22542478197084326 0.24550207076304592 -0.1502796392092861 0.018959864084160644 -0.15007820483426215 0.01783671494599051 0.22118786895984005 0.25627929454926596
1845688000.0 0.2274094092569558 0.2445780820354204 -0.14920491748998585 0.023709741713547124 -0.14957785848262012 0.022405479774529908 0.22425531049433048 0.25541484521755115
1846750000.0 0.22926422748489564 0.2434041922100751 -0.14788866195032607 0.028188390877355002 -0.14892049888958234 0.027050174304571985 0.22744844694570912 0.2545025358135444
1847812000.0 0.23095830769164574 0.24228492632640689 -0.14658122365243198 0.032529131161747056 -0.14814306833284965 0.03182511976867481 0.2305668459943233 0.253647354407376
1848875000.0 0.23276716349906693 0.24116172678221126 -0.1452344580990548 0.036784569912832 -0.1471664160265896 0.03669169251930435 0.23375660041866192 0.2527926571612933
1849938000.0 0.23430915382131876 0.24011468578315084 -0.1438390142777222 0.040909533990049124 -0.145973161200972 0.04153859872028169 0.23667959672643224 0.25193273342627914
1851000000.0 0.2360120784972467 0.2390644188078894 -0.14244997282307167 0.04509392428350213 -0.14440129972139934 0.04633172984828276 0.2395599507316162 0.2507960609773522
1852062000.0 0.23790006900389066 0.2380411310856007 -0.1410018106138262 0.049012948066933376 -0.14245425981931492 0.05114837803498474 0.24203959643905776 0.249459481210681
1853125000.0 0.2396303041201285 0.23714605852799744 -0.1394149860249042 0.05309445586337726 -0.1403111266762562 0.055653209897734014 0.24450868836813336 0.2477516327390381
1854188000.0 0.24163089289061473 0.23615384974324072 -0.13784295475304206 0.05720129102341081 -0.1378904950930425 0.05993802809074049 0.2467362683522169 0.24566754938282204
1855250000.0 0.2436056624282746 0.23521180180124887 -0.13589737748105984 0.06115554149245777 -0.13524203305827073 0.06393185461845576 0.24906612787610752 0.24313862320249985
1856312000.0 0.2458681576727828 0.23397889183848805 -0.1337144087347552 0.06538016608468784 -0.1324220414800413 0.06773105842907451 0.2517479532673911 0.24023254447589593
1857375000.0 0.24814815635071757 0.23293095000815292 -0.13142900107662084 0.06942564425569006 -0.12973290850711441 0.07132390935000726 0.25450841076655534 0.23728114840730732
1858438000.0 0.2503867005221662 0.23163591441410858 -0.12908193835530668 0.07367615670854015 -0.127036588989095 0.07475658912140681 0.25746436377572374 0.2342393761464703
1859500000.0 0.25299300031753974 0.23018447594218022 -0.12653189783892027 0.07766445218215098 -0.12436272849576419 0.07812672414308393 0.2607127320870874 0.23119827876901172
1860562000.0 0.2552458076772369 0.22853509433377933 -0.12361437100482464 0.08164664012377325 -0.12166113975997689 0.08149868345281396 0.26405430916448397 0.228576724846295
1861625000.0 0.25775999061510696 0.22683369733655093 -0.12065454178398556 0.0856484539214996 -0.1190454210016792 0.08476863503438983 0.2676253311163806 0.22601447980545833
1862688000.0 0.25993158117380205 0.22497466737461436 -0.11750283113958454 0.08936744195146704 -0.11639253412958057 0.08828926754787049 0.2712037928109811 0.22353253973052686
1863750000.0 0.2623005261885326 0.2230920329417069 -0.1142494694323044 0.09305236764828728 -0.1137033853240597 0.09178731009484423 0.2746346547342666 0.22138817103985312
1864812000.0 0.26473684286445875 0.22104895278469294 -0.11088051362554027 0.09659207803160717 -0.11082840284260305 0.09539473132250081 0.2781045609927502 0.2190608068580829
1865875000.0 0.2670164651236233 0.2190204589723272 -0.10737066123799809 0.09987606120068172 -0.10786217894518879 0.0989562799362078 0.2817271130268233 0.21702750479234334
1866938000.0 0.26927829194861197 0.21705307437071053 -0.1037755392040315 0.10298393289759197 -0.10463299401277212 0.10252568347623253 0.2851082438886211 0.21522745180763767
1868000000.0 0.27162976185916465 0.21515209642212588 -0.0999352078661425 0.10598448404909823 -0.10110102793169871 0.10596566824784323 0.2884153268240465 0.21304590665853548
1869062000.0 0.2740757593418318 0.21317233891523635 -0.09622316319541174 0.10866146658670586 -0.09738949412445262 0.10907246620620516 0.2916116549137536 0.21109835258034368
1870125000.0 0.27658297621760136 0.21117716924153704 -0.09240819020045987 0.11107896400759786 -0.09349394506583428 0.11204287843789568 0.2945977163256754 0.2089518436835821
1871188000.0 0.27928682386704645 0.2090000156128656 -0.0887564169951533 0.1135879506246214 -0.08946966582212673 0.11466644091652746 0.2971634303091781 0.20652133181837629
1872250000.0 0.28198971537124895 0.20677667270751637 -0.0850466851287338 0.11573142464315542 -0.08541925725147381 0.1169665663607212 0.299623473604588 0.204108752920394
1873312000.0 0.28473183128593244 0.20438156589504541 -0.08135694346420784 0.11765890086437097 -0.08130438615190559 0.11905649569255378 0.3015576326740735 0.20124564774477283
1874375000.0 0.28747327488558616 0.20183585801919054 -0.07762994544343262 0.11955571918827985 -0.07735539620360812 0.12088254493892821 0.30313087723731924 0.19804291615555633
1875438000.0 0.29010818644915776 0.19915625611573398 -0.07403666201238317 0.12132794800598168 -0.07334125799751805 0.12254208530354779 0.30466414701423894 0.19434017229258135
1876500000.0 0.2929084725423205 0.1963946188148417 -0.07033915546165036 0.12293541139743579 -0.06951314157204015 0.1241166243370616 0.3061355392875668 0.19011041038961168
1877562000.0 0.29552237748340143 0.1936134824376243 -0.06678410632296124 0.12460272708575787 -0.06572013897373721 0.12551961341280818 0.30780545837696816 0.18559695957666514
1878625000.0 0.2979224878616639 0.19065475258197176 -0.06302822253320305 0.1262160388573841 -0.061956936171377056 0.12696935578216936 0.3094601347456157 0.18140789443182417
1879688000.0 0.30014559445253314 0.18762572197604777 -0.05927531488941677 0.12766351576374846 -0.058087687937229786 0.1284142093551961 0.3118391822273094 0.17683416360445645
1880750000.0 0.30254989452727854 0.18467969927616204 -0.05544516293149103 0.12921330063253045 -0.05420171920906926 0.12969422748116682 0.3138987062246484 0.17232957022316497
1881812000.0 0.30475922260220917 0.1817919763951519 -0.05143809642977772 0.13071904617626626 -0.05015061268928816 0.13104043662165293 0.31621780261790255 0.1682554349457344
1882875000.0 0.30701117663330857 0.17874361428563265 -0.04714287690978933 0.13216831210572402 -0.04601016435091731 0.13220709977712305 0.31864491570723513 0.16455655003733066
1883938000.0 0.3091201007960986 0.17575248903406265 -0.04303039768507002 0.1334184021167954 -0.041798005651637174 0.13320417945639995 0.3206872682700315 0.1607807618727308
1885000000.0 0.31138732965451926 0.17267800182811024 -0.03867213024015737 0.13455455292432528 -0.03754453328538687 0.13402694950611327 0.32270064118208025 0.1570195398393872
1886062000.0 0.3135580779925886 0.169370485086758 -0.03430951767464401 0.13542518541568452 -0.03328791273645723 0.13470767040184434 0.32466793237913005 0.15364171383067524
1887125000.0 0.31570382585523293 0.16605687155389506 -0.02974011436930258 0.13612628965173437 -0.02905652365119607 0.13513036281172278 0.32647018109991827 0.14992926200143775
1888188000.0 0.3180975246424429 0.16263636427970465 -0.02522907802655989 0.13663510581007032 -0.024950633412116587 0.1355632193678431 0.3282676189622659 0.1463762640195406
1889250000.0 0.3202002879986391 0.15879062722664553 -0.02074647135458874 0.13677953692642786 -0.02082804639682998 0.1358008542503492 0.329803537222318 0.14272723185989095
1890312000.0 0.3221452768240964 0.15517543793236313 -0.016364646544286474 0.13670939126910736 -0.016800351477801054 0.1358753651280757 0.33127544081364885 0.13903857673414982
1891375000.0 0.32415775287751925 0.15130119128877087 -0.012067220802629086 0.136290043875223 -0.012888632162707327 0.13586591993663066 0.3323718241527256 0.13518684353485194
1892438000.0 0.3261065036408679 0.1473368459154364 -0.007982980872625603 0.13583066390562 -0.008865793480491454 0.13575072311337164 0.33327182762519925 0.13133752469719487
1893500000.0 0.32791788171296643 0.14346434993779764 -0.0039675666900101025 0.13528427946702293 -0.004973168022612009 0.13565262697042563 0.33398649177795886 0.12768749119160797
1894562000.0 0.32937564154794785 0.13961003099172947 -0.00010450122868820717 0.13454092527212727 -0.0010057330740455945 0.13540008030322068 0.3343960271588299 0.12340920078582665
1895625000.0 0.3308851645156835 0.1357175145994386 0.0036335433095061043 0.13388286690241735 0.0030864306363183516 0.13512532627315282 0.3346839848733103 0.11909380176713742
1896688000.0 0.3324418932040784 0.1319828246174795 0.007187734903431332 0.13314856702124284 0.007095760516686449 0.13464995489106876 0.3349770181885202 0.11447876436332992
1897750000.0 0.3338236334466998 0.12832489460326646 0.010788180482016884 0.1325537131784181 0.011143326932624877 0.13402032857869758 0.3349900193275801 0.10989556352195129
1898812000.0 0.3351586252786403 0.12467498670753825 0.014269056696633245 0.13183948578713567 0.015172226843255142 0.13316333119657917 0.33536486557875306 0.10489742684673131
1899875000.0 0.3363700652105737 0.12106079056480543 0.017727048745816806 0.13112817091350973 0.019083537317834163 0.1321785274789541 0.3355325549368459 0.10006261039552974
1900938000.0 0.33763982491483346 0.11769980972828632 0.021228754442147085 0.1303573712287974 0.02294011331240336 0.1310487192272721 0.3362762906359124 0.09559240925992722
1902000000.0 0.3388153036138446 0.11398099016276592 0.024978886585267753 0.12946711991036713 0.026729482007803118 0.12973788198532918 0.33687687642061737 0.09065154795295192
1903062000.0 0.33990297187125923 0.1103753720716147 0.028612018834563505 0.12854110054006407 0.030349685725209796 0.1283648344723539 0.3375622066125192 0.08632821698884006
1904125000.0 0.3410232666838753 0.10669454354761722 0.03235574597878092 0.12738464259707016 0.033949596398513575 0.12693672824370617 0.3377044838074642 0.08193131124996963
1905188000.0 0.34179097318128254 0.10304618180064043 0.03617688289347173 0.12616082347978472 0.037352272820819016 0.1253564009190346 0.33811678630034436 0.07787635146795642
1906250000.0 0.3425433702452067 0.099502801714339 0.039882178831222595 0.12476050867603845 0.0406948948874424 0.12381546727544221 0.3384489147565306 0.07356250019563433
1907312000.0 0.34315500224902096 0.09571142030743952 0.04353739563801908 0.12320742392294252 0.04398083555790875 0.1222315948266733 0.3383909105954163 0.06946651121115478
1908375000.0 0.3436809751444299 0.09206768125860768 0.047157809557954206 0.12166585755191597 0.04717649500728224 0.12067895698588775 0.33831590906793646 0.06560877288453641
1909438000.0 0.34382585249244463 0.0886291149738598 0.05055797883333627 0.11984754454383288 0.05045182733378122 0.11905583325209143 0.33806225414730434 0.06159585248220961
1910500000.0 0.3441804428042894 0.08498221184812266 0.05398997769443788 0.1178127317098842 0.05367054286681053 0.11737013322525681 0.33747834527029663 0.0577518430308997
1911562000.0 0.34423317003970266 0.08155635215531093 0.057168870759585294 0.11578720082509783 0.05684377024201353 0.1155405415178809 0.3367231587090508 0.05361809302088124
1912625000.0 0.34424390122908705 0.07807154881649185 0.06026626189585433 0.1135908443242162 0.0599877397131975 0.11360538601285038 0.3357674862860377 0.0495956418680286
1913688000.0 0.344138346275645 0.07462982352081565 0.06317313967407936 0.11123095191024597 0.06310915605748481 0.11146429726804152 0.33446435518981954 0.04553579835085548
1914750000.0 0.3438997744582106 0.07122877847954397 0.06605699556635732 0.10891473079306409 0.06622374887354664 0.10923838780755582 0.33327155385748314 0.0412846237554616
1915812000.0 0.34368557084700724 0.06776604247092259 0.06887902509075697 0.10645346377397416 0.06916726642035004 0.10686400409909763 0.3318130551267831 0.03701748990363516
1916875000.0 0.34329745863630107 0.06430493711354295 0.07168423826960821 0.1039943705529557 0.07214245498362891 0.10433817697633832 0.3305971097730721 0.032805915337041504
1917938000.0 0.34295303512903536 0.060891846458624076 0.07439282512613592 0.10141707712202787 0.07499695365723484 0.10175187293630902 0.3291387489710863 0.028319351659864288
1919000000.0 0.34242918959329954 0.05753310892035943 0.07715319474095007 0.09887146964585165 0.07766877493722399 0.0990766380470344 0.32760119116385744 0.024030219790034495
1920062000.0 0.3418478303767189 0.0539330461866651 0.07971823059890285 0.0963295086328214 0.08033521563819786 0.09632014107382841 0.32645517034954447 0.01956312773477717
1921125000.0 0.3412459967219616 0.05061943863878379 0.08217457077964875 0.09360853381453971 0.08279728480214261 0.09355231056203141 0.3249637658316986 0.015400517858844465
1922188000.0 0.34064392567356994 0.04727779346295931 0.08462412935322886 0.0909269891142458 0.08527882099914076 0.0908119130778927 0.3240767289217772 0.01123552528533343
1923250000.0 0.3399824866974249 0.04370752762839559 0.08694221905814936 0.08807202511970917 0.08758180877212393 0.0879807873873169 0.3230259961187493 0.007366513976059352
1924312000.0 0.3391811557078674 0.04028020333646458 0.08906138708621032 0.08530771620230712 0.0897136344400039 0.08512421587432747 0.3219614641299402 0.003558526528666454
1925375000.0 0.3385196508410175 0.037187646779626285 0.09121681884069993 0.08235688129809561 0.0918394737161639 0.08223528724900972 0.32105374517275703 8.647301484545356e-05
1926438000.0 0.3377431176328835 0.03396152040040333 0.09314337020448861 0.07942470266049789 0.09383863181709376 0.07918224765565365 0.31970624180213797 -0.0035568292613378056
1927500000.0 0.336947611510701 0.030763354292578884 0.09504425296453672 0.07654914083523019 0.09576582649604237 0.07630537814002636 0.31863620410790194 -0.006901389544205967
1928562000.0 0.3361058672058949 0.027594566630463363 0.09685475152491407 0.0735550252364675 0.0975941278883922 0.07325718554728636 0.31722147016451235 -0.010041347654704179
1929625000.0 0.3351815739023169 0.024526510033518224 0.09862246095754727 0.07057797704532276 0.0992843032620687 0.07010074559948144 0.3157708483956409 -0.013425883564725133
1930688000.0 0.3341615346965666 0.021467692485561015 0.10023980537950579 0.0677736496281901 0.10083703150220508 0.06717657817750271 0.31431323529069666 -0.016258306191942427
1931750000.0 0.33299872837755334 0.018307896199570732 0.1018865079974079 0.06478482705995789 0.1023228466191114 0.06415630241926248 0.3127172519617801 -0.019413092225836658
1932812000.0 0.3318749414985236 0.015399564653623469 0.10335909510178697 0.06177763764826406 0.10372158457571225 0.06111110354468563 0.3107779261348973 -0.022246457834731
1933875000.0 0.33061076078088136 0.012456644377619758 0.10475035759197243 0.05871247697611074 0.10503360051564545 0.05813579238346311 0.30889773212811295 -0.025331098781211574
1934938000.0 0.32923987806441224 0.009483874228259652 0.10607205192230088 0.05562311399118931 0.10623540454470431 0.05500926718464727 0.306811709491013 -0.028224362977061247
1936000000.0 0.32786616625374326 0.006454143975217401 0.10723213145991654 0.05245029796727909 0.10737148423850407 0.05184904549549255 0.3047561780881899 -0.031018173475843618
1937062000.0 0.3265541679307345 0.0035754285239535145 0.10843073123378477 0.04910765616144131 0.10848352529843427 0.04866999813293594 0.30256282303359167 -0.03386619347039304
1938125000.0 0.3251038639353388 0.000692683600559362 0.10939370753971779 0.04577395526451372 0.1094753692588723 0.04526607816605477 0.30033442934413107 -0.0367979832471156
1939188000.0 0.32351066169339177 -0.002255777123484938 0.11040529896687426 0.04237707305759794 0.11041172626782385 0.041903286340707474 0.29807950494826135 -0.03955359815780763
1940250000.0 0.32202874817959004 -0.005146942727167023 0.11117694222492702 0.03886364055144068 0.11134198778481845 0.03844051982656968 0.2959289591204184 -0.04224413279921328
1941312000.0 0.32040916493514465 -0.008059554987442324 0.11194292916593457 0.03528283395554194 0.11201762586460226 0.0349356906664094 0.29348691686219663 -0.044910107245003474
1942375000.0 0.318609518091071 -0.010990015406987236 0.11244785140516429 0.03179585568440334 0.11255172885565437 0.031433296239215376 0.2913569605698084 -0.04751021979272678
1943438000.0 0.3167915879221687 -0.013938919309912055 0.11296675872154664 0.028261064874404558 0.11303413751088974 0.028013340685366893 0.2890213964380429 -0.04997483251610302
1944500000.0 0.31501930862569644 -0.01678521173742937 0.11326294939792386 0.024958340176135064 0.11334260252321503 0.024603436848683838 0.2865548959556315 -0.052260498590249574
1945562000.0 0.31294194226640826 -0.01947204999749597 0.11337225165303809 0.02166482005093402 0.11342362944818059 0.021398154405473803 0.28418993108100954 -0.05440286279932051
1946625000.0 0.31083347727023 -0.022300546787050464 0.11334408448894523 0.018387957325031054 0.11347999703934199 0.01821171973578071 0.28162936599573346 -0.05639735227525857
1947688000.0 0.30870276327423607 -0.02506493803230889 0.11329145020385246 0.015255974199237458 0.11344843560697972 0.01512706949181402 0.27915073425010994 -0.058503554097997526
1948750000.0 0.306549675403523 -0.027603735281614132 0.11314065522834804 0.01217189274454109 0.11330250508111522 0.012088557282223519 0.27647501627809545 -0.06057647770127082
1949812000.0 0.3041748815175597 -0.03028547176545072 0.11284289899417131 0.00912679538793592 0.11307661185004597 0.009094781790393611 0.2738095622084124 -0.06256254471589869
1950875000.0 0.30224319743055056 -0.03287502029120289 0.11262223485070703 0.0061946151068381335 0.11299893401126858 0.006100115783802385 0.2711402451430197 -0.06446865597116623
1951938000.0 0.30004458449258825 -0.035425070973612915 0.11226187429510867 0.0032659762410919457 0.11284268159945664 0.003126675511811185 0.2685490986140002 -0.0663875465351133
1953000000.0 0.2979437486880867 -0.03797387337561146 0.11201830711398948 0.0002880650626169909 0.11265338603690195 7.866943640872395e-05 0.26606974284289914 -0.06821512022215852
1954062000.0 0.2959486069164275 -0.040627571094093304 0.11164950532764471 -0.0026121652565738902 0.112370363406311 -0.0029739690563916708 0.26359443556833745 -0.06998258828112151
1955125000.0 0.2939345460380404 -0.04306381082742482 0.1112220733997386 -0.00539742241431375 0.11202505525763487 -0.006048643803286282 0.2612358052366795 -0.0717995360453476
1956188000.0 0.29185348651376813 -0.04571999697824727 0.11083649986025788 -0.008190006514965353 0.11151562810361113 -0.009129886347188277 0.2587672726112322 -0.0734386973278899
1957250000.0 0.2899341922836995 -0.04833845857739396 0.11026041518062843 -0.011230521289553005 0.11079143777288031 -0.012309055868613613 0.25639779073374697 -0.0749296684946528
1958312000.0 0.2879310593961857 -0.0507432047633182 0.10950880306238306 -0.014143988636961745 0.10990343000714929 -0.01537051730945737 0.25403942556158243 -0.07644412273143686
1959375000.0 0.2856667116282628 -0.05318831037709537 0.10877460774163679 -0.017184644687576273 0.10882028967382151 -0.018495172265898245 0.25147081055071363 -0.07782761297267167
1960438000.0 0.28350721756232106 -0.055546303149136396 0.10795957353647088 -0.020266004205691166 0.10761701368045569 -0.02147226260071757 0.2489533366578216 -0.07909783579907444
1961500000.0 0.2813139072357913 -0.05793170263797385 0.1070118950874041 -0.023274161130926892 0.10629258925435568 -0.024417187160616464 0.2463300029666278 -0.08038070326177074
1962562000.0 0.2790805910816403 -0.06018713568589075 0.10598081561363566 -0.026330908652563916 0.10499556059022294 -0.027213408883599632 0.24355691167767493 -0.08150118274326586
1963625000.0 0.27689228365256163 -0.06231171466071676 0.10487361858866309 -0.029232233299355235 0.10370154046478729 -0.02984200349613013 0.24080507741105428 -0.08255952981387249
1964688000.0 0.27459776166221633 -0.06454492177528585 0.10361661471330234 -0.03225992628970086 0.10256619570011404 -0.032357241122177506 0.2378699120635383 -0.08370238743584771
1965750000.0 0.2725446255434742 -0.06647693128280364 0.102329965548681 -0.03507970877461342 0.10139924917977564 -0.034756497031605195 0.23482454920697213 -0.08468459509567569
1966812000.0 0.27035539170223327 -0.06853014460467305 0.10090743100174347 -0.03755214509511143 0.10033020268879088 -0.03711540862239174 0.23169442885340752 -0.085943720501009
1967875000.0 0.26835376313236364 -0.07056273285092615 0.09943466520087957 -0.0401237026573512 0.09924643770002237 -0.03951421152233605 0.2284953544507682 -0.08709342556486059
1968938000.0 0.26630323586887816 -0.07239225548403169 0.0978767945754837 -0.04251373383000784 0.0981378340685405 -0.04190888396659667 0.22549525346465576 -0.08832530375954857
1970000000.0 0.2643252109839796 -0.07451155041152423 0.09632524925365406 -0.044818372221919804 0.09695523297751334 -0.044372063551848986 0.22229348159078166 -0.08954450561121113
1971062000.0 0.26236198492265683 -0.07648022770934748 0.09480687532044142 -0.04705650141287451 0.09565523753270443 -0.04687740801423091 0.21954994753621163 -0.09118024715781244
1972125000.0 0.2603343209791044 -0.07835818183299223 0.09317036194096931 -0.04917643120126146 0.09422948241557955 -0.04938657813863179 0.21679450050876822 -0.0926158843906472
1973188000.0 0.25840964914562853 -0.0802502388253837 0.09175341924038663 -0.05127678248343262 0.09266654240841934 -0.05202651056747672 0.21431216356631774 -0.09410421824204594
1974250000.0 0.2563147772058882 -0.08211288775609002 0.0901460271300519 -0.05347973838262115 0.09098331735344281 -0.05441871216618841 0.21203492789180545 -0.09552274133373553
1975312000.0 0.25435290556301776 -0.08394700818067909 0.08865336605170496 -0.055549751759081625 0.08913117839494587 -0.056786638984019255 0.20991531395529775 -0.09696769433971583
1976375000.0 0.25227521879597387 -0.08553178329606505 0.08699517889650116 -0.05761811710522252 0.08723460084935729 -0.059037349971765 0.20796766262560498 -0.09837236762656368
1977438000.0 0.2501261738615672 -0.087192731457555 0.08539982202096014 -0.05956379063899108 0.08522031775144842 -0.061076621897962334 0.20619903729360528 -0.09944880019998316
1978500000.0 0.24807085809930657 -0.08860787901257189 0.08362151674218038 -0.0615320117782433 0.083127703022374 -0.06284561526650931 0.20453333766340873 -0.10048191380652725
1979562000.0 0.2459839421016496 -0.09012362661264064 0.08190195800880172 -0.06349964557070135 0.08105584801306813 -0.06457772341271129 0.20276431316563925 -0.10129345715504866
1980625000.0 0.24392837934423653 -0.0916267334230274 0.08003909184281262 -0.06543604338411516 0.07900133827612302 -0.06625779166410856 0.200975895495021 -0.1017182868928957
1981688000.0 0.2418429945898854 -0.09305836537964265 0.07801756568452793 -0.06735965188131669 0.0769960527645578 -0.0678246040916351 0.19897817967352008 -0.10222860311560916
1982750000.0 0.24001485647802603 -0.09443404946817013 0.07593619873490555 -0.06916800166386201 0.07500913410000098 -0.06938745570349449 0.19692328346379434 -0.10257943372420006
1983812000.0 0.23800482674923615 -0.09588193792268769 0.07391168692995705 -0.07108409343655792 0.07305089682783537 -0.07098899368073273 0.19484019795653504 -0.10277154626897515
1984875000.0 0.2360463626336021 -0.09720293293691737 0.07174029191078539 -0.07289020573386205 0.07113403037427445 -0.0725741595467994 0.19208741482102193 -0.1028379312802153
1985938000.0 0.23412029625933942 -0.09864192124077713 0.06959950737039206 -0.07452571926549113 0.06928874578440805 -0.07429449028553925 0.18923775140109353 -0.10308609548533613
1987000000.0 0.23215597651318215 -0.09992181272798141 0.06752132160768343 -0.07625119977683739 0.06736127835643235 -0.07589273089205803 0.18625631500289958 -0.10326541916734527
1988062000.0 0.23042577063183636 -0.10125946735241433 0.06545299996281272 -0.07773398190318055 0.06542068048338048 -0.07755189220776001 0.18335788735791336 -0.10370979232238806
1989125000.0 0.22838878633143442 -0.10257233618784843 0.0632981375285801 -0.07922853391474569 0.06339456313757694 -0.0793523199407648 0.18017267437999349 -0.10428711565050403
1990188000.0 0.22641178824093583 -0.10384902482994487 0.06115037329620961 -0.0805473750480148 0.06123969178756327 -0.08087044019360362 0.17719642118946874 -0.10492473878972536
1991250000.0 0.22425824590762428 -0.10498720903130981 0.0589551413165777 -0.08208797138523435 0.059093528393544766 -0.08246404279049778 0.17444667014481427 -0.10590684388073628
1992312000.0 0.22214911206171706 -0.10597539057425864 0.05680826149286833 -0.08324522873041493 0.0567628277460653 -0.08382956905784454 0.17177097211934184 -0.10678876525474898
1993375000.0 0.22002620532810957 -0.10701096272247354 0.05456914358917787 -0.08450263281339632 0.05444889332552706 -0.0851215334452735 0.16922743455950534 -0.10771136542940452
1994438000.0 0.2178310299157084 -0.10788591134635556 0.05233152799899929 -0.08583078526925209 0.05209963412604643 -0.0862657841731983 0.16712937887377502 -0.10865397728273916
1995500000.0 0.21565619432119848 -0.1088178420449857 0.05010976972233289 -0.0869545869602619 0.049659525520168 -0.08737253201089731 0.16517149822076485 -0.10958022865653942
1996562000.0 0.2134975108824628 -0.1097505613741773 0.04779205289651872 -0.0879969200295723 0.04732020923819973 -0.08829936842058243 0.16342627562026726 -0.11034218710392635
1997625000.0 0.2114142120879428 -0.11056654696115963 0.045535660932739426 -0.08901939500373815 0.045001901470086855 -0.08923583389135777 0.16178144755291807 -0.11087326364600521
1998688000.0 0.20929942638523902 -0.11123298057903495 0.04316136808730911 -0.0899955054277971 0.04265968214020695 -0.09014928442210218 0.16025023496983257 -0.11126937748499166
1999750000.0 0.20711110815115152 -0.1119937608412151 0.040912018905412476 -0.09091187849730038 0.040509438742543966 -0.09089402172677506 0.15877307664936224 -0.11140282646619896
2000812000.0 0.20499484592206207 -0.11276524613832092 0.03861903730385919 -0.09168248403751864 0.038239173629971604 -0.09171854783624227 0.15714931914828997 -0.11140024142825837
2001875000.0 0.20295921035317094 -0.11348092680071695 0.036279463278196096 -0.09242304573589084 0.036083433334636206 -0.0925809148472642 0.15562777447863838 -0.11118430236371009
2002938000.0 0.20088959795792632 -0.11415563433421523 0.03400450110938341 -0.09311134502566841 0.03382552504520464 -0.09330683964574325 0.15388477241754542 -0.11059936516808394
2004000000.0 0.19871941761282183 -0.11476493767590148 0.03170383105691445 -0.09382442030377212 0.03155638807167602 -0.09407507522083462 0.15189792146685865 -0.11011680494290148
2005062000.0 0.19650776975318845 -0.11511562193182415 0.029344149859896543 -0.09443779687919084 0.02932490100609031 -0.09484556721477647 0.1496057061292156 -0.10916538093751578
2006125000.0 0.1942502289810157 -0.11563000743365955 0.027179282054809 -0.09505725502393579 0.026922907378657476 -0.09553840136395782 0.14721600162459253 -0.10848392965190586
2007188000.0 0.19204232452835554 -0.11597370042299364 0.024925612682850942 -0.09567884055807159 0.02453700705863813 -0.09612687345950525 0.14450676628177117 -0.10791541213765031
2008250000.0 0.18977730593439507 -0.11618511233647606 0.022520559669795222 -0.09625479428363241 0.022138114180458645 -0.09673675126317018 0.14179038013123862 -0.10735480187072527
2009312000.0 0.18733198968901218 -0.11623879788498952 0.02025411002669633 -0.09684908119237455 0.019700611075283737 -0.09717791533895699 0.13883111950611698 -0.1068941983978405
2010375000.0 0.1851089697196182 -0.1163855763240847 0.017857895882455975 -0.09730428824845165 0.01721482683300618 -0.09765766428547969 0.13591215152660194 -0.10653095569243722
2011438000.0 0.18275379048542786 -0.11633680152696191 0.015499962591874077 -0.09785742515761278 0.014763923135024315 -0.09797672275618208 0.13298649072845634 -0.10640623123336457
2012500000.0 0.18037325496015247 -0.11632591922508688 0.013124767292910894 -0.09818786172363077 0.01238626437960513 -0.09826120254399788 0.1303464234135098 -0.10660407974109139
2013562000.0 0.17804885425106992 -0.11618592569048555 0.010635962295284419 -0.09853357381461095 0.009919571703679285 -0.09847876753670434 0.12767143362659927 -0.10690385546548274
2014625000.0 0.1756495237092022 -0.1159077282907639 0.008228539075435953 -0.09877986762964276 0.007583023165141972 -0.09864187053410124 0.12549936631435427 -0.10694266352658362
2015688000.0 0.17328402848380628 -0.11565393730550166 0.005746875927679261 -0.0990791595030045 0.005190683228611174 -0.09881690791846337 0.12332154837911671 -0.10700176553122237
2016750000.0 0.1707986144453517 -0.1153195027932362 0.0031486156363996604 -0.09916663150469633 0.0028285296624831666 -0.09894707261695647 0.12134424434869 -0.10668231981624221
2017812000.0 0.16832100588441096 -0.1151891374362716 0.0007207545044926036 -0.09920778727371116 0.00040431855795216583 -0.09902974119984616 0.11952711023130681 -0.10623137144047783
2018875000.0 0.1657506196311405 -0.11466094295216851 -0.001889505573505332 -0.09917473855825923 -0.0020250151079705013 -0.09896715501948396 0.11782391442667313 -0.10574871379256959
2019938000.0 0.1632264366857139 -0.1141905815952524 -0.004486156125668376 -0.09915836685851422 -0.004472627900194469 -0.09909183780215054 0.11599629938992799 -0.10512751793423929
2021000000.0 0.16070786856662644 -0.11369354744462541 -0.007044798122489269 -0.09899905238861086 -0.0069537365647762295 -0.09900216322846869 0.11410253156973701 -0.10418877642645819
2022062000.0 0.1579910960312268 -0.11313609033814488 -0.00932981725702693 -0.09890795047957465 -0.009448258366764885 -0.09893735312465003 0.11213789640251332 -0.10295300941874963
2023125000.0 0.15538177207024767 -0.11252567476908305 -0.011857883190297805 -0.09856204997196337 -0.011937795649671816 -0.09873274996207577 0.11013950367599806 -0.10172091163214145
2024188000.0 0.15270171376378805 -0.11186949944920509 -0.014263199327045051 -0.09834782255725193 -0.014517626369733264 -0.0985666145853309 0.10811678058486224 -0.10054493237597559
2025250000.0 0.15009187645642486 -0.11122022372800626 -0.016630131984372628 -0.09803503300786896 -0.01695715879992986 -0.09828713957579437 0.10594441222277598 -0.09905760309114177
2026312000.0 0.14742925634707874 -0.11043769195553745 -0.019171909356269806 -0.0976622325701241 -0.019445875359563537 -0.09795382876673467 0.10374691936093852 -0.09778986114060943
2027375000.0 0.1448326055719319 -0.10974785127364005 -0.021424875775921184 -0.09720325357311231 -0.021935732428242708 -0.0975476909385151 0.10132488355450411 -0.09622561224157625
2028438000.0 0.14219633619642977 -0.10895654923070584 -0.023802857023099748 -0.09673396084628161 -0.024371810379423667 -0.09703523741598781 0.09912865010019209 -0.0948368732925126
2029500000.0 0.13970001437813706 -0.10813821151444883 -0.026139917136599945 -0.09622252004235393 -0.026756244981596185 -0.09650349024607388 0.09659628468214854 -0.09349739053588783
2030562000.0 0.13723286120682637 -0.10728007244587047 -0.028600659712845602 -0.09573929519952418 -0.029183338158534834 -0.09590076679386678 0.09395261020208698 -0.09222923131969438
2031625000.0 0.13480487288519002 -0.10647089868465252 -0.030953518237368343 -0.09504965112557123 -0.031662766005307395 -0.09519474309946595 0.09139406920172857 -0.0911528880556308
2032688000.0 0.1324054889030997 -0.10562759322467517 -0.03333646626110746 -0.09447512748556779 -0.03410358444513896 -0.09449503028341964 0.08913168632512222 -0.09025367965327975
2033750000.0 0.13012070531843492 -0.10481639651097528 -0.03588425050536756 -0.09377313767939147 -0.036480627444275944 -0.09377700952871727 0.08692847147649592 -0.08911676342312527
2034812000.0 0.12780515100909268 -0.10378153151434728 -0.03822085401194146 -0.09302136792807264 -0.03889421995379975 -0.09296567871908941 0.08474969233462912 -0.08818075434608903
2035875000.0 0.12544745433113833 -0.10290588315614453 -0.04059194261747749 -0.09232171151838214 -0.041208721051130846 -0.09207786077918195 0.08290884607256054 -0.08735538555750626
2036938000.0 0.12342441027380834 -0.10184081978438625 -0.04301323124298647 -0.0915547516239014 -0.043675007024253754 -0.09116591007879045 0.08122792159945297 -0.08633017422195993
2038000000.0 0.12122860910701291 -0.10088058600084344 -0.04546092596537192 -0.0906406121355774 -0.04603937311106547 -0.09022717080261583 0.0793942119926599 -0.08525771759551569
2039062000.0 0.11902859495018062 -0.09979817235297855 -0.047864916662136325 -0.0896228903863359 -0.04836681722858512 -0.08926900376645117 0.07794759963358978 -0.08386265281219389
2040125000.0 0.11697818783126794 -0.09878157870792739 -0.05027196564601286 -0.08866552813131555 -0.050758440252484764 -0.08819398204425605 0.07660686988065232 -0.08240872913074726
2041188000.0 0.11498155799246695 -0.09760895137051995 -0.05276582054184525 -0.08749409066152042 -0.053134579194078935 -0.08709594025941729 0.07496742283305771 -0.08074241099353552
2042250000.0 0.11294381691486469 -0.0964655136658709 -0.05526504015220854 -0.08631165270276143 -0.05552339002760807 -0.08592797664322976 0.07329507730572422 -0.07896326726293582
2043312000.0 0.11082383849501753 -0.09520901693994019 -0.057784149139405924 -0.08503065602398863 -0.057832098604359596 -0.08459392664975396 0.07177973559082822 -0.07742040852795092
2044375000.0 0.10881346029779856 -0.09405452887571117 -0.06018808594794048 -0.08359602533503956 -0.06025589978549239 -0.08330666480160667 0.07017310201309886 -0.0755499722545982
2045438000.0 0.10693174783839306 -0.09279333417892321 -0.06256441679001504 -0.08225225439941478 -0.06257263288338652 -0.08201683048260724 0.06852649618030639 -0.0738524774415265
2046500000.0 0.10502409819732796 -0.09147518882322199 -0.06484544942179518 -0.0806198809544393 -0.06491682137905537 -0.08059414668946481 0.06712252288147183 -0.07215519513220633
2047562000.0 0.10305138075584495 -0.0901836829220864 -0.06710698955797993 -0.0790432690377421 -0.06724972673457374 -0.0789317471315859 0.06565072404790728 -0.0704832561716478
2048625000.0 0.10129942801295998 -0.0889240942036999 -0.06922364445204371 -0.07734369905427087 -0.0694852179603907 -0.07730275618337056 0.06434150768490264 -0.0689097409824927
2049688000.0 0.09955958146281745 -0.08766413781934422 -0.07140772723214109 -0.07547936536894619 -0.0717425092060653 -0.07555569694292451 0.06301268735222627 -0.06718638365960189
2050750000.0 0.09778785348197719 -0.08639799138748609 -0.0734500357467642 -0.07378072623437125 -0.07384904391154137 -0.07377753568781698 0.06193769299622018 -0.06536305941405249
2051812000.0 0.09616725839930908 -0.08512604496962646 -0.07539979047822885 -0.07191007466061002 -0.0759036342220901 -0.07188559638832225 0.06081382468184682 -0.06366102571853686
2052875000.0 0.094522032215782 -0.08393533128070658 -0.0774885954572268 -0.07002675005867069 -0.07798141148709731 -0.06996273782217309 0.059787650688066137 -0.06194082268762767
2053938000.0 0.09289533436894938 -0.08280404865183556 -0.0794330021867748 -0.06813554438631479 -0.0799696014418083 -0.06803281049430192 0.05888747307845041 -0.06031344222576062
2055000000.0 0.09132036397548289 -0.08158466347560113 -0.08138265127330795 -0.06616506205837296 -0.08198623809460284 -0.06594648245993286 0.05807951881220883 -0.05853865276386998
2056062000.0 0.08986685386671805 -0.0804492964109441 -0.08330936009988897 -0.06411159862730365 -0.08388841045628151 -0.06391061645504524 0.057404289466155514 -0.05661666043270391
2057125000.0 0.0884053080790386 -0.0794458199887396 -0.085244779326441 -0.062102168791242765 -0.0857989103315703 -0.06182286933696578 0.05690011469428637 -0.05467736212871875
2058188000.0 0.0868552797765948 -0.0781841035686015 -0.0871352001637498 -0.060036774225312506 -0.08764423512741587 -0.05965695525431846 0.056364866001783316 -0.0526072568210514
2059250000.0 0.0854263741618456 -0.07695673063411188 -0.08908931607709117 -0.057882273097445695 -0.08950070835041998 -0.057392417549499634 0.05591019872065751 -0.05033456895737223
2060312000.0 0.08410151305180752 -0.07581285709007775 -0.09086554472142533 -0.05568360133074964 -0.09140489608212879 -0.0551735960712906 0.05538308207991697 -0.048132784088478306
2061375000.0 0.08273899667287034 -0.07453161745300768 -0.0926653615511322 -0.05327451306912016 -0.09307067072309494 -0.05273514882979315 0.05485455792232508 -0.04571101644253406
2062438000.0 0.08154435635451848 -0.07333723444217538 -0.09447293579277381 -0.05088908680232154 -0.09482415829511254 -0.05026557129010763 0.05439198076815536 -0.04346766151521067
2063500000.0 0.08047743159321084 -0.07196207975769386 -0.09609812244625575 -0.048312396488218244 -0.09648555894867494 -0.04773483370963975 0.0538784616832638 -0.04124660852734251
2064562000.0 0.07936642654048653 -0.07060622175113612 -0.09771207384910592 -0.045815752153842655 -0.09798323268294212 -0.04519898752515041 0.05347293991083865 -0.0391764795494222
2065625000.0 0.07852572986124617 -0.06927176533177587 -0.09927739735342252 -0.04322813062123369 -0.09944703452240336 -0.042646659899174356 0.053129418028312225 -0.03719963503690834
2066688000.0 0.07758351848576889 -0.06795450817510737 -0.10077353301363694 -0.04057639453456446 -0.10086666413900544 -0.0399176232241714 0.0529609467216092 -0.035323460452981556
2067750000.0 0.07683340787966646 -0.06668988198808544 -0.10203393138077932 -0.03788224517039305 -0.10211721193664035 -0.03725103492519268 0.05301107391588806 -0.03363569623547229
2068812000.0 0.07603771204201885 -0.06528092748077595 -0.10333350248944762 -0.03510521223480322 -0.10325210778668557 -0.03455843399105602 0.05324898248262904 -0.03203451276402968
2069875000.0 0.07527001380887827 -0.06395036759573436 -0.10449076010828037 -0.03238597257011237 -0.10431214903744433 -0.031825512972499845 0.05363301644325125 -0.030286711279759702
2070938000.0 0.07447593369475326 -0.06252624673133088 -0.10554762323112336 -0.029527518354605084 -0.1053444093684492 -0.029091890377755072 0.05430646455560764 -0.02851734755805671
2072000000.0 0.07374358571772152 -0.06111941582292537 -0.10644415211567594 -0.026470554492657828 -0.10623761051383349 -0.026245920828778115 0.055065123973722804 -0.026708079573786198
2073062000.0 0.07307764559708202 -0.05950553417595864 -0.10743621570737424 -0.023652273307712305 -0.10715988495912764 -0.023378973579334213 0.055784225656021695 -0.02470760433499305
2074125000.0 0.07251337833280186 -0.05795567388828687 -0.10824336804219731 -0.020494997955981902 -0.1081059249529558 -0.020443948230926084 0.05676422597640852 -0.022669976418958255
2075188000.0 0.07190319019711795 -0.056352123476816125 -0.1090033301138414 -0.017372970411011678 -0.10908808394093866 -0.017460454574791142 0.05764552835937103 -0.02050408985829476
2076250000.0 0.07141363944303064 -0.05465204890157819 -0.10967653330946042 -0.014310195035675407 -0.10989964042814143 -0.014434625785056283 0.058481558448799376 -0.018180080526997343
2077312000.0 0.07106177263240167 -0.05302765345278182 -0.11034549488420639 -0.01119928764228472 -0.11068851320661294 -0.011272070712181158 0.059358166229191836 -0.015738167250674465
2078375000.0 0.07078418758139594 -0.05117253205785781 -0.110836429125609 -0.0081249489267008 -0.11134939127731677 -0.008012663638155544 0.06025713502494389 -0.013321373718051864
2079438000.0 0.07068159619926667 -0.04932479112971233 -0.11118129378245363 -0.004986699650031455 -0.11192723178208365 -0.004815078471359418 0.061037376513505916 -0.010652498384878003
2080500000.0 0.07055743448217958 -0.04752587406506806 -0.1115942995023461 -0.0019103589828276424 -0.1123042397457925 -0.0015055752651036587 0.06180449060157573 -0.008075590851026472
2081562000.0 0.07073159062594056 -0.045700744185660704 -0.11184878984573313 0.0012761248144665203 -0.11258025758371534 0.0017668719857770819 0.06225118619345557 -0.005630031725400092
2082625000.0 0.07086240987286593 -0.04388756118602762 -0.11204052903080047 0.004380862078618015 -0.11264501131671671 0.00513214797068452 0.06263620343341997 -0.0032562532601771214
2083688000.0 0.07113506019160717 -0.04206947121356628 -0.11224204039995177 0.007522756550407977 -0.11266511650458311 0.00842762932956285 0.06307994070897185 -0.0010352077731267152
2084750000.0 0.0714283094319988 -0.04031487193305028 -0.11223387954964052 0.010586923222568012 -0.11252876955110953 0.011644309616397393 0.0632573163427593 0.0008998786994996128
2085812000.0 0.07181423868640636 -0.03849605833747154 -0.11230650268933352 0.013737140319259825 -0.11230715016756634 0.014813258633197546 0.06387377859954944 0.0023430313226380493
2086875000.0 0.07236535394311015 -0.03656062334357303 -0.1121442195431668 0.01682139158913181 -0.11196299639535126 0.0178516196143214 0.06452032202328652 0.0037618100651668268
2087938000.0 0.07283087485422464 -0.03459076888254682 -0.11202959370521155 0.019845147231742542 -0.1116917556635456 0.02086936780894051 0.06545466884937477 0.004719668917843866
2089000000.0 0.07341698136421396 -0.03253175407883181 -0.1118658831754201 0.02299797966257522 -0.11118698233026884 0.02375375704351579 0.06677412191773253 0.005437755118915082
2090062000.0 0.07413589145857628 -0.0305508002128905 -0.11151250459221894 0.026061986084633136 -0.11075062239126421 0.026744437980092926 0.0683537870368366 0.006243633739532859
2091125000.0 0.07484724640165294 -0.028563863658949553 -0.11094351326801176 0.029218856838408837 -0.11031625517360456 0.029693197487214475 0.06998929096324459 0.007165610503938144
2092188000.0 0.07588614935441323 -0.026446787951821857 -0.11036774939526806 0.03235527785570515 -0.10977015174417251 0.032663526354213906 0.07205568194185467 0.008136235895783639
2093250000.0 0.07683953122565572 -0.024195589120709488 -0.1096466570913333 0.03569069424816992 -0.10910717940974142 0.0356231859938738 0.07419869093101515 0.00939795667838493
2094312000.0 0.07808572492715365 -0.022174555440452746 -0.10863823313712824 0.03896956348874455 -0.10834170567733215 0.03870220859763576 0.07646577753930592 0.01075712212433916
2095375000.0 0.07930685748651842 -0.020071166452324606 -0.107641563986665 0.04225358459710487 -0.10758532845239265 0.041953936520256245 0.07870597547912009 0.012466984130157536
2096438000.0 0.08074235201814231 -0.017961907278201353 -0.10642504152542101 0.0455255103502541 -0.10658064282364871 0.045221207651830325 0.0805574210281418 0.013912019351877627
2097500000.0 0.08214736532557482 -0.016060993041576526 -0.10516183588504453 0.048706766434959615 -0.10541560007366757 0.04854555849378887 0.08262602609874063 0.015765697630468988
2098562000.0 0.08359243683913636 -0.01417087567596981 -0.10385072334209551 0.0518430546028871 -0.10416345617675773 0.05184959400457621 0.08438981750834049 0.017709887564573368
2099625000.0 0.08502862933716032 -0.012239500148542823 -0.10231332653255573 0.05490881964755127 -0.10278602799140159 0.05527448223904651 0.0858977209337368 0.019627563926831775
2100688000.0 0.08657369110422988 -0.010368695155978467 -0.10090808106370824 0.057929964269039805 -0.1012608282192105 0.058495777391655006 0.08741172346185476 0.021367130891627607
2101750000.0 0.08806903117219456 -0.008669198130487235 -0.09919444270102769 0.06083216685274567 -0.09951459645219961 0.06165505025688454 0.08855636367673912 0.023043032213549478
2102812000.0 0.08963092249432386 -0.006978410608476697 -0.09755108636621115 0.0638002117128896 -0.09777772665905932 0.06471142971138351 0.08964312034946616 0.024364086041228764
2103875000.0 0.09119043642610222 -0.005212950439166786 -0.09579572093109828 0.06662733983730032 -0.0958055121003402 0.06765595453983952 0.09040555259438453 0.02559163705055444
2104938000.0 0.09279131017072725 -0.003619277127006933 -0.09417195374476833 0.0694302022972927 -0.09381960263663594 0.07043788542151037 0.09129708576478691 0.02670244641992542
2106000000.0 0.09443824356374655 -0.0020992398577054285 -0.09227423295853279 0.0722610958483099 -0.09188689787198387 0.07311341848190459 0.09195007497625976 0.02694229419151711
2107062000.0 0.09622998366544075 -0.0005344576539775892 -0.09034686902812314 0.07500296128539262 -0.0898864109897938 0.07577907282285017 0.09287604900224157 0.02717968482839943
2108125000.0 0.0980366554342991 0.0008943833695520967 -0.08855514265705816 0.07770513825862517 -0.0879094562853733 0.07831703911899261 0.09428237607895433 0.027101756785181556
2109188000.0 0.09985484953309175 0.002108393820698401 -0.08645646430292699 0.08037034060482334 -0.085903501896959 0.08082843033892231 0.09569415122473868 0.026672685972526013
2110250000.0 0.10173872272478178 0.0033233878527575826 -0.08464079259020876 0.08299594679816792 -0.08393749141517313 0.0833281466249096 0.09749213774580483 0.02607213554550222
2111312000.0 0.10359879717450364 0.004404332442359958 -0.0824511530819911 0.08559604830185355 -0.08188363031992835 0.0857601981038855 0.09983478997489575 0.025385337842780097
2112375000.0 0.10558163425478496 0.005291912970018547 -0.0802705122310162 0.08802720248021094 -0.07975246192998439 0.08815368264977504 0.10200124770149084 0.025188383593525546
2113438000.0 0.10744878364563255 0.0060795281845023395 -0.07794774150676274 0.09044180753354276 -0.07754567750910583 0.09060431494271916 0.10480087220669992 0.024910327324364802
2114500000.0 0.10936760527488609 0.006674594164596084 -0.07549974453220265 0.09287808863523121 -0.07520655798523679 0.09300334147248472 0.1075870536298445 0.024884050878873354
2115562000.0 0.11117311721671422 0.007365157332981687 -0.0729087300876834 0.09507721399044557 -0.07280523248877885 0.09533410567768531 0.11041734146989125 0.02512152992100776
2116625000.0 0.11280595992549158 0.007716945715509616 -0.07023952357883692 0.09729918318786929 -0.07012191231056718 0.09763838158580915 0.11341700922417045 0.025559639420206857
2117688000.0 0.11453535945598567 0.008106695390447796 -0.06755601790739128 0.0995871767626822 -0.06742173195397806 0.0998765181957306 0.11605355730715422 0.026332344939260573
2118750000.0 0.11629587413240455 0.008454162254504122 -0.06464281986614613 0.10170851992138608 -0.06452794235888303 0.10209609677427635 0.11855480014739556 0.02715417990151591
2119812000.0 0.11779715969015854 0.008702124112413116 -0.06157728785578853 0.10380619414125197 -0.061537023938039434 0.10414036690995448 0.12055117181485284 0.028152589163613274
2120875000.0 0.11944461415492913 0.008907703720775826 -0.05873513781822539 0.1057365967320681 -0.05851749776661197 0.10617771495695949 0.12254466592167074 0.028942787308741245
2121938000.0 0.12089556953241933 0.00901274183664474 -0.055753765948455575 0.10763402419306896 -0.05540777550456755 0.1080092680984984 0.12403286606267225 0.029534325727019778
2123000000.0 0.12240644590518675 0.00907989065049475 -0.05270744301066036 0.10952364451280387 -0.05226141632857943 0.10978138397416355 0.12537065216973284 0.030065347563458602
2124062000.0 0.12381206474544673 0.009152778625824096 -0.049652502872136184 0.1111251547868772 -0.04916276101004589 0.11142134724032694 0.12656430130251525 0.03023763593329346
2125125000.0 0.12501179940788218 0.009103856290891764 -0.046489089465482955 0.11263516624877418 -0.04592061264765215 0.11307514232164241 0.12752826365615022 0.03022084977373352
2126188000.0 0.126253487410836 0.009038144201753587 -0.04335951260928532 0.11431383042202836 -0.042788536598223695 0.11462564743447777 0.12852814399197168 0.029672373474645942
2127250000.0 0.12739254246368933 0.008912655793202695 -0.04005712318799125 0.11563580463900944 -0.0394839932286195 0.11601633047367758 0.1294443715698827 0.0288231183486655
2128312000.0 0.12827393034319526 0.008763177152301484 -0.036763961236757355 0.11702714871693198 -0.03622648086233631 0.11737721073624599 0.1307773942762315 0.027910227264840964
2129375000.0 0.12916657403615864 0.008523208253764245 -0.0333774190744824 0.1183916690284039 -0.0329511032311471 0.11864365689115984 0.13192942317556025 0.026762013140125204
2130438000.0 0.12980452730976097 0.008330605777331683 -0.02992854395852626 0.11964298781583894 -0.02952928122193387 0.11987751794459722 0.13362678217437335 0.02551569857522104
2131500000.0 0.13029244936681617 0.008166074577951241 -0.026478897844697657 0.12073181633470642 -0.026018584438293788 0.12094020482543368 0.13539372227494098 0.024054018969247158
2132562000.0 0.13078258479930527 0.007856595848187571 -0.02309300035596914 0.12185031597818977 -0.022573680221504064 0.12189311502297387 0.13739599033955213 0.022912726670851574
2133625000.0 0.13109553850119582 0.0076432038974593025 -0.019593008875011506 0.12274133479395875 -0.01901969874229427 0.12281934667052526 0.13968090881898457 0.021698822170544453
2134688000.0 0.1312960037023239 0.0073095266275123435 -0.015910546817192433 0.12356209284718425 -0.01557233542741525 0.12365583715161882 0.14191172478057423 0.020682168158511063
2135750000.0 0.13125761553824508 0.006999038213490295 -0.01246555836414759 0.12423791439759299 -0.011874218296817564 0.12433879610768457 0.14435566775022968 0.019917551360234435
2136812000.0 0.13126448321860285 0.006667993595713518 -0.008736150295859838 0.12479871750543237 -0.00830260084649101 0.12482839617213135 0.14667759598231758 0.01946839785221923
2137875000.0 0.13120127451856683 0.0063148573493861495 -0.005114696540201004 0.12523324084476514 -0.004703231367939144 0.12527993996438605 0.1488921516972423 0.01921143462300205
2138938000.0 0.1310170824192199 0.00602369856325547 -0.0014535090090273184 0.12558735105706822 -0.001039694462884532 0.12575403628504875 0.15090348471898932 0.018937750805241765
2140000000.0 0.13069461679025032 0.00562724246681229 0.002222639830887181 0.125835221046805 0.002601737130265991 0.1260663921514186 0.15244922032062883 0.018950955902211505
2141062000.0 0.13043579891278467 0.005321334196917969 0.005838229769017868 0.12590660998442424 0.0062856199173050645 0.12622081749096511 0.15378955676142458 0.018875110053404337
2142125000.0 0.1301304776966389 0.005082799805272396 0.009707486061107306 0.12593171864208144 0.01011550933147964 0.12627005178892042 0.1546543459709752 0.0186278004618843
2143188000.0 0.12981284471480944 0.004828438381526199 0.013450748788988758 0.12590011455446032 0.013928609468079826 0.12624323583957012 0.1554479490346341 0.01827316484904743
2144250000.0 0.12954598586463886 0.004689321769076705 0.01711657300263775 0.1257608026509212 0.017787626876828725 0.1260271690300948 0.1558388909684043 0.017653166146043366
2145312000.0 0.12935005483317152 0.004641663130186069 0.02084496844385952 0.12546352822462267 0.021619522853508464 0.1256798880712739 0.15622664229056446 0.016837435038676393
2146375000.0 0.12907214757213942 0.0046032194286891575 0.02455235656882735 0.12527653933345415 0.025504652432708302 0.12527626121370017 0.15654366571569667 0.015741934893158914
2147438000.0 0.1289149591302471 0.0046888976179050995 0.028322294548411304 0.12479786409207559 0.029326640260476034 0.12473530057738824 0.15685344447047847 0.014446521293437282
2148500000.0 0.12883266146127345 0.004774503698034888 0.03224094158375453 0.12431938183364936 0.03312723043055085 0.12402520700395385 0.1571699836946 0.012935911946309732
2149562000.0 0.12868741229489172 0.004913815562849926 0.035853611506487346 0.12349914473154014 0.03679519058167687 0.12322924245201333 0.15785391014127811 0.011439949513982662
2150625000.0 0.12865293910189318 0.005073198016671805 0.039689555335579954 0.1228223220971584 0.040421319979067345 0.12219030190628216 0.15864051009386287 0.009871730197535523
2151688000.0 0.12878127434219114 0.005226722603152094 0.043613720474356604 0.12184299301098608 0.044070331990589136 0.12124921281607143 0.15958764042653395 0.008267748163295594
2152750000.0 0.1287954207136752 0.005499275562592075 0.04744476939631111 0.12076083238820659 0.047718916537553134 0.12015644465605761 0.1606855916569024 0.006851790747293171
2153812000.0 0.1289826583337612 0.0059939680070813664 0.051386858616959234 0.11948743905382414 0.0513659423677572 0.11893182559181106 0.1619449463585862 0.00560148297567325
2154875000.0 0.1289249330533918 0.00630590971476288 0.055428400907407284 0.11806334611632006 0.05505711119234318 0.11764443466344691 0.16307182587071906 0.004303368960836622
2155938000.0 0.12899419397006634 0.006863978761149322 0.059104850202798494 0.11645506304961688 0.058817195400714416 0.11639744722220194 0.16420137166503748 0.003572670402773829
2157000000.0 0.12929976929291423 0.007376054739021966 0.06276579329464298 0.11479953338265779 0.06256456131408342 0.1149462831313667 0.1653290083449156 0.0027340438352221282
2158062000.0 0.12956040785314873 0.008155914000707545 0.06648344050472725 0.11292392020730659 0.06633303739727213 0.11342653866536005 0.16620948276857883 0.0018772632595892179
2159125000.0 0.12998898961726046 0.008929562696250837 0.06986654936036296 0.11093776038584524 0.0700322542401096 0.11157126141827722 0.16696126373747933 0.001372478172778624
2160188000.0 0.13058927659898933 0.009764403265487278 0.0732861165085779 0.10881941999164194 0.07373942554208132 0.10953641571612334 0.16727230215236435 0.000669691429280511
2161250000.0 0.13114401698721742 0.010457357593374015 0.07639431036258816 0.10666045957038947 0.07727178559355087 0.10724891887387047 0.1673767854556124 0.00028619327352194583
2162312000.0 0.13198323828371686 0.01129111489036731 0.0797354029427373 0.10441240372640462 0.08075842418119643 0.10489206434454258 0.16739795272684246 -0.0005575173427495182
2163375000.0 0.13280897816083487 0.011936112268773547 0.08269942358812427 0.10204942892245576 0.08407895203211892 0.10224388323665086 0.16727999238913258 -0.001332325976868635
2164438000.0 0.13383564737175624 0.012578781083071058 0.08580445677410242 0.0996725331048427 0.08723934996281396 0.09952180318461401 0.16686171142600367 -0.0020463334275144063
2165500000.0 0.13477822611149462 0.01317893972541175 0.08869240599557826 0.09707228603593156 0.090128117502278 0.0966318011728267 0.16637180905445698 -0.003006937704797391
2166562000.0 0.13594023488315396 0.01360925047801679 0.09164036522802309 0.09456216550419048 0.0928891142528298 0.09371035729439144 0.16615128594859604 -0.004013216545251122
2167625000.0 0.13694015046984123 0.013969030421792475 0.09458804037871374 0.09186574969424371 0.09556221671447775 0.09074692652582327 0.16569803589883048 -0.005166892960187098
2168688000.0 0.13810721979240176 0.014402271675768455 0.09746791268158381 0.08934848633468573 0.0981168134645979 0.0880066340031744 0.16539141349598685 -0.00644383920860285
2169750000.0 0.13935944074972775 0.014646974682767225 0.10031841260988367 0.08647816046819265 0.10054536966827862 0.0851646815901544 0.16539231572612625 -0.007610565540468012
2170812000.0 0.14065816759729208 0.015018213009601112 0.10312521311509759 0.08367693991128808 0.10292523902477127 0.08243331161394815 0.16555626952467642 -0.008695502732921556
2171875000.0 0.1420261755755536 0.015151767112774026 0.10580538559505044 0.08060143094506679 0.10547531977753731 0.07960095944097256 0.16577790445870674 -0.009704252334712326
2172938000.0 0.14362539532030533 0.01545904847791743 0.1085085179491802 0.07734441127909313 0.10795021035412937 0.07669919312801296 0.16630018280677678 -0.010543312474827333
2174000000.0 0.1453509611594669 0.015782757905794233 0.11115197833089598 0.074099737228238 0.11054410071117364 0.07374633747288808 0.1669378615302234 -0.011470464094157504
2175062000.0 0.14720791120587537 0.016037583765193823 0.11373373273929717 0.07046797408995639 0.11318657428431347 0.07053247889489335 0.16759629783937388 -0.012213255231116075
2176125000.0 0.14923726549751704 0.01617630974419208 0.11608961295667841 0.06676513922626702 0.1158006021118851 0.06707160853861345 0.16804224003813112 -0.012623147536737237
2177188000.0 0.15128490529796249 0.01631638665973875 0.11833571547220811 0.06300924501024203 0.11836929500034754 0.06347444238073852 0.16867653136442579 -0.012932294106362683
2178250000.0 0.15353881579609496 0.016250652363137753 0.12035066364207075 0.059237448577684905 0.12074567013635784 0.059632388543916004 0.16896951935223953 -0.013411123172281861
2179312000.0 0.15581409767069507 0.016123666174566488 0.12225237417268497 0.055348902841796395 0.1229154293891039 0.05570971769923245 0.1695201054452323 -0.013755441836258302
2180375000.0 0.15805080603350158 0.015931372360570708 0.12385280966957718 0.05156793527693496 0.12485619007301806 0.05161988096869156 0.16941150279499995 -0.014107950099444702
2181438000.0 0.1603523179967833 0.015605416263160766 0.1253353482715106 0.047656843778290166 0.12645807133879533 0.04750191314198096 0.16950833216305997 -0.014568337227669757
2182500000.0 0.1624701650275748 0.015171422962966592 0.1267650780363261 0.04395210829316761 0.12771289736989633 0.04343721448398065 0.16941421590596878 -0.01505924626366476
2183562000.0 0.16463490665241173 0.014659399093555755 0.12792694226054685 0.04005094590516934 0.12877869417886312 0.03929674123180794 0.16934267336254166 -0.01576221416927429
2184625000.0 0.1667396936615765 0.01443199695724227 0.12886491072337508 0.03632188609524929 0.12964400687849056 0.03534710917200471 0.16946758922625216 -0.016244463264397643
2185688000.0 0.16889366811246073 0.013908383701206584 0.1299368818969996 0.03249954720978545 0.13031229074318246 0.031561636493282 0.16972094265711002 -0.017015268804999827
2186750000.0 0.17087934799241797 0.013558647089633422 0.1307752869291209 0.0288551393293847 0.1310118302715724 0.027753477991333455 0.17026613447898944 -0.017491352912825185
2187812000.0 0.172979543873527 0.013322756506786937 0.13159123205083012 0.025164490601859497 0.13161174672963172 0.02413186763536239 0.17085688658237147 -0.01787001939957774
2188875000.0 0.1750321230588075 0.012990992498906255 0.13228517715077684 0.021126636636932757 0.13225540257187232 0.020436081840842616 0.17169826202277727 -0.018199448984058703
2189938000.0 0.17722245607426992 0.012665059506416531 0.13300761113232556 0.017386813568779518 0.13298976245808727 0.016718881858683848 0.17269609171670636 -0.018263016429543994
2191000000.0 0.1793888950920768 0.01229003332502714 0.1338069383090696 0.013541400310833528 0.13371821071777557 0.013041221401811598 0.1738391078057534 -0.018459608276591256
2192062000.0 0.18158422896780255 0.011934334409866323 0.13437402896261424 0.009648769144096183 0.13440405194726882 0.009139149854246862 0.1751063620122365 -0.018294183539330076
2193125000.0 0.18385532223910386 0.011463894580232293 0.13485898231860058 0.0055834766105803835 0.13504638226865512 0.005151959807473642 0.17624600510503483 -0.017984759272321644
2194188000.0 0.1859301223400704 0.010854674118391184 0.1353370824500277 0.0015655061770695853 0.1355172259131023 0.0010435503623596745 0.1774172374551587 -0.017682922061217184
2195250000.0 0.1880606812142219 0.01008274219865014 0.1355306881917931 -0.0027176568513753866 0.13576676956444314 -0.003259861811349335 0.17868411091191994 -0.017431467070535618
2196312000.0 0.19000755820487447 0.009396974446872654 0.1357090852061527 -0.007017289600452098 0.13588481977751923 -0.007651510569104653 0.17958605794327662 -0.017120198474587765
2197375000.0 0.19187145925452315 0.008717505269254485 0.13564481520595112 -0.011297903849250888 0.13573902557341275 -0.01208601027780208 0.18036957087676866 -0.01667683316529421
2198438000.0 0.19369847476467117 0.007962374283716671 0.13543394985916382 -0.015640235013731383 0.1353890169335509 -0.016414942856548997 0.18105775386731182 -0.016369299290698806
2199500000.0 0.19533925159758914 0.007471983767828545 0.1350547294132136 -0.019946593827931267 0.13484365218641792 -0.020795115954907614 0.18149033596533018 -0.016189725187056126
2200562000.0 0.1970142595179042 0.00687769244800092 0.13446783827253134 -0.02416161249970589 0.13418357106157264 -0.02503989289781756 0.18187074119752822 -0.0162044216662765
2201625000.0 0.19863980000853587 0.006455697365814071 0.13380676052321724 -0.028424840533971943 0.13327066335495438 -0.029084128402477736 0.18226325590106054 -0.016404560543035313
2202688000.0 0.2003743642584107 0.006065164846313027 0.13291716171049006 -0.032516318801564796 0.13239604059322 -0.032994978866110566 0.18264181371156657 -0.016826994010827694
2203750000.0 0.2020499222819142 0.005786442356697606 0.13197643062693498 -0.0365377601829883 0.1313957496247654 -0.03677194598921791 0.1831313175341181 -0.017265223706287025
2204812000.0 0.20393364132904895 0.0055150904925128285 0.13075635060973204 -0.0404474220512824 0.1303377331334585 -0.04051350401603136 0.18404592906330863 -0.0179451117491675
2205875000.0 0.20582572883685024 0.005297359386994528 0.12943519000818327 -0.04438512032248473 0.12918314581259505 -0.044264064350461735 0.18510159328554465 -0.018642540944280566
2206938000.0 0.20776448959713376 0.004953500033518914 0.1279866797752132 -0.0483043311461571 0.1280468818516351 -0.04807477114208276 0.18652362332850442 -0.019232574945984675
2208000000.0 0.2096927430623119 0.004656774842277886 0.12639188422049888 -0.0520165290458406 0.12679976669457207 -0.051892787018795086 0.18811439982677225 -0.01979863725081646
2209062000.0 0.2116745093442312 0.004172173503540715 0.12480441276767759 -0.05568302877369598 0.12530974814611118 -0.05581971129059678 0.19008451035183124 -0.020132127058008677
2210125000.0 0.21356904245700295 0.0038749888777430026 0.12313850958768577 -0.05944054110465406 0.12376189838935726 -0.05981186901961068 0.1922282205680975 -0.02038737266514254
2211188000.0 0.21535876714599927 0.0034067634332906604 0.12136433904913357 -0.06302221942567933 0.12200448896736514 -0.06375186616798677 0.19437649904857035 -0.020435023013039188
2212250000.0 0.21704502763043548 0.003013021105651089 0.1193862389770886 -0.06665262001248828 0.12000673780567157 -0.0677696830905916 0.19655627339963286 -0.020221436934330598
2213312000.0 0.21887864396117446 0.002663834839107532 0.11750306876937544 -0.07023782855471246 0.11792845098429046 -0.07156967874956073 0.19864158985356967 -0.020016210251029176
2214375000.0 0.2205449933270958 0.002408990635073987 0.11539165896944263 -0.0737384196792774 0.11545682787903806 -0.07536879289428934 0.20038330871894441 -0.019793026515262706
2215438000.0 0.22223822919294942 0.002109274936876623 0.1133626061605255 -0.07745634907393412 0.11297924264758061 -0.07902044653389159 0.20210146729414344 -0.019429218888004605
2216500000.0 0.22403466385102733 0.0019086729816009803 0.11106252013243421 -0.08102748552784188 0.11034456780911599 -0.08234825878254744 0.20351055290149114 -0.01924293418203313
2217562000.0 0.2258203428831788 0.0016136367538388042 0.10857562982038736 -0.08460463441982292 0.10766079607229798 -0.0857021303532478 0.20463031914370325 -0.019060907074088106
2218625000.0 0.22773094886095438 0.0015438995814412515 0.1060556671062163 -0.0880266113594526 0.10498968839469439 -0.08879303701235464 0.20557518004677633 -0.01911599844055759
2219688000.0 0.22971422379821435 0.0012331497109784517 0.10346668477714667 -0.09156892394658571 0.10227840571340413 -0.09199355152792925 0.20625248219578707 -0.01943108888712066
2220750000.0 0.23184095939594657 0.0008231172000658477 0.10067496857187141 -0.09488312882798636 0.0996292176010308 -0.09500655607587866 0.20686438863628231 -0.02005782556827094
2221812000.0 0.2339087245005102 0.00036565270489448973 0.09788067100765745 -0.09827301227766834 0.09688550204515908 -0.09805185747755203 0.2075800167101264 -0.0209177951843253
2222875000.0 0.23617289155288765 -0.00016904580374025628 0.09495017944914051 -0.1013791618488442 0.0942142417385534 -0.10106912199047347 0.20813141616098055 -0.022189296564448423
2223938000.0 0.2383684147497841 -0.0007667948927791842 0.09181933913151036 -0.1043046345266535 0.0914345318805874 -0.10401698638348576 0.20906522853155962 -0.023799478693292825
2225000000.0 0.24054046027690465 -0.001607683993757372 0.0885424579338983 -0.10723126507385777 0.08847541522024716 -0.10706441216282939 0.21045549382437434 -0.02561229212529713
2226062000.0 0.24274858433377264 -0.0025216552804726328 0.08511021005570475 -0.10993900954889295 0.08532977855970672 -0.10991701853223715 0.21215251128977597 -0.027775621511816426
2227125000.0 0.2450959246882097 -0.003417984108689048 0.08168396814150908 -0.11247052924965224 0.08203523750205853 -0.11268530667244675 0.21423838907951268 -0.029445228565567864
2228188000.0 0.2471602890296641 -0.00448279527468033 0.07818412106868511 -0.11491795039719761 0.0786229121177504 -0.11540386874567704 0.21663405085439208 -0.03137123431432866
2229250000.0 0.24934889825809867 -0.005680458452860213 0.07445517504368314 -0.11722835517769693 0.07485991598424917 -0.11786078281498516 0.218964747019528 -0.03285768585017672
2230312000.0 0.2515803136020972 -0.006777410465963199 0.07080390162434459 -0.11942669296628612 0.07101125558216707 -0.12024189173347546 0.221807317696863 -0.03420533052531908
2231375000.0 0.25380760985221673 -0.008216264438110216 0.06705690156915589 -0.12142962150590059 0.06698892563481561 -0.12230162113247989 0.22463010923932158 -0.03553865831896144
2232438000.0 0.25607168024071175 -0.009541188575298344 0.0632012913074151 -0.12331310426188445 0.06292398399815592 -0.12423383301353177 0.22718058300230984 -0.03656060044281634
2233500000.0 0.25827520544881316 -0.011052665859608719 0.059311750867564586 -0.12513665159623713 0.05877147558654963 -0.126046836647753 0.2296834563033727 -0.037465758097333116
2234562000.0 0.26061425314924097 -0.012645835932427043 0.0553831535807441 -0.1267386464364139 0.0546372065892883 -0.1274960138048806 0.23172052112525213 -0.038382958547573474
2235625000.0 0.26296502220733836 -0.014309110687059833 0.0514970503315066 -0.12835864068044248 0.05049241526346039 -0.12886530852347472 0.2333719051640689 -0.0392760995714348
2236688000.0 0.2652145679431814 -0.016274889033345775 0.04735602530960561 -0.12961937176996396 0.046401260293258445 -0.13016503815570846 0.23512702423347615 -0.04025947175249608
2237750000.0 0.267554442628194 -0.01827127136469064 0.04315902997157814 -0.13105266077618904 0.042270720530122256 -0.13138150798029014 0.23610269770310124 -0.04105187908229224
2238812000.0 0.26986746457422345 -0.020549473354091935 0.038921279215244714 -0.13212737911119768 0.038073439071509105 -0.13240653278025102 0.23658704870232755 -0.042247531657646484
2239875000.0 0.27211903526987546 -0.022659520962500353 0.03470848426299029 -0.133107176305158 0.03402341393141041 -0.1333467598727881 0.23722311578231678 -0.043920302567603785
2240938000.0 0.27417761203207336 -0.02516923024717999 0.03043588880110878 -0.13412756243818394 0.029839505042979303 -0.13424721001552484 0.2375745922157312 -0.046073032700898284
2242000000.0 0.2762850548803488 -0.027770519584606065 0.026240428294553482 -0.1350436698450686 0.025630704827125254 -0.13508368523301886 0.2377081595704308 -0.048263143262553466
2243062000.0 0.27823267076629227 -0.030435865057278223 0.021780662518860936 -0.13578663150191542 0.021412040597242003 -0.13573119430501768 0.23803930649609586 -0.05114330187666394
2244125000.0 0.2801484574607485 -0.03327850899952272 0.017649067339338378 -0.13638536164550855 0.017050542919575112 -0.13634430558526217 0.23859188241363527 -0.05425214857563075
2245188000.0 0.2818280626773054 -0.03619828627793071 0.013249163799627154 -0.13680734077496784 0.01280636139259957 -0.13682170626620674 0.23946775705441095 -0.05781118355874369
2246250000.0 0.2836477652875921 -0.03923655586600166 0.009006492790846346 -0.13712947046322393 0.008550453310049536 -0.13710375891816887 0.24067266587326364 -0.06141645254833309
2247312000.0 0.28531616506503293 -0.042312301234931834 0.004788631842375691 -0.13731191136001614 0.004275058293405688 -0.1372340884971891 0.24243360459113464 -0.06528694808610536
2248375000.0 0.28676300837933794 -0.045737349681762414 0.0004912831254097386 -0.1373071765123854 -0.00011612610452781099 -0.1373321479257453 0.2444088274701002 -0.06883172086729707
2249438000.0 0.28826875819584624 -0.04917987348108422 -0.003940644087264246 -0.13713719592200957 -0.004310806946102108 -0.13730802922463686 0.24675472231445392 -0.07212381612185921
2250500000.0 0.2897502347361341 -0.05256021642605679 -0.00811887042672704 -0.13678656189986174 -0.008690836268559612 -0.13702217780122006 0.24917181536413577 -0.07508549997032954
2251562000.0 0.29101494443012055 -0.05605575320175791 -0.012345291704671628 -0.13636644710422124 -0.012925328073679776 -0.1365814973638959 0.2517946569205195 -0.0779451113249438
2252625000.0 0.2924596230101393 -0.05973437848102873 -0.016662200267886677 -0.13580405006491086 -0.01723538069571203 -0.1359991918683299 0.2540950606747382 -0.08028774154695249
2253688000.0 0.29345686972227125 -0.06356870230502584 -0.020934750552480834 -0.1351131732252462 -0.021518665060512084 -0.1352644055083674 0.25632203615976407 -0.08220516983656657
2254750000.0 0.2946119159432678 -0.06729308544434355 -0.025132399371826073 -0.13433141508822385 -0.025760271396397784 -0.1343376720661174 0.25819910328048584 -0.08422815993422995
2255812000.0 0.2956741616606397 -0.0711553388574973 -0.029188634888323798 -0.1332497029631549 -0.030011860463429855 -0.13323981100595694 0.25962130112583276 -0.08586415486843049
2256875000.0 0.29665193713990534 -0.07511594292265004 -0.03341385517645142 -0.13212301472610247 -0.03401667271663266 -0.1320602534866287 0.26082251978490606 -0.08745960610724385
2257938000.0 0.29741736588859213 -0.07924764010132626 -0.03733379256319224 -0.13089224994430662 -0.038103376398986026 -0.13064538575818108 0.26153493284398793 -0.08941275585757248
2259000000.0 0.2983544057839724 -0.0832101182128176 -0.04141765562479884 -0.12941665990849086 -0.04197535807766072 -0.12903793960292542 0.2620162145298336 -0.09139345291587476
2260062000.0 0.2991201417534679 -0.08759418199515988 -0.04531284714539278 -0.1277655754851918 -0.045778154622294925 -0.127357796637747 0.262131620191959 -0.0936316530859876
2261125000.0 0.2995738239917713 -0.09174166521624391 -0.049140659348736536 -0.12586203458707787 -0.04953187583489796 -0.12552761675578983 0.2619717401136885 -0.09614456760335716
2262188000.0 0.2999261769612807 -0.09607896590228042 -0.052876234043509926 -0.12402173371823169 -0.053214526585210205 -0.12367176234280959 0.26183909841581227 -0.0990080866228094
2263250000.0 0.30044686952209043 -0.1004836423069233 -0.056573294247545015 -0.12196267887974724 -0.0567344611391211 -0.12172515407058315 0.26137399547252116 -0.10216060812347397
2264312000.0 0.30056722279476267 -0.10474500349726015 -0.06017562052754647 -0.11975277261082677 -0.060236165837406964 -0.11980935015740987 0.2610733411821467 -0.10548593892323752
2265375000.0 0.30076380246340817 -0.10879581782414492 -0.06353959960406104 -0.11754476161161895 -0.06362083358200338 -0.117757791310008 0.26091529491782295 -0.10928736231992779
2266438000.0 0.3008559158043013 -0.11311399791085854 -0.06689072515595904 -0.11536895661756937 -0.06704806603806664 -0.11567589944368817 0.26105088961038775 -0.11317715654400673
2267500000.0 0.30089857000280185 -0.11708494053703355 -0.07004784824516312 -0.11305540065314157 -0.07034753802997788 -0.11341860409055908 0.26120337363891866 -0.11707465056344815
2268562000.0 0.30075491512671665 -0.12131147045287018 -0.07318435866729708 -0.11062892137055134 -0.07374176019585665 -0.11105160478429028 0.2616219185707345 -0.1211410826032306
2269625000.0 0.3007699523575169 -0.12520644912575674 -0.07621471043080645 -0.10820592714775663 -0.0771142140349305 -0.1086450339411286 0.26238736774203825 -0.12473797856378241
2270688000.0 0.3005510743241194 -0.12912577476533096 -0.0791978760404789 -0.10586108213545631 -0.08035739955819442 -0.10611549705064603 0.2632520672075293 -0.12803185185356847
2271750000.0 0.3003860638912211 -0.13292107930477454 -0.08209815187028398 -0.10344668213531477 -0.0834990777553604 -0.10330847551403223 0.2641079612164875 -0.13111518341571274
2272812000.0 0.299989784212509 -0.136827920286827 -0.0850983041807797 -0.10085904681920434 -0.08648363156728825 -0.10046962316508082 0.2648993669567016 -0.13371724872050034
2273875000.0 0.2996453148803342 -0.14071224858240433 -0.08796872140916018 -0.09825548278211593 -0.08930559014999731 -0.09745049125464164 0.26550869952243256 -0.1360315318182477
2274938000.0 0.29900158680646227 -0.14436435804170844 -0.09081324896824612 -0.09558008675262208 -0.09189942099093354 -0.09454353728321728 0.26573634056201334 -0.13830340535511107
2276000000.0 0.29850555101440285 -0.14821407655662552 -0.09362430987719268 -0.09290790354634304 -0.09439620931081492 -0.09152865752534392 0.26575910316995277 -0.14029700851604845
2277062000.0 0.2978121992582655 -0.15185672705760475 -0.09632761938954428 -0.08974511883365698 -0.09675825375703583 -0.08846089568874047 0.26535486930858404 -0.14231076084769664
2278125000.0 0.2969558079935941 -0.15542837363707307 -0.0990060086129776 -0.08683679815503442 -0.0989879255268154 -0.08554480611033582 0.26468032848814743 -0.14447853780328418
2279188000.0 0.29616537432723833 -0.15897250085830888 -0.10146367301309347 -0.08370031878589736 -0.10111414652858843 -0.08260376498138682 0.2637422376696321 -0.14676996068674966
2280250000.0 0.29514139046966364 -0.1622276668470513 -0.1039030639829358 -0.08037899682821166 -0.10326539153868684 -0.07964829786180921 0.26262699050169674 -0.14930221780461725
2281312000.0 0.29428492267197714 -0.16553536561638932 -0.10612806031122772 -0.07716996811331621 -0.10541564318674158 -0.07671392712824518 0.2614565336682826 -0.1520182453754513
2282375000.0 0.2934083008309718 -0.16873358729318444 -0.1080968071839453 -0.07351948156209497 -0.10743636854228472 -0.07369919361200242 0.26007237727723215 -0.155014511165358
2283438000.0 0.2924368503057354 -0.1717106540754421 -0.11000284885942592 -0.070120411612352 -0.10944066794921278 -0.07058901467544566 0.25900416022340145 -0.15814933796684524
2284500000.0 0.29150966491670216 -0.17465824297899366 -0.11155273284109499 -0.06665645239383437 -0.11145353534093344 -0.06735283136208961 0.25764321725701633 -0.16149835497080534
2285562000.0 0.29069870822601246 -0.17757874371010327 -0.11311862659634496 -0.06295165047343586 -0.1134157943574777 -0.06389070114411954 0.25651984558523433 -0.16502725963773646
2286625000.0 0.2899000338170949 -0.18048546412727154 -0.11443667907772889 -0.05950579329050669 -0.115242492644942 -0.06028525721161832 0.25566891554343024 -0.16840421521556403
2287688000.0 0.28911115721220726 -0.18333377611170762 -0.11554280360974756 -0.05601358117637043 -0.11688264169513779 -0.05656591175863138 0.25482092706871357 -0.17194166032310884
2288750000.0 0.2883050412420552 -0.18605483845440268 -0.11681702877275561 -0.052685037467672294 -0.11829085608526115 -0.0528118277710339 0.2539891704047536 -0.17534283604520604
2289812000.0 0.28746643106360437 -0.1887668969262741 -0.11790471709856806 -0.049333714193035165 -0.11942372716820926 -0.04898077374244703 0.253785402709648 -0.1782358523497596
2290875000.0 0.2866163778308963 -0.19142872420127927 -0.11906931035507824 -0.045994699595757915 -0.12058987520419218 -0.04517871458106879 0.2531074940521835 -0.18113520234789793
2291938000.0 0.28570237986413904 -0.1939988791102783 -0.12012260711685879 -0.04274266145202537 -0.12137075195120305 -0.041504633241432255 0.25268237239542934 -0.18360553731624896
2293000000.0 0.28500331809792695 -0.19641222435205438 -0.1211405772322658 -0.039350921822579606 -0.12215254152868801 -0.03803131038269686 0.2519912704464251 -0.18588289037558778
2294062000.0 0.28399366385443703 -0.19891565855884583 -0.1221421708194743 -0.03622772691485361 -0.12272766988381012 -0.034481045714222947 0.25137854731532394 -0.1880904139607719
2295125000.0 0.2830090167693431 -0.20107036966968175 -0.12318412765924305 -0.032810883511758544 -0.12334833337588832 -0.03117885384466472 0.250547866986207 -0.19015267347845397
2296188000.0 0.2821536313446212 -0.20321068047023477 -0.12421960206065173 -0.029477994157612552 -0.1239238431515915 -0.027940230745614855 0.24953294593391911 -0.1921792623777798
2297250000.0 0.28143009601063934 -0.20539908205756235 -0.1251097796074068 -0.025911587382336475 -0.1245479418427737 -0.024662226500584132 0.24824411044367373 -0.1942443356887051
2298312000.0 0.2805475380040077 -0.20729657203086585 -0.12588895049085358 -0.0222668804656548 -0.12527901343495643 -0.0214014693004236 0.2470472488087053 -0.19625355504810835
2299375000.0 0.27980262751757956 -0.20921955386677932 -0.12658164748550293 -0.018592257940160194 -0.12592764363688147 -0.018013081678195656 0.2458817414843249 -0.19852442653946706
2300438000.0 0.27914925922085226 -0.21116116852051645 -0.12714557962720652 -0.014726901975334678 -0.12658349593076026 -0.014538046133578083 0.24455835884856789 -0.20093283796863504
2301500000.0 0.27852863078813617 -0.21292921960372152 -0.12746372683285975 -0.010950944519201592 -0.12716347385425877 -0.010906159481988713 0.2428857396519906 -0.20366034558598545
2302562000.0 0.2779162507376074 -0.21481330597690088 -0.12767269351457916 -0.0070589439342328185 -0.127632459524657 -0.007089552220564721 0.24160130561505322 -0.2063482040356324
2303625000.0 0.27718045991575946 -0.21664610779453 -0.12774670044685837 -0.0031720555277143046 -0.12789369797052977 -0.003193664951634819 0.24040924914536427 -0.20894890857160894
2304688000.0 0.2766616851234929 -0.21857845630734027 -0.12758941691313835 0.0005871181092112626 -0.12787671419462482 0.0007810602672590727 0.23921633137298362 -0.21186079174587027
2305750000.0 0.27595266117732736 -0.22039372828710946 -0.12727029037407459 0.004394921141071833 -0.1276299284820579 0.004709098789790895 0.2379681103021692 -0.21457074314689006
2306812000.0 0.27519544684596714 -0.22219853948709767 -0.12662454489206426 0.008302017248073817 -0.12710081743807436 0.00860611035187987 0.23700434163077366 -0.2172474067637079
2307875000.0 0.27441038834484793 -0.22398053431915513 -0.12616477012573707 0.011900607455671952 -0.12647207521412857 0.012432886790458068 0.2362530313182193 -0.21979986058849058
2308938000.0 0.27367470275866346 -0.2259288569936409 -0.12543950391908126 0.01553927474550182 -0.12566704257678243 0.016247403957080474 0.23544232672090057 -0.2221032157478996
2310000000.0 0.2728110767426044 -0.22777185482002282 -0.12462770474467405 0.019205768288463817 -0.12471986152771974 0.01981330870536464 0.23463752243604644 -0.22403704905772454
2311062000.0 0.27200695742242065 -0.2294586557105136 -0.12371345600509108 0.022756193976424643 -0.1237547134628443 0.0234251361993044 0.23376492977875143 -0.22590232603273058
2312125000.0 0.27103029726176026 -0.2312342399902195 -0.12286036779867064 0.02628637934069294 -0.12285067382470946 0.026852509788541642 0.23261818200555598 -0.22752199004553764
2313188000.0 0.2703534809265891 -0.23302507539943848 -0.12182155178020061 0.029692969144050556 -0.12193862355044877 0.030213358514521584 0.2314861543002586 -0.22886611736659707
2314250000.0 0.26944354487749456 -0.23475802167498314 -0.12093048172046086 0.033122637098710515 -0.12108322094043272 0.03359306859058384 0.23012126555149376 -0.23042624328859349
2315312000.0 0.2687622847539535 -0.236332128997116 -0.12007540207748656 0.03643552854521715 -0.12011288719770122 0.036863967337471305 0.22875451346844067 -0.2319617484674238
2316375000.0 0.2679403508910755 -0.23808683215825177 -0.11910830116009553 0.03973268223264276 -0.11922844978750412 0.04019901243626913 0.22729767678331964 -0.23372380025507528
2317438000.0 0.2672015962788676 -0.2398442325591246 -0.11798010647293343 0.04304347324998649 -0.11822681874257882 0.04364177208047279 0.22580967432051663 -0.23553167752013304
2318500000.0 0.2664186036608583 -0.24150889061887748 -0.11685032707583191 0.04622216855424613 -0.11706352013158666 0.046997092102606136 0.22440087872383352 -0.23756800207351142
2319562000.0 0.26551550465304363 -0.2432405900246658 -0.11551941633272238 0.049574981639915625 -0.1156751285035111 0.05046453169943056 0.22287037690159384 -0.239573091617897
2320625000.0 0.2645700986972138 -0.24509879803685017 -0.11417352632028639 0.052849671841086035 -0.11411125647489982 0.05384554116758166 0.2216207414421863 -0.24193322325358926
2321688000.0 0.263497720328214 -0.24697103664784423 -0.11266863922663453 0.05616610437184826 -0.11248260577283463 0.05724246716910258 0.22052779202417935 -0.24422246209810947
2322750000.0 0.26241948942763504 -0.24901271661152985 -0.11106156333231569 0.05946094943489735 -0.11062185816701299 0.06056998736162327 0.21952590836621 -0.24662262811378002
2323812000.0 0.26113664980387363 -0.2508672466324688 -0.10931928667778754 0.06267817428499357 -0.10868483489802185 0.0637922456026622 0.2186316539101064 -0.24893355382690063
2324875000.0 0.25991094940843845 -0.25266009563939396 -0.10742533645138151 0.06589993296889105 -0.10668915221404593 0.06680506455862893 0.218103212688099 -0.25118430121490354
2325938000.0 0.25865248556246606 -0.25456794821977596 -0.1054185683435535 0.06896698411115146 -0.10458686586629287 0.0696573769316461 0.21746762281754867 -0.25322700896304556
2327000000.0 0.25728666079369505 -0.2564370904237637 -0.10315088365381449 0.07206183630536134 -0.10240022217686928 0.07243164072271639 0.21706320422724926 -0.25486188637720947
2328062000.0 0.25608146985464336 -0.2584779877242254 -0.10083950416813887 0.07497100193602899 -0.10007488498512754 0.07517799546805969 0.21646331536289296 -0.25639212635984565
2329125000.0 0.25450123272220965 -0.26014566080187473 -0.0983228520958281 0.07798377711897989 -0.09778667223233428 0.07783869866433901 0.21576340474350406 -0.25762292111096097
2330188000.0 0.2532242421877331 -0.26201471057676895 -0.09580455877126373 0.08083225997681037 -0.09547069004657889 0.08061904271174011 0.21503842992415573 -0.2586716375653566
2331250000.0 0.25194621251661015 -0.2640283131554663 -0.09315109918525875 0.08352167394698184 -0.09304694746811842 0.08336483846520379 0.21405570649570985 -0.25955700369496043
2332312000.0 0.2506540757092286 -0.26607465418732057 -0.09055710049705615 0.08630467191350283 -0.09059669602151295 0.08618535211399322 0.21281390793536423 -0.26061450592883434
2333375000.0 0.2493464648230051 -0.2679744576504622 -0.08785324106689349 0.0889177934276193 -0.08797179865033311 0.08887255753359367 0.21131700357322344 -0.2616554010602864
2334438000.0 0.24800378636276496 -0.2700279160217282 -0.08522565609514546 0.09145965302250865 -0.08541379694959043 0.09163756692317016 0.2096793543586374 -0.2628423156343628
2335500000.0 0.24651028061279265 -0.27220785499036465 -0.08260193379006738 0.09391834853738858 -0.08272563030889277 0.09435216902199597 0.20799775945562812 -0.2644637723638994
2336562000.0 0.24501482910453 -0.27426967699497734 -0.0798278849087203 0.09618922331195862 -0.07996125438431886 0.09688433505601893 0.20624093366432744 -0.26608397422504215
2337625000.0 0.2436086137969114 -0.27652651356181795 -0.0770042638205154 0.09847466677101781 -0.07709655314802297 0.09932833865104172 0.2046073206141916 -0.26794970693806797
2338688000.0 0.2420372356121865 -0.2786102038796176 -0.07431365324382969 0.1007753730337759 -0.07425068463860467 0.10163636138006263 0.20285634624066637 -0.2703550957783234
2339750000.0 0.24043285269394 -0.28081974271875104 -0.07138210145965806 0.10280100570093093 -0.07119435534474862 0.10371252593194696 0.20130751816894726 -0.2729043829364272
2340812000.0 0.2389961489341713 -0.28285356615473023 -0.06842367109274618 0.10490785934311211 -0.06815416679830347 0.1057465864848338 0.20002775057680564 -0.27560278821119966
2341875000.0 0.23740033115642475 -0.2851278657052143 -0.06555361747068832 0.10676165666734913 -0.06503201601917005 0.10766266351976053 0.19915205116789925 -0.2783589568599369
2342938000.0 0.23578891162421992 -0.287453192182401 -0.06239375079444309 0.10868897318569065 -0.06186590488268097 0.10940460558536441 0.1982517087189157 -0.2811263439854376
2344000000.0 0.2341765080120064 -0.28970320078844053 -0.059264469854118686 0.11053558822584734 -0.05867381316858392 0.11114904640192405 0.1979174385073045 -0.2837254625608535
2345062000.0 0.2324627175226304 -0.291662527363149 -0.05608186065478355 0.11202745870721657 -0.05537911162223085 0.11263111675733153 0.1978180795062273 -0.2863188570290894
2346125000.0 0.23089508758937516 -0.2940973864254026 -0.05277821760004991 0.11349024299585586 -0.05203518232565009 0.11403483178788955 0.1978348463473522 -0.2883923986207867
2347188000.0 0.2291876532044546 -0.29632187139490224 -0.049459857017203 0.11486225227498757 -0.04861738212793303 0.11531308847199845 0.19786662372305136 -0.2903500801543317
2348250000.0 0.2275495628462486 -0.29839446447588647 -0.046128810159507976 0.11605728988229017 -0.04520053202125227 0.11655962554662973 0.1979252600124169 -0.2918403316351483
2349312000.0 0.2258375921666803 -0.30066902167264514 -0.04245824784113119 0.1171597916477688 -0.04169011373120747 0.11746808342813828 0.19743615323343722 -0.29276301145434275
2350375000.0 0.2240898565566156 -0.3028438267507328 -0.03891851391125246 0.11807245985406639 -0.038044425694427446 0.1184006762648695 0.1967222776178579 -0.2937031266333135
2351438000.0 0.2220737679673126 -0.3050389462358899 -0.035264762451886755 0.11901330123370443 -0.03451241421041105 0.1192492239423459 0.19579026586304563 -0.29404087735091694
2352500000.0 0.22019003303169138 -0.30744975148501474 -0.03161855211946251 0.11997890517416535 -0.03082373634564873 0.11995358497535605 0.19387776531685366 -0.2947926774691342
2353562000.0 0.21820784723617406 -0.3099286314282905 -0.027666989760871806 0.12081921978628445 -0.027021007642834695 0.12069752049716552 0.19162989117462972 -0.2958410058047241
2354625000.0 0.21631148499870026 -0.31223683194089824 -0.023967390731330574 0.12171877833048535 -0.023490906852922742 0.12134884001720778 0.1887622327077106 -0.2971459827929842
2355688000.0 0.21423227159351152 -0.3147095532016391 -0.020128237696388347 0.12227628131300339 -0.01976018169058279 0.12198950578566051 0.18584517866972539 -0.29888976907444104
2356750000.0 0.21212733690783803 -0.31714184634882403 -0.01634250337670571 0.12289404523233098 -0.015997285525646783 0.1224916816126483 0.18275826748944982 -0.3015219213705639
2357812000.0 0.21006108219787073 -0.31968244265722306 -0.012414648051448773 0.1233310229201488 -0.012309460691197056 0.12304218539857699 0.18026531488145295 -0.3039762432264049
2358875000.0 0.20784406909432376 -0.32223338400786095 -0.008515185445754471 0.12359718166806907 -0.00845241958950731 0.12345762097145191 0.1772963023470407 -0.30748806558064573
2359938000.0 0.20575712697899318 -0.3247990205111636 -0.004689422138713386 0.12371255426053529 -0.004655779229806201 0.1238168296185928 0.17486046160657923 -0.310663089304674
2361000000.0 0.20360630850427477 -0.3273413519473121 -0.0007037790216142374 0.12378455003707654 -0.0008166298773826128 0.12388187430339243 0.17309728547285944 -0.31499607269470803
2362062000.0 0.20155470353899152 -0.32986227341798563 0.002934905968273165 0.12355410672284516 0.0030755676354054487 0.12390467730735144 0.17160795860820935 -0.31898501242643335
2363125000.0 0.1993677496562887 -0.33247424300476913 0.006905176197502436 0.12320460085579321 0.006919853520585446 0.1237830266301815 0.17057714209381755 -0.32337708377059843
2364188000.0 0.19743011248364795 -0.33498030456044176 0.010573232478422156 0.12277015574021666 0.010675758814025122 0.12343926472873855 0.17043441365983017 -0.3272594259114328
2365250000.0 0.19519293588584555 -0.33755339261767764 0.014151004715128826 0.12219137446502515 0.014519513076937053 0.12283711164351208 0.1701790025100191 -0.3307828444888465
2366312000.0 0.1932311334467587 -0.3400819338869938 0.017537139971965144 0.12141134200097287 0.018208933136763823 0.12197505539813858 0.1701418694654182 -0.3343097321796525
2367375000.0 0.19116947722813957 -0.3426620669700687 0.0210078487059717 0.12062806900454566 0.02182465472533505 0.12116431066327005 0.17070472067711703 -0.3375253621040521
2368438000.0 0.18912422329940515 -0.3454408419593514 0.024139636544110263 0.11977391670977745 0.02524201638162084 0.12012851914843724 0.17118273958735594 -0.3403442415875989
2369500000.0 0.18710798227408426 -0.3480982780170256 0.02743317311183858 0.11879421143230573 0.028566593683099776 0.11890239332974387 0.17140703575724062 -0.3424259389935015
2370562000.0 0.1852096277073424 -0.3509597905062108 0.030675536573931326 0.11777797719182655 0.0317567460970011 0.11775073961094022 0.17110396847453005 -0.34424941858937036
2371625000.0 0.1829550628365444 -0.353407368091913 0.033655713696200025 0.11663163227622746 0.03488979942240383 0.11646931754348348 0.1710507721016436 -0.34541868455935926
2372688000.0 0.18110438421538527 -0.3561127889970735 0.036931056503154244 0.115513690524911 0.03794104845813168 0.11516196510375604 0.1691722368155679 -0.34635869361782934
2373750000.0 0.17896406216244307 -0.35868447636412143 0.040130001490309215 0.11427460572118271 0.041092075020510835 0.11385852892527903 0.16693100443397504 -0.3471573387679655
2374812000.0 0.1769250262694212 -0.3614574400226467 0.043407768172402 0.11301091410854085 0.04414256314853019 0.1125148425375146 0.16428089652752878 -0.3480954007652599
2375875000.0 0.1748370895958778 -0.36385126434766374 0.04673338038527415 0.11160121476289606 0.04743466373789764 0.11116765983725879 0.16088294230546737 -0.34966256036883964
2376938000.0 0.17270669178249762 -0.3662087058843117 0.050157302657116466 0.10997833512893608 0.05064306314379343 0.10953400425633851 0.15719127942796007 -0.3515498390324808
2378000000.0 0.17049242303405338 -0.3684283899598037 0.053570422718239405 0.1084405018559313 0.05394086778928315 0.10785795943571334 0.1534058583863846 -0.35360585970320624
2379062000.0 0.1683052888891899 -0.3707243290724573 0.056987448351542784 0.10656582777629893 0.05728630487197121 0.10609946106800475 0.14960345847720677 -0.3565186022152058
2380125000.0 0.1662596646599307 -0.37281833947864185 0.06032076944242278 0.10455851573583422 0.06049599674006761 0.10396382719437887 0.14599789361104062 -0.35977045176617156
2381188000.0 0.1638388707041164 -0.37503356225399825 0.0635170406915985 0.102439566348534 0.06374604263527106 0.10183382544357565 0.142965966934052 -0.36312488530613557
2382250000.0 0.16156758027703694 -0.3771477583079522 0.06662337111470278 0.10005598073621484 0.06666977101066679 0.09941721757723243 0.140184856578293 -0.36653822450777823
2383312000.0 0.15958252017450694 -0.3791759423630479 0.06971662509649858 0.09763270843663763 0.0695900486676689 0.09703809589401409 0.13765877775941657 -0.3700967553124037
2384375000.0 0.15704997662993003 -0.38119066519639083 0.07224026864583369 0.09486785098495294 0.07222912036164565 0.09437375768127303 0.13595570583648917 -0.3734135239567707
2385438000.0 0.1547557019990876 -0.38354079745910946 0.0748143901228042 0.09226646182889801 0.07469329957534099 0.09200384559182405 0.13425044118674542 -0.37648541518365364
2386500000.0 0.15248586491315194 -0.3857929300413308 0.07722908909007851 0.0895402319800788 0.0770331122799499 0.0894966459227341 0.1326537077654401 -0.3797214983519671
2387562000.0 0.14984371263588067 -0.38783877336157274 0.07941032197507533 0.08689144327646196 0.07923168754106498 0.08707537839519436 0.13104947098046452 -0.3824062691174545
2388625000.0 0.14725037982468614 -0.39021556794042217 0.08158808741913152 0.08418287014596004 0.08145657326541031 0.08477916701804433 0.12972148938660003 -0.384886156972613
2389688000.0 0.1445959309908277 -0.39249228201126585 0.08355595391124973 0.08176238803524141 0.08365691759599488 0.08249817376462737 0.12847609838850724 -0.3870318623826328
2390750000.0 0.14195486311744368 -0.39443424924816123 0.08541019648142037 0.07937285900005425 0.08591393464334146 0.0801985998755921 0.12684612957998725 -0.38866160677531814
2391812000.0 0.13926693280171454 -0.3965441737150917 0.0873281921586564 0.07700344680487131 0.08811528650187088 0.07776777680009148 0.1250285974130852 -0.38977883419488296
2392875000.0 0.13645334747347915 -0.3986067108781948 0.08921323295276712 0.07459813982374593 0.09031033449053945 0.07530315989876642 0.12259111975230165 -0.39087450833489246
2393938000.0 0.1338767499895013 -0.4005444371594199 0.0910411368877168 0.0723446846139137 0.09243942453703018 0.07249602179587862 0.11983456715786572 -0.39166154636076894
2395000000.0 0.13103414239757522 -0.40249886719088207 0.09281462286874678 0.0699361784521985 0.09461217336885339 0.0696760700340529 0.11626130093510759 -0.3923833007840804
2396062000.0 0.12838564092312452 -0.4043960006170852 0.0948049121800699 0.06735999389294296 0.09651062439183512 0.06668110557500506 0.11230178409625484 -0.39327821738296953
2397125000.0 0.12568843716843864 -0.40629349380020535 0.09653223071192896 0.06466739034934411 0.09822591581211101 0.06355989138092635 0.10813488451764634 -0.3945561957014268
2398188000.0 0.1230401606764581 -0.4082891558230454 0.09849339201285334 0.061966953342007275 0.0996802849082042 0.060414847459414014 0.10351454092360496 -0.39605809071192505
2399250000.0 0.12024702712167286 -0.41039944321396804 0.1001515183532224 0.05914404321930889 0.10094759414102063 0.05718416244380039 0.09937951090087165 -0.39782319015412515
2400312000.0 0.11751433250796611 -0.4122849457590182 0.10177121484826247 0.0560311192805793 0.10203380831125218 0.0540685380389522 0.09515800322464826 -0.39963344351332974
2401375000.0 0.11474550223774704 -0.4140877679076971 0.10329379752807004 0.05304931423092249 0.10286855187749978 0.05111729983457986 0.09137929252791535 -0.40179697419880933
2402438000.0 0.11202537474480852 -0.41596030931286765 0.10473553876787839 0.04977391612864399 0.10376205537109354 0.04825495631907239 0.08754492934265244 -0.40373937595285486
2403500000.0 0.10910550568577752 -0.4177094281147738 0.10588339599603185 0.046451701046693473 0.10457497070400562 0.04540703882142827 0.08447492239284712 -0.4056975399184842
2404562000.0 0.10610416880756678 -0.41936846016604085 0.10696343292141514 0.04317273681703307 0.10549316090687033 0.042724502306596274 0.08117815670019929 -0.40758589635110426
2405625000.0 0.10290339898711047 -0.42069750019193014 0.10789645908089339 0.03981265421587604 0.10645184942568078 0.040062504575201704 0.07804178949181477 -0.4091233170798224
2406688000.0 0.09988128707102004 -0.4219706840261979 0.10864596976807274 0.036561947797842456 0.10762960461219469 0.037297281754753574 0.07510698542586436 -0.41084701586712896
2407750000.0 0.09660935750214247 -0.4231742802785982 0.10928646760476776 0.033402669660272666 0.1087896859370752 0.0343976881202118 0.07216533953765847 -0.4124434753632766
2408812000.0 0.09348897260032123 -0.42421277632542836 0.10994031921761088 0.03014815267167746 0.10995005231637604 0.03146243820098608 0.06911308252418971 -0.4137791683351566
2409875000.0 0.09025842854278053 -0.4252166114345797 0.11040950257094409 0.027036282662393604 0.11106624147110203 0.028246574511239478 0.06627545613060087 -0.4152246300115111
2410938000.0 0.08688300404862896 -0.4260401929615718 0.11080480058280695 0.02408708598159081 0.1120414104845186 0.024912249638294696 0.0633664049888041 -0.4160285925031876
2412000000.0 0.08358474823796494 -0.42693730531578533 0.1111152445795589 0.021027053918398823 0.11285320163849684 0.0214326448487413 0.059950411979713944 -0.4169289270804699
2413062000.0 0.08013249651519429 -0.4277752974230516 0.11160063334695335 0.017999970262610285 0.11337933702102967 0.017931111216507114 0.0562807304611023 -0.41760104813138155
2414125000.0 0.07680070234452324 -0.4285863208649128 0.11187249307784519 0.0152656775731879 0.11365155794264341 0.014415453714502376 0.05245018684859541 -0.4179105833925336
2415188000.0 0.07315352100392722 -0.4292592345388628 0.11217946828219279 0.01244240302848684 0.11370807622193543 0.011007418893024519 0.04830075358340782 -0.4185634139517335
2416250000.0 0.06969771978558184 -0.430056885188275 0.11243789871167455 0.009420554142268714 0.1135490352153187 0.00769111777730489 0.04361905516165741 -0.4191146873205845
2417312000.0 0.06586478521565096 -0.4306350008541138 0.11259385737375838 0.006538615006538389 0.11325800543579248 0.00449621797114705 0.0387911015197961 -0.4196721390951721
2418375000.0 0.062031963687692496 -0.4314308997112984 0.11289150225626475 0.003621867500710496 0.11278226335412847 0.0015748239206732288 0.034270013359190936 -0.4205797447759385
2419438000.0 0.05833289721964559 -0.4321228430187688 0.11283576919433375 0.000515934611671822 0.11230370523266293 -0.0012494967288330032 0.029758515234788355 -0.42150612342129895
2420500000.0 0.05436188985311496 -0.4324130196313042 0.11285242600747804 -0.002459847285204167 0.11184719494651539 -0.003930700875013132 0.025445429356875646 -0.42261944410894337
2421562000.0 0.05059544809010792 -0.4329049904295242 0.11262836339059089 -0.005501864151790367 0.11143878481146333 -0.006625684004039226 0.022087213495427648 -0.42346671140456477
2422625000.0 0.046797812160235666 -0.433123529249402 0.11229338603809466 -0.008909299010463431 0.11106046991006605 -0.009259441803229379 0.018309309254934174 -0.42391936078876924
2423688000.0 0.042856692786061225 -0.4335086348738471 0.11187362902057013 -0.01203147730681844 0.11078076557038062 -0.012119728338710145 0.015153426340242911 -0.42442214602764544
2424750000.0 0.039063507434771404 -0.4336230092355561 0.11131143117500067 -0.015214134742425714 0.11057185398668072 -0.014987534551685642 0.012022581302213502 -0.4241982632130427
2425812000.0 0.035425285581695165 -0.43379273885174696 0.11082200398217422 -0.01845260681937136 0.11017578825959772 -0.018018894038243468 0.008980925549246151 -0.42380093646589856
2426875000.0 0.0316062738548682 -0.43396354352920075 0.11004259989744963 -0.021618437263700604 0.10978900130588949 -0.021195006889028638 0.005422914124770079 -0.42351533772862965
2427938000.0 0.027773664652986356 -0.4341020867164301 0.10915737260564286 -0.024922316512276946 0.10929874990896335 -0.024512274157574395 0.0012128708451228747 -0.4227346824729375
2429000000.0 0.0240426028842493 -0.4343897504254765 0.10815400934501582 -0.02807204020284153 0.1086128173676719 -0.02783520170734076 -0.0026171078880579865 -0.42233434601701647
2430062000.0 0.020247025992573456 -0.434373351910842 0.1072576563280319 -0.031116452580724853 0.10777229067967573 -0.03119490058990512 -0.006738004788687926 -0.42194411297440804
2431125000.0 0.016548031260210108 -0.4342443485144257 0.10608619223139606 -0.03425300816294078 0.1066863547688805 -0.034506551475071374 -0.011121197502706808 -0.4216555992804873
2432188000.0 0.012705022160460822 -0.4342236584715447 0.1049709670616927 -0.037229854733886125 0.10542262972122515 -0.03771416294934336 -0.015481203842665566 -0.4216800306440772
2433250000.0 0.009000695489482471 -0.43392874747232035 0.10376039614611314 -0.04002563356363827 0.104049045685203 -0.04078114154651203 -0.01990392946410404 -0.4213653980152811
2434312000.0 0.005104566224412094 -0.43361179113224463 0.10256028294123286 -0.04297014925787521 0.10262273114375714 -0.04368039961569648 -0.024341969509899895 -0.42135087358248613
2435375000.0 0.0014989185472765992 -0.4332867924225927 0.10119897253665484 -0.045613625898961375 0.10121217960774144 -0.04646317855193638 -0.02903059523554017 -0.42149337035821904
2436438000.0 -0.0022670922366745333 -0.43279294320755846 0.09991297636868285 -0.048317342190914714 0.09970612815575292 -0.04917693106582978 -0.033559023943533016 -0.42169237122233433
2437500000.0 -0.005908690717400801 -0.43204902843864856 0.09856699986980222 -0.05100035885438533 0.09819200253991608 -0.05165490158730646 -0.038357423454997534 -0.42200518956997596
2438562000.0 -0.00955385218542027 -0.43121467698571364 0.0970845271832658 -0.05361234304009486 0.09677003433568787 -0.05408293902437864 -0.04234507108841072 -0.4224088769693299
2439625000.0 -0.013100226038974897 -0.430649839581472 0.09573283733086047 -0.056217636228245715 0.09526126003381481 -0.05659944875373662 -0.04641829132135084 -0.4231522384197753
2440688000.0 -0.016786165596534713 -0.4299186282145655 0.09415701202360623 -0.058692954626512 0.09379273637104647 -0.059107598155648616 -0.05032083489859997 -0.4238863068896656
2441750000.0 -0.020265173474553547 -0.429184307293708 0.09263106952737339 -0.0612266550531873 0.09221463150589088 -0.06153730492554901 -0.053363139640565584 -0.42434982764042195
2442812000.0 -0.0239078330932773 -0.42852029631192295 0.09077490699469314 -0.06379487763775803 0.09057127927303632 -0.06396469258857138 -0.05584023895818312 -0.42476041936643133
2443875000.0 -0.027474330834820038 -0.4279274760108976 0.08905931029673426 -0.0661092258144586 0.08876567071234515 -0.06640348899459407 -0.058562788435723864 -0.42471827029180187
2444938000.0 -0.03115405341643345 -0.42699761822242915 0.08704371024551949 -0.06861870906671945 0.08675201475420614 -0.06884682248193315 -0.06070175696645991 -0.4240679331650504
2446000000.0 -0.03484000237121937 -0.42661238832171927 0.08491275354826752 -0.07104460238585046 0.08458965269645426 -0.07137313921283552 -0.06316426650298296 -0.4229359022408424
2447062000.0 -0.038566801539187255 -0.42587894187903735 0.08262436664782735 -0.07355687411996002 0.08240827637573066 -0.0737247424881938 -0.06580510000793686 -0.4214510110198378
2448125000.0 -0.04202072572297137 -0.425351432763992 0.08039606955634886 -0.07579425021240305 0.08009493652073993 -0.0760251300950544 -0.06876562198721597 -0.41937789511524703
2449188000.0 -0.04543494332664523 -0.4247608901912924 0.07795037779759283 -0.07811205515401497 0.07772105890524932 -0.0782925273056705 -0.07229162995979142 -0.41770012878602714
2450250000.0 -0.04902391538157716 -0.42436766625028444 0.07545646391281338 -0.08024137275190334 0.07527076457211292 -0.08049725138280268 -0.0762155235409506 -0.41570306200860513
2451312000.0 -0.0523579679552119 -0.4236731430745364 0.07287468190750626 -0.08240161234186966 0.07284698731461241 -0.08261490306840377 -0.08038105989517136 -0.41384157572834246
2452375000.0 -0.055567793577200944 -0.42311574149850006 0.07046303151780611 -0.0843615731234116 0.07035350403305377 -0.08457601790179389 -0.08461565866865957 -0.4126158657855051
2453438000.0 -0.05861481967667924 -0.4226835248019078 0.06779660481712743 -0.08624118225263896 0.06781679782251676 -0.08661367575036225 -0.08919210682134711 -0.41137508527391947
2454500000.0 -0.06176935947266017 -0.422128460480358 0.06517549320717135 -0.08814697764120714 0.06525208159418538 -0.08852112566912201 -0.09334203833469513 -0.41020938060923257
2455562000.0 -0.06474671387749431 -0.42164962619022894 0.06264049262018537 -0.08980766007391866 0.06268637721216613 -0.09031786180149089 -0.09772103019301463 -0.4095339027952806
2456625000.0 -0.06770241671826058 -0.42099106016694926 0.06009367457410765 -0.09165061807399978 0.05996829549441435 -0.09204441800207709 -0.10182222163248053 -0.4089540357368771
2457688000.0 -0.07069021078343839 -0.42038677024814813 0.057600730328796174 -0.09334568083631094 0.057249434563687036 -0.09378155453456112 -0.10573320856002097 -0.40862992873748555
2458750000.0 -0.07348845787756048 -0.41980499804617083 0.054957848694128585 -0.09481362376692393 0.05455343492602015 -0.0953514136378981 -0.1093503159963383 -0.40857840150563673
2459812000.0 -0.07638903589471904 -0.4193864125066275 0.052308348385327365 -0.09638771800455109 0.051789863423798856 -0.09688838654584968 -0.11264067794896013 -0.40864082012296693
2460875000.0 -0.07910030983118907 -0.4185306795628718 0.04963903140894464 -0.0978491131821331 0.04900274886296437 -0.09824736100800036 -0.11548704474898742 -0.408750924014587
2461938000.0 -0.08185344817843493 -0.41808122795253566 0.04689786135595627 -0.09921583889775852 0.04633561480380417 -0.09964053567865117 -0.11791499502613616 -0.40873628598441114
2463000000.0 -0.0846400695544789 -0.41712368396223 0.04402804227992892 -0.10060001323653407 0.04353915035456309 -0.10072560722054637 -0.11989840154268783 -0.408307964497549
2464062000.0 -0.08726259407917315 -0.41620985713167 0.04131809622980824 -0.10175225140583338 0.04068927461849714 -0.10183055030746271 -0.12192780034042691 -0.40782621079360676
2465125000.0 -0.08985919083034817 -0.41554763766627945 0.03818696829263397 -0.10293992515676244 0.037896027301795164 -0.102930666632861 -0.12362285879386381 -0.40684503999543303
2466188000.0 -0.09247574532487308 -0.4149082405591831 0.03527842090242407 -0.10397828387067601 0.034963351820045944 -0.10383532662769623 -0.12549968024373898 -0.40526141096380613
2467250000.0 -0.09489862902300794 -0.41418072304009473 0.032063676365736996 -0.1048556549194821 0.03192894898059897 -0.10474416182925987 -0.12742053258488392 -0.40346043823361455
2468312000.0 -0.0974690712818091 -0.41352061124990924 0.02894434795864722 -0.1057000703065175 0.02891497034568592 -0.10567338962596176 -0.12976831349502269 -0.40172582418604236
2469375000.0 -0.09997019733330238 -0.41275501062492015 0.025772967066275205 -0.10625436256900578 0.02573166672241398 -0.106415534241766 -0.1322678607423014 -0.399461991753124
2470438000.0 -0.10254482718856779 -0.41204619858632263 0.022570211660238853 -0.10686871640704167 0.022467252153902918 -0.10716012550283717 -0.1350988876356446 -0.39736024016053645
2471500000.0 -0.10515032213499674 -0.4114821262842653 0.0194431840441873 -0.10728163298924896 0.019299219895556788 -0.10763363113848075 -0.13850212661765 -0.39503884576870063
2472562000.0 -0.10780546915844078 -0.4108457491155179 0.016250166625344457 -0.10755685333324144 0.016010038816932075 -0.10810291701150956 -0.14200066305677142 -0.39303527480091005
2473625000.0 -0.11046617834599673 -0.41029305906915825 0.013178806540733732 -0.10771248394244744 0.012687401842588573 -0.10833554141595167 -0.14584610892994496 -0.3914702275381737
2474688000.0 -0.11332552565473962 -0.4097050899741308 0.010107608604193274 -0.10789785312873848 0.009482301503070188 -0.1085516061372492 -0.14989222203860156 -0.3904713305980638
2475750000.0 -0.11601257441287034 -0.40917439564120833 0.007127818849749923 -0.10811351849372032 0.00633837598607062 -0.10864470545688498 -0.15376885590112446 -0.3897389961517682
2476812000.0 -0.11885739369054753 -0.40878106411255405 0.004074575658834644 -0.10824799881777789 0.0032368343017783597 -0.10861852839650821 -0.15747292374677907 -0.3893916286279592
2477875000.0 -0.1215894760753599 -0.40838211991046414 0.0011946912248802539 -0.10836687307296178 0.00025081775824325087 -0.10853889243239334 -0.16082636461310262 -0.3893051975640758
2478938000.0 -0.12394198419452658 -0.40805127183514445 -0.001809208113003387 -0.1084914313919961 -0.002749773752615758 -0.10845492976507363 -0.16384242355094586 -0.3895300162978825
2480000000.0 -0.12649567343228946 -0.4079543891693064 -0.004926802785946682 -0.10847223136010982 -0.005689344038968279 -0.10834305742921176 -0.16605965599137557 -0.38990602500055116
2481062000.0 -0.1289240690250467 -0.407695309650443 -0.007896195315813143 -0.10853614731253608 -0.008503146677878428 -0.1082525995728064 -0.16826402202229906 -0.39030428372062337
2482125000.0 -0.13134718477107263 -0.4075811016930915 -0.01085026830559452 -0.10843775366211134 -0.011489249123239294 -0.10811080940509056 -0.16975312156239267 -0.39011854010217883
2483188000.0 -0.13358940079460666 -0.40736039007943525 -0.013891902169131795 -0.10820407624984957 -0.014464210058860108 -0.10792932111153775 -0.17102310538405502 -0.38964834096638246
2484250000.0 -0.1358482498426401 -0.4072843499332039 -0.017106899663213933 -0.10796539235759818 -0.01755075301123112 -0.10762080543281805 -0.1724734182141949 -0.38872974391786763
2485312000.0 -0.13794320888769843 -0.4070625984664845 -0.02034900336131649 -0.10740381961718044 -0.02067515285354672 -0.10722302347662437 -0.17381302544885788 -0.3873267507660823
2486375000.0 -0.1403235857741421 -0.4067129366762157 -0.02368656470445614 -0.10685201403030302 -0.023950338231569918 -0.10664900437251941 -0.1751481622582915 -0.38567183427276047
2487438000.0 -0.14251642133705847 -0.40641011008360073 -0.026766120361767256 -0.10603504590741795 -0.027088006890033094 -0.1058699023507926 -0.17702358578625102 -0.38361401274489243
2488500000.0 -0.14462803874355745 -0.4060104991675619 -0.029962083193347297 -0.10496192454788467 -0.0303340528887053 -0.10494860400780909 -0.1791470841330597 -0.38148358127432974
2489562000.0 -0.14681355420641468 -0.4054470252953052 -0.033078890178897494 -0.10383557843311768 -0.03344293866207794 -0.10378379022130436 -0.1814575575290588 -0.3792335245308315
2490625000.0 -0.14904518145279488 -0.404714410495934 -0.03604429574904321 -0.10251074837417101 -0.03644309150940988 -0.10249762631828466 -0.1839874681274123 -0.3769960242618852
2491688000.0 -0.15131112954592607 -0.40404241987390144 -0.03898929208561042 -0.10116205895433442 -0.039366068644870064 -0.101046107246509 -0.18677480955492495 -0.375088243954527
2492750000.0 -0.15338598357215696 -0.4032605398791503 -0.04169703267518156 -0.09969243137080876 -0.042073651512343484 -0.09951115832912223 -0.1899448941203099 -0.373268181800664
2493812000.0 -0.155443791583815 -0.40238634178040483 -0.04422975060717452 -0.0982059618502228 -0.0446965947448402 -0.09805038672895441 -0.19295974279679579 -0.37159401097307765
2494875000.0 -0.15759899118371132 -0.4018505126721425 -0.04688530737669972 -0.09671915957292276 -0.047176932118865984 -0.09657964172978116 -0.19616133506273103 -0.37062546786695955
2495938000.0 -0.15971386379598246 -0.4009734147577759 -0.0493233453685977 -0.09509330813129631 -0.04960765499740853 -0.09505837937459788 -0.19939328039905482 -0.36983925667808887
2497000000.0 -0.16204161860917807 -0.400313271833958 -0.05176553236224825 -0.09366694480353673 -0.05199917261421243 -0.09368655371779556 -0.20240803498587212 -0.3695462536566705
2498062000.0 -0.16435051256940758 -0.3993805772033427 -0.054197133619605604 -0.09208195000934602 -0.05440220047141884 -0.0923120532486797 -0.20520676409649047 -0.3693248153684649
2499125000.0 -0.1668007066449469 -0.39853253024590807 -0.056643555562734295 -0.09050357223204974 -0.05698917275476101 -0.09087673020301004 -0.2076451280995834 -0.3695432341420138
2500188000.0 -0.16933576510861786 -0.39780312411416646 -0.059063620228632506 -0.08913920141745516 -0.05962988487514053 -0.08941406510975054 -0.209757524602426 -0.3698342214822684
2501250000.0 -0.17207459780992074 -0.39697135237192055 -0.061451824022488284 -0.08738611712504392 -0.06234266553334509 -0.08782347201573006 -0.2112551033678303 -0.36986372656924704
2502312000.0 -0.174740697192064 -0.3958657998373109 -0.06403745479264698 -0.0858541656127498 -0.06509839085584769 -0.08601864085914887 -0.2125308183025282 -0.369678275434205
2503375000.0 -0.1776399193315589 -0.39488967207036113 -0.06668212818200801 -0.08410023158479231 -0.06778232426174197 -0.0841073020680368 -0.2137498307640162 -0.36913355001208814
2504438000.0 -0.1804073181706562 -0.3940284066093752 -0.06920651128943262 -0.08232652044730675 -0.0703103125736311 -0.08192471930854164 -0.21461857793303368 -0.36811252699639896
2505500000.0 -0.18322356052695166 -0.3929834523537983 -0.07165234520152691 -0.08028874014028715 -0.07285251923065426 -0.0795963415219876 -0.2158562567504887 -0.3662256618514071
2506562000.0 -0.18637786235099452 -0.39192638645322797 -0.07419304475490086 -0.07816919166136366 -0.07515472705732132 -0.07713669765164535 -0.21720850463892916 -0.36437162967020437
2507625000.0 -0.1893721478054288 -0.390997003550649 -0.07654862752177796 -0.07586849527939331 -0.07726286970968627 -0.07463305911860132 -0.21880170561200676 -0.3621074132297498
2508688000.0 -0.1920670127691114 -0.3899608722768958 -0.07886180919020427 -0.07343683976112565 -0.07920366385561839 -0.07208628746147121 -0.22091807767096142 -0.35986762727388644
2509750000.0 -0.19493051017713411 -0.38918188369778006 -0.08098485296199855 -0.07081753228554287 -0.08099611663399645 -0.06965436264421454 -0.22316104476396623 -0.3575099203397819
2510812000.0 -0.19778847299878713 -0.38828306101339555 -0.08310689082116385 -0.06828549975995526 -0.08269211185212753 -0.06721015280469282 -0.22572728875960762 -0.3553721065578445
2511875000.0 -0.2005083871568253 -0.387443367321575 -0.08494227278103063 -0.06562674138484693 -0.08424445781847584 -0.06497867809020133 -0.22838655977282257 -0.35330704320130557
2512938000.0 -0.20340193791221411 -0.3865959415716614 -0.08667194450748066 -0.06302780084802141 -0.08582432932939607 -0.06270412804663686 -0.2310775103403194 -0.351673658843969
2514000000.0 -0.20619040752724282 -0.38582231722801147 -0.08830995793648304 -0.060385384243474095 -0.08749279612237108 -0.060525907312456745 -0.234024803007564 -0.3500965287053411
2515062000.0 -0.20906966458844992 -0.3848576156734012 -0.08979583075663192 -0.05783410830868562 -0.08908635118737218 -0.058296479885873866 -0.237051689701525 -0.34905833337671566
2516125000.0 -0.2117098678821493 -0.3841241240468147 -0.0911019947766462 -0.05508714153036961 -0.09067588232196867 -0.05594025731349538 -0.23984223595822216 -0.34810557601533004
2517188000.0 -0.2142928646260234 -0.38298742530992846 -0.09233511978813023 -0.052436641164075884 -0.09235951693847765 -0.053562863327616936 -0.2426530602625981 -0.34768459099196747
2518250000.0 -0.21686537110880727 -0.3817171956007647 -0.09333075190067203 -0.04996222629462499 -0.09401434589994696 -0.05096115026541046 -0.24529872965966446 -0.3476139969967486
2519312000.0 -0.2195405573886195 -0.38036612454836793 -0.09449308838944034 -0.04735829477260147 -0.09558744530219047 -0.04817572595424927 -0.24761899720556368 -0.34755984375816423
2520375000.0 -0.2221851321877452 -0.3790791423578107 -0.09555828471359926 -0.04475814732627823 -0.09704326359774212 -0.04518649169541178 -0.24970472182985587 -0.3474097730172315
2521438000.0 -0.2248982093307313 -0.37749858096808536 -0.09658365506269947 -0.04212188589014215 -0.09831762515381678 -0.042156729001736816 -0.2512455542570192 -0.34733084089847993
2522500000.0 -0.2271889530176035 -0.376100993060486 -0.097614453239604 -0.039589550434462814 -0.09942865968649899 -0.03907737668865852 -0.2526155635481685 -0.346798984305177
2523562000.0 -0.22983024143657152 -0.3745214266673771 -0.09861753759527558 -0.03704459332978919 -0.1002924372720992 -0.03591209207057409 -0.2539607677780952 -0.34556690717613847
2524625000.0 -0.23238398585516873 -0.37290149183395704 -0.09978737637475105 -0.034211756444833756 -0.10100732123974213 -0.03280228248275852 -0.25506248325891945 -0.34412313195618827
2525688000.0 -0.23512920149159952 -0.371134062373872 -0.10072776837800947 -0.03155792334257358 -0.1016169276726704 -0.02980622315059769 -0.25665989938765904 -0.3420016085100966
2526750000.0 -0.23788979975621632 -0.3695841836206553 -0.1019470211078238 -0.02876891922342642 -0.10206061268445821 -0.026870355394672092 -0.25868360868719636 -0.33945148668034114
2527812000.0 -0.2406917058403407 -0.3677441071747469 -0.10254201341841598 -0.02582921199632975 -0.1024688198043312 -0.023996244097859984 -0.2607022995518601 -0.3369581717708031
2528875000.0 -0.24356548841978656 -0.3660864718601005 -0.10363799196636224 -0.02274378722660966 -0.10289736482352567 -0.021266208664224753 -0.26303807206197455 -0.33429313913238595
2529938000.0 -0.24659126800308162 -0.36423841537168283 -0.10430579810827006 -0.019667260804094505 -0.10333945115463161 -0.01857553834931938 -0.26617462964713057 -0.3320596978373217
2531000000.0 -0.24977521853597268 -0.3623841952776641 -0.10494618708274234 -0.016493072715790688 -0.10391135625601494 -0.01594103293186027 -0.2690153135538827 -0.33006773197753597
2532062000.0 -0.25302862955231925 -0.36039956169892756 -0.10543233910778435 -0.0133508016536131 -0.10434917882256398 -0.013206296523810156 -0.27189908051923056 -0.32799818921327356
2533125000.0 -0.25614067951583286 -0.3585389203231848 -0.1057585506363208 -0.010139220169628534 -0.10479084992466485 -0.010372663581167934 -0.27490991158478834 -0.3262248610954904
2534188000.0 -0.2594590822415914 -0.3566032088768403 -0.10589681361334019 -0.006904799753208111 -0.10528545698026251 -0.007486480851169957 -0.2775071954276264 -0.32465206186918555
2535250000.0 -0.2628657928616888 -0.354532277397703 -0.10583673830594796 -0.003824034643360577 -0.10560919089449414 -0.004406847022899894 -0.2806654144673116 -0.3233918509081103
2536312000.0 -0.2661839586423222 -0.3525531008762709 -0.10561682118366525 -0.0006877790429258777 -0.10581124975668461 -0.0012854409815267354 -0.28345923666810785 -0.3222482511851006
2537375000.0 -0.26947699748478043 -0.35073323637413734 -0.10522267739729056 0.0022973989247499645 -0.10585335495988935 0.0018481136797914531 -0.2861603901632969 -0.3210470288808735
2538438000.0 -0.272987373163267 -0.34890706396632964 -0.10493178933114691 0.005274590715233781 -0.10569392158833686 0.005045524643729545 -0.28875348194099254 -0.3200912510668326
2539500000.0 -0.276000360067201 -0.3472789149015212 -0.10450427252705338 0.008251848761414379 -0.10539352075718983 0.008255839945590296 -0.2914009817439754 -0.3193246061445962
2540562000.0 -0.2792683940680546 -0.34546515399000116 -0.10391894140943013 0.011007624154065325 -0.10479192896027481 0.011379222620146418 -0.2935239218902829 -0.318546308203748
2541625000.0 -0.28236640575232486 -0.34368677382669716 -0.10335351801004496 0.013798576288000323 -0.10421019748349288 0.014428824089862272 -0.2958807062520366 -0.3176436342520413
2542688000.0 -0.2853849217618341 -0.34196490425843673 -0.10285841049395088 0.01645402093256112 -0.10343480788618602 0.01738439614225257 -0.297523176563084 -0.3165494106518517
2543750000.0 -0.28824625030135503 -0.3403670817359839 -0.10216065023494118 0.019225740625451623 -0.10266755425514314 0.02023486350353364 -0.2992922299874899 -0.31496541378950277
2544812000.0 -0.29134910106915735 -0.33849439195717496 -0.10173027282155707 0.02190648222394732 -0.10184689619231149 0.02305796327981562 -0.3010569429676739 -0.3129616441120202
2545875000.0 -0.2942269805498824 -0.3367290828093454 -0.10108625395681785 0.024630943119491322 -0.10099218830218293 0.025796170183286202 -0.30290900617107264 -0.3107209884878306
2546938000.0 -0.2968422021641678 -0.334920351911723 -0.1004344674260277 0.027427772058265465 -0.10013324595528113 0.02857862023793457 -0.3051229557447883 -0.30818670783209273
2548000000.0 -0.29967443057691956 -0.33302551731163116 -0.09988145976034808 0.0302372389264369 -0.09932175683361769 0.031215155842093275 -0.3073055982001551 -0.30529411833720593
2549062000.0 -0.3022758535767572 -0.3309775659805177 -0.09910061981803407 0.033071188055196724 -0.09838009220988246 0.03388689435800773 -0.31026532329704093 -0.3027385701311171
2550125000.0 -0.3052616608536187 -0.32903131708183714 -0.09834445248688392 0.03605358366094422 -0.09767524220707662 0.03660301521040062 -0.3134975931162286 -0.3002763119201588
2551188000.0 -0.30776762257326074 -0.3269604776974037 -0.09737036117783868 0.03889286032099164 -0.0967672313591368 0.0393530621292292 -0.31693633670770716 -0.2982343853089049
2552250000.0 -0.3104239295380852 -0.3247295004250708 -0.0963176903707177 0.0417287548050097 -0.09563615060013572 0.04199949633589762 -0.32000449230916456 -0.2963200122179302
2553312000.0 -0.31307363674363403 -0.3224059690919602 -0.09497865995981551 0.044563934621437394 -0.0945331753670645 0.04466006065901595 -0.32303404855668216 -0.2949589035687691
2554375000.0 -0.3160081273691277 -0.320239962718281 -0.09358287820153934 0.047370675590778025 -0.09322398751366862 0.047328707486055034 -0.3257583756801951 -0.2935840518525614
2555438000.0 -0.3186480390056485 -0.31802696462975305 -0.09206070269256006 0.04997298604395408 -0.09183817184297309 0.049954787662411765 -0.3280074326273256 -0.2924712345049414
2556500000.0 -0.32134812801835183 -0.3157388613959267 -0.0904895117930012 0.052518097679284 -0.09037492117543687 0.05247202626240788 -0.3297607429455151 -0.29126821271288295
2557562000.0 -0.32407988049677566 -0.3133808790212093 -0.08867326646038337 0.05489559977536029 -0.08867920403312246 0.05485411124976814 -0.3313464215169439 -0.28961279637621534
2558625000.0 -0.3269776607859725 -0.31110969865669713 -0.08687096227821574 0.05716733448807195 -0.0869393501032132 0.057238675209972625 -0.3329115299318253 -0.2879258871689561
2559688000.0 -0.3297767965046264 -0.30861538211999157 -0.08496872030199303 0.05933485570201128 -0.08500482811336788 0.059540841413401414 -0.3339108671639949 -0.28566031537507364
2560750000.0 -0.33263650713806514 -0.30616840226198627 -0.08303058933721563 0.06150930924226123 -0.08317598056784374 0.061841839166579406 -0.33526751083435347 -0.2834724077122853
2561812000.0 -0.335508891842286 -0.3036631226482187 -0.08102542956562041 0.06356552701556072 -0.08118568757898152 0.06398899506356416 -0.33640532567520415 -0.2809142727803158
2562875000.0 -0.33829925040580633 -0.3011407549782432 -0.07901742203301909 0.06554871692755515 -0.0792306238840371 0.06604313898433531 -0.33754235774802005 -0.2781348320963947
2563938000.0 -0.34102953961728577 -0.2987211519099122 -0.07718968401559616 0.06762567505547767 -0.07714162375899751 0.06814757610570116 -0.33892888866448445 -0.2752975727817491
2565000000.0 -0.3438271352036236 -0.2961047441180985 -0.07509323527678104 0.06977260559057372 -0.07505545244936761 0.07018902737364298 -0.34018987706092535 -0.2724469796882823
2566062000.0 -0.3463814476133133 -0.29371279482733476 -0.07304617052843136 0.07168707367055982 -0.0727919605069589 0.0722311037116999 -0.3418047253913119 -0.2691210388694788
2567125000.0 -0.34905650304552366 -0.2912528114950356 -0.07090784652455118 0.07365042433318014 -0.07060088746561909 0.07416765982455915 -0.3436299310679415 -0.26572533191991365
2568188000.0 -0.35157895735590106 -0.2890126551832125 -0.06876371432340166 0.07581409213471488 -0.06830865573244556 0.07620793302489096 -0.3457103835758543 -0.26236569715931135
2569250000.0 -0.3541155240113581 -0.2866282722490204 -0.06646237615949906 0.07762577716158657 -0.06603281123580344 0.07802373822202395 -0.3480166237219978 -0.25882535388828976
2570312000.0 -0.35644809550591716 -0.28433885086952354 -0.06424057492372998 0.07968238706853555 -0.06374614972055476 0.07989396289448189 -0.3508450784277406 -0.25556901893070477
2571375000.0 -0.3587464116788026 -0.2820653772020017 -0.061856802887046716 0.08147938874707206 -0.06144440996256402 0.08162222592037796 -0.35351271732347234 -0.2527255742386374
2572438000.0 -0.3610361690703808 -0.2797813587254151 -0.059473214694910764 0.0832416015680327 -0.059087715184687646 0.08328633635717869 -0.35665239529970943 -0.2502296779876874
2573500000.0 -0.362967294135376 -0.27746965385005823 -0.05700976677637895 0.08486453001571634 -0.05685659405147551 0.08495899980944882 -0.3597779020708206 -0.24824106010468427
2574562000.0 -0.365072094933613 -0.2752825116214183 -0.05453172695157471 0.08639759031919919 -0.05445379653435089 0.08650406468097685 -0.3620226872380467 -0.2462532129347659
2575625000.0 -0.36701787697674154 -0.2728110959314459 -0.052137607075170275 0.08782558952192547 -0.052167728778933074 0.08794287500575493 -0.36465037331600253 -0.2448904361696181
2576688000.0 -0.36884407944287495 -0.2703681746294856 -0.04973072245490168 0.08901511073984074 -0.04981516482648037 0.08935238485132234 -0.3663150030802948 -0.24358839636309781
2577750000.0 -0.370662408540083 -0.26778211261690565 -0.04730464186153962 0.09031903352078245 -0.04735382175878299 0.09063905342159423 -0.36775219310866786 -0.24201473161287737
2578812000.0 -0.3725483246425217 -0.2651429814876443 -0.0448534712275783 0.09140335753306543 -0.04482021099377906 0.09186586500280453 -0.3687555479519722 -0.24030452855536752
2579875000.0 -0.3744428419927285 -0.2625283705455891 -0.04238067889976648 0.09234857639038499 -0.04219304908708926 0.09298015088020482 -0.3693392718916094 -0.23830869386754305
2580938000.0 -0.3762430289209025 -0.25964224815552905 -0.03997069604364643 0.0933661984505967 -0.03951775120146016 0.09409970061047426 -0.3701309289691144 -0.2357938684597494
2582000000.0 -0.37799586646896316 -0.2569034553225337 -0.03747534057138816 0.09435445674139616 -0.03682251670616069 0.0949499610068579 -0.3703794504771796 -0.2329632874639627
2583062000.0 -0.3797624590841697 -0.254059134597724 -0.03498119233764752 0.09515761000727253 -0.03416245117954827 0.09579743936304934 -0.37097908446017896 -0.22996182969799814
2584125000.0 -0.3815073232790343 -0.25132733652086087 -0.03237220699822312 0.0961976865472932 -0.03139587995497534 0.09647634963668951 -0.37159446234116394 -0.2267174476068086
2585188000.0 -0.3833426602316317 -0.24826166507220504 -0.0296373110288991 0.09689085232806374 -0.02865183865432283 0.09708294304960108 -0.3721467403809463 -0.22291477841108503
2586250000.0 -0.38495284642184285 -0.24525473189355113 -0.026895382601079768 0.0976482897317849 -0.026013598324539894 0.09769211378079694 -0.3732082642463637 -0.21936221739679002
2587312000.0 -0.38681896715350444 -0.24234519435861313 -0.02395836645649251 0.09845377619985902 -0.023343528614010612 0.09831500988208203 -0.3745356477931408 -0.21565269935010165
2588375000.0 -0.3882765887399628 -0.23928661387937458 -0.021073863824971277 0.09906686151354141 -0.020559027615991033 0.09881202509417275 -0.376105183723004 -0.21198005274041765
2589438000.0 -0.38988306525710387 -0.2359634560088556 -0.01802386632094947 0.09974204611711575 -0.01774212335616443 0.09934600730490012 -0.37808285871902464 -0.208189922499491
2590500000.0 -0.3913990835195855 -0.23293957963037593 -0.014995732297980109 0.10012447875243577 -0.014974824467299164 0.09982155026403607 -0.3802746802331771 -0.20510649367311726
2591562000.0 -0.3930362710184261 -0.23003416549135336 -0.012011332495305163 0.10049108861747022 -0.012098968458870303 0.10026218831016145 -0.3825566822528695 -0.20204292936985355
2592625000.0 -0.3944420161010524 -0.22687256535032538 -0.008993481843432358 0.10069194914338586 -0.009093433046224036 0.10068557222292328 -0.3847606940097562 -0.19964127206213672
2593688000.0 -0.3957530647325035 -0.2238523748286444 -0.006021073399877041 0.10082140717371829 -0.00617667506804257 0.10102563352301276 -0.3869264204729214 -0.19737248796015458
2594750000.0 -0.39736202632355183 -0.22112962573344302 -0.0030582581283317397 0.10086554579233097 -0.003155813460433038 0.10135077263628157 -0.3886271463581641 -0.195454505034361
2595812000.0 -0.39854963034266516 -0.21812215310414906 -0.0002812351622646644 0.10078170360523415 -0.00019799255005512783 0.10144159249891935 -0.39008123173931697 -0.19368549694765624
2596875000.0 -0.40007058850970945 -0.21533864906889535 0.0024617831233580637 0.10078137383550557 0.002749302475302611 0.10143629152270583 -0.3910614010545943 -0.19194411114638738
2597938000.0 -0.40119411365057916 -0.21260047503428836 0.005190905436140654 0.10044278509301402 0.0057342957423344425 0.10122475204679687 -0.3916378185966665 -0.18995321374466795
2599000000.0 -0.4023280526126876 -0.2097393306948864 0.007864487712771753 0.10021110544681751 0.008613490468376365 0.10088200374753764 -0.39211904049291285 -0.18763498266157816
2600062000.0 -0.4036477503002651 -0.2070666109159241 0.010588311070634562 0.09989053075333647 0.011396095058429357 0.10048056425362768 -0.3922580327433003 -0.1850093745830537
2601125000.0 -0.40444427612849615 -0.2042708985567598 0.013137135475780435 0.09961799982333105 0.01408914130393327 0.0999397208656538 -0.39242198261155675 -0.18209045739388158
2602188000.0 -0.40558009138096635 -0.20145335015478544 0.01566009549449283 0.09907147566262531 0.0167359758979309 0.0994056520388019 -0.39255847694158713 -0.17905969517256656
2603250000.0 -0.40636227829820604 -0.19856121977591118 0.01823622186488434 0.09903319695996993 0.019250940644593695 0.09876938586653708 -0.3927505395605687 -0.17565382466226206
2604312000.0 -0.407074471503029 -0.19546400253948884 0.02093156587938437 0.09853161524238174 0.02183536078788761 0.09817142579659026 -0.3934114743036508 -0.17229937755605734
2605375000.0 -0.4076663456335533 -0.19248841643751902 0.023560472272696736 0.0979726884624746 0.02434363359495931 0.09758540862027876 -0.3939780344901167 -0.16860655995513874
2606438000.0 -0.4084401743879065 -0.1894089768345208 0.026253707946424756 0.0974678176634847 0.026831391843531716 0.09694752389581318 -0.3949578894583562 -0.165041236178069
2607500000.0 -0.40886491305386785 -0.18636917404439896 0.028756963503300752 0.09686733254397022 0.029355210662007396 0.09640148927459155 -0.39630257996618484 -0.16175591188891073
2608562000.0 -0.4093678657400989 -0.18300583351633548 0.03157988932267185 0.09606155718441335 0.031979087941364004 0.09569942585868059 -0.39782442335307067 -0.15838552740904888
2609625000.0 -0.40996907914262093 -0.18002606110802047 0.03424524182033302 0.09523650868541278 0.03462506396693799 0.09484580747313308 -0.3997048843351749 -0.15524818215944064
2610688000.0 -0.410598527914508 -0.17668685136619114 0.03706000962725163 0.09428097065566139 0.037232719072441016 0.09405279305959098 -0.401399295006504 -0.1525616909720237
2611750000.0 -0.41105722677974393 -0.173311953803439 0.03984569089119947 0.09308855880394346 0.04003230363057198 0.09294914616513866 -0.40365708399299516 -0.1502495692338454
2612812000.0 -0.41187919791927713 -0.16998269371577773 0.04260559999946289 0.09182985026390975 0.042763599141413075 0.09164637774123761 -0.4053817607685415 -0.14840010722726726
2613875000.0 -0.4124785717642085 -0.16656579802880747 0.045272113426174786 0.09045075565788456 0.045473985274340906 0.09031678865405604 -0.40705014904331827 -0.1467557316999281
2614938000.0 -0.4132295271551425 -0.16322587071524147 0.04791423381489067 0.08894965857425041 0.048150744247512346 0.08885479297773397 -0.40827012816386826 -0.14528330106438914
2616000000.0 -0.41380696000489403 -0.15971815544566395 0.05043752804394732 0.08746838540902395 0.05065625126832746 0.08727238954807874 -0.4085807639407226 -0.14371374510155377
2617062000.0 -0.41436684315562644 -0.15637999026092123 0.05288793897155298 0.08585546772957649 0.05299888943078959 0.08568650971315712 -0.40917088147726716 -0.14220398305379364
2618125000.0 -0.41508179332775363 -0.15290639671678133 0.05507541511746541 0.08412263960460686 0.05523461564080433 0.08402628174072388 -0.40892359449341487 -0.14049659466114275
2619188000.0 -0.4156220057533459 -0.14951856290776683 0.05732523277640732 0.08234427007953267 0.05752448491956744 0.08236091453084562 -0.4086544878799699 -0.1381256872463357
2620250000.0 -0.4162818191443301 -0.14620633600847474 0.05928626304764424 0.0806532213182563 0.059544515181616284 0.08073606061167221 -0.4080940579448314 -0.13554218369774895
2621312000.0 -0.4169312921875212 -0.1430897441602742 0.06139786833491686 0.07889688364320041 0.0617313148494433 0.079075880105996 -0.40763076250703345 -0.13245703979675943
2622375000.0 -0.41729108779286583 -0.1399200167417234 0.06338310047161785 0.07727612130761782 0.063846023538204 0.0773717489815394 -0.40747584331439185 -0.12918624677857565
2623438000.0 -0.41787304572547995 -0.1369105993492294 0.0654752231900839 0.07546048719621583 0.06595021253577385 0.07568168349699494 -0.40762146656186826 -0.12578375482621432
2624500000.0 -0.4183561677474617 -0.13412165770681603 0.06745924141255975 0.07370628078159809 0.0680083577779774 0.07398238491865773 -0.40803110537348386 -0.12229837729512565
2625562000.0 -0.4189405441327838 -0.13128344047747323 0.06944518879744124 0.07203651372966925 0.07015690478155917 0.07209043752483381 -0.40869268672439435 -0.11872902711615381
2626625000.0 -0.41954225856605687 -0.1285384296907364 0.07144588554818165 0.07029804005601177 0.07218923426516448 0.07023577229728299 -0.40945305278215743 -0.11525358316936841
2627688000.0 -0.41998252337343933 -0.12575583259783654 0.07337274931718774 0.06854639989004783 0.07425300715532009 0.06829800556439715 -0.4109904853841552 -0.11225764229508423
2628750000.0 -0.4207998349559671 -0.12311716081858726 0.07524090661467349 0.06674987096921386 0.07622200587406007 0.06629660421195564 -0.4124576162277401 -0.10941514742732346
2629812000.0 -0.42116182966205234 -0.12055306326265845 0.07720270747140187 0.06489502167697206 0.07806772340629964 0.06408576957333532 -0.4138719749910899 -0.10671560590661551
2630875000.0 -0.42163207951360926 -0.11806561247728743 0.07904215466850265 0.06287332199152727 0.0796408993805052 0.06201606540766205 -0.41548890848669634 -0.10437592530678544
2631938000.0 -0.42191727129510587 -0.11531599453470438 0.08079343788066481 0.060705262769641534 0.08128881778842519 0.05974148633009802 -0.4173106067720795 -0.10266281526965791
2633000000.0 -0.4223056186030522 -0.11260108596904388 0.08245252464583888 0.058447325631836626 0.08268117342390749 0.057448753187979325 -0.41825687344013607 -0.10096240117067286
2634062000.0 -0.42224684754446795 -0.11025247268759672 0.08419987055533945 0.056081057032455965 0.08414921812840058 0.055209141786972116 -0.419053090612935 -0.09942224482647755
2635125000.0 -0.4225488048539456 -0.10751512286161814 0.08568376417673342 0.053565383544637565 0.0854933610925277 0.05291479853756186 -0.4197412212065196 -0.09812590415124867
2636188000.0 -0.4224172989878718 -0.10483739031039972 0.0872865078021823 0.05114980552541412 0.08674386820965878 0.0506156196699209 -0.4195539623819178 -0.09658439295590197
2637250000.0 -0.42275206581986846 -0.10220059023447385 0.08863916208497476 0.048594600713843264 0.08811086604101262 0.048259026873241684 -0.4192756254011071 -0.09505072299384222
2638312000.0 -0.42275035920386367 -0.09922061178145714 0.08984002019084582 0.045932682351041663 0.08938993839299006 0.045826978607207844 -0.41820405911216035 -0.09286448398694741
2639375000.0 -0.42284516464696587 -0.09626920399063107 0.09096260536368055 0.04320224945296396 0.09064592885719425 0.04348828737537746 -0.41728061381547293 -0.0905349054007626
2640438000.0 -0.4233235270053822 -0.09336623409646594 0.09196184762368675 0.04061014495515453 0.09201699977560766 0.040943305614608606 -0.4162007855333047 -0.08760881346527076
2641500000.0 -0.42376521496063346 -0.09042384621345906 0.09302332829828286 0.03796143109877277 0.09313425534422738 0.03832077395561514 -0.4150491049727691 -0.08406107029942328
2642562000.0 -0.4240951979642383 -0.08740376558444382 0.09391016629321199 0.0351758996988135 0.09439977524005988 0.03556219049496164 -0.4142531645514312 -0.08039467423537508
2643625000.0 -0.4246672450064254 -0.08449932140697992 0.09476116813098089 0.032537149481289405 0.09544859042378771 0.03270451316392985 -0.41363138269154376 -0.07630239856243806
2644688000.0 -0.42537913300674607 -0.08145872396073807 0.09558332025871304 0.029789198501742158 0.09651368718362685 0.02981048485408758 -0.41375335481840986 -0.07191617664911855
2645750000.0 -0.42585475979313037 -0.07854317899973529 0.09640159361054079 0.02702880447287755 0.09740074108006376 0.026891769618272 -0.41411755663601757 -0.0678074091191718
2646812000.0 -0.42643527066606185 -0.0757589185783622 0.09719005839328736 0.024391287829455197 0.09809720437030454 0.023945064579328077 -0.41472867230037475 -0.06377287096334572
2647875000.0 -0.42705799537271905 -0.07306780997229052 0.09802977098577231 0.02170458831137924 0.09887758703969032 0.02108801748438703 -0.4160374338532866 -0.05996942659142407
2648938000.0 -0.42772144362044423 -0.07039063010204889 0.09880267161606675 0.019100265841923876 0.09931821043664005 0.0182355669750575 -0.4175079836744658 -0.056568775071951745
2650000000.0 -0.4284701107744128 -0.06759700734394891 0.09934085885412132 0.016352945613944715 0.09986808808148813 0.015466748156352423 -0.41897101688191185 -0.05332382406960014
2651062000.0 -0.4290983498994529 -0.0648976057878993 0.10000446054750703 0.01381432772132053 0.10023559923780954 0.012843400105828734 -0.42082394513967036 -0.050904276891068446
2652125000.0 -0.4296141494299797 -0.06262661598004693 0.10068589353256314 0.011080355642574802 0.10058641157427643 0.01013724898892078 -0.42299575898575 -0.048675191457086216
2653188000.0 -0.4303808962808836 -0.06002879702634512 0.10097553206541195 0.008428991772289281 0.10090352837156248 0.0074879018052330555 -0.42427090429394987 -0.04685956668014434
2654250000.0 -0.43118741164424523 -0.057399095536904 0.10131339876299601 0.0054956504564326455 0.10116255352109467 0.004893171598892687 -0.4256467832651204 -0.045453735115521456
2655312000.0 -0.4320562653594452 -0.05495001877019565 0.1016718845543071 0.002736994232360715 0.10135602401129666 0.002206024445425384 -0.42612780428600544 -0.04436572364194444
2656375000.0 -0.4328061055359836 -0.05243546527668273 0.10176576880594501 2.200362517328874e-05 0.10144150498396133 -0.000492522038944693 -0.4265964689378424 -0.042813447987951773
2657438000.0 -0.4336795498229449 -0.05015893639794174 0.10180833780735556 -0.002948813717418516 0.101554232427902 -0.00327206418140283 -0.426179186314929 -0.041143098658816206
2658500000.0 -0.43435862278414733 -0.04771496755649167 0.10173175654765934 -0.005762842167060686 0.10154997610298205 -0.006172799263160546 -0.42553152570001224 -0.03907836296035898
2659562000.0 -0.43501230223738235 -0.04514049124421647 0.1017484083075247 -0.008713666192111166 0.10143602727951243 -0.00904038833072037 -0.4250069094850624 -0.036571534340848894
2660625000.0 -0.4356596942118644 -0.04283104075296134 0.10140142034450399 -0.011637170780277064 0.10134907676861227 -0.011979620245386857 -0.42410929471418374 -0.03360732097570727
2661688000.0 -0.43622651773596594 -0.04017925895263552 0.10100575844368359 -0.014684642258498233 0.10098476313688498 -0.014894152071858294 -0.42327559376745905 -0.030165921450630247
2662750000.0 -0.43663928278903824 -0.03783570485811724 0.10062546259119837 -0.017623295127072648 0.10056527070081271 -0.01785825844097066 -0.42269340227538826 -0.026612498088535365
2663812000.0 -0.43693531768035254 -0.03523723105911567 0.10006465532417236 -0.02065060814060629 0.10015231537622797 -0.020860853086473882 -0.4223426742992825 -0.022561718999758885
2664875000.0 -0.43722218438162747 -0.032515406949959594 0.09958426410525772 -0.023596473502136762 0.09959828356567467 -0.02386236558617993 -0.422571539331127 -0.018563450221662076
2665938000.0 -0.4374129909786837 -0.029921004124651512 0.09888910751509833 -0.026459547933599656 0.09899996777995743 -0.026835609730745214 -0.42283288105555533 -0.014819393216606868
2667000000.0 -0.43764050252247483 -0.02700090044302869 0.0981998696058186 -0.02934868823929579 0.09830934134168716 -0.02963722508221775 -0.4233572388903133 -0.011052284545457126
2668062000.0 -0.4376255049905355 -0.02414497882325503 0.09742676691640291 -0.032308415042959324 0.09746675365232983 -0.03258407074600743 -0.42403813980197663 -0.007679590804526635
2669125000.0 -0.43775536969112033 -0.021238972253657187 0.09646984202029898 -0.03502825846076817 0.09658047402026966 -0.035425149862300484 -0.42475496078780567 -0.004226951383756255
2670188000.0 -0.43760209736377825 -0.018292344506616237 0.09557101829037368 -0.03788288255586225 0.09560222454463621 -0.038289945808374956 -0.4257765940122575 -0.001132175288374455
2671250000.0 -0.4376959861287485 -0.015148648097838233 0.09463658369639401 -0.04048251500879164 0.094566447437811 -0.04102704453658638 -0.4265423618720114 0.0015181399957159005
2672312000.0 -0.4378154745961885 -0.012054716402076752 0.09358998074445744 -0.043232192713724436 0.09346220107724092 -0.04362641517252687 -0.42733478041194434 0.0036933699604687585
2673375000.0 -0.4377856996964881 -0.008853213280505885 0.0923753554696921 -0.045854684940128676 0.09226279986935038 -0.04627819044899467 -0.4279715868619695 0.005791172209444914
2674438000.0 -0.4379569237466064 -0.005812169072586127 0.0912431367232022 -0.048354969793007366 0.09096250709138087 -0.04881422919589403 -0.42817755777606903 0.007625460288009425
2675500000.0 -0.43800492850076883 -0.002664786742205032 0.08978049064724754 -0.05079298152235818 0.08956458265535608 -0.05129560753830737 -0.4281316370269123 0.009367382863258234
2676562000.0 -0.43813527885030906 0.00025220127021257163 0.08823409094472315 -0.0534546081571513 0.08809281385609846 -0.05377143002429023 -0.42765151463655676 0.011245661493858087
2677625000.0 -0.43807325150410825 0.0033068516393505343 0.08665796633697138 -0.055723757991084845 0.08655485415923855 -0.05609993030552487 -0.42677451462307364 0.013053050736888217
2678688000.0 -0.438203678066763 0.006359602925227411 0.08512302891992013 -0.05824003754353573 0.08496262989005003 -0.05856214400309078 -0.4252081235694178 0.01531092420968036
2679750000.0 -0.43818610320467655 0.009408164559455081 0.08335094045382124 -0.060622699447730806 0.08318845038418592 -0.06101279358748152 -0.4239614877799006 0.01794493690890834
2680812000.0 -0.43814911123168987 0.0123827417341744 0.08160553454374933 -0.06295740496960082 0.08147970310228111 -0.06337007797931642 -0.4224281521881397 0.021018328146941975
2681875000.0 -0.4380226643656077 0.015365057611640896 0.07969261922998838 -0.0654250445221744 0.07956442191439973 -0.06587090536234573 -0.4210902479102571 0.024419066244878364
2682938000.0 -0.4378307323122213 0.018229209597662797 0.07771836196918071 -0.06776105079029994 0.07762608038583453 -0.06815974031268317 -0.4197337251247823 0.02794244895555353
2684000000.0 -0.43776764571889437 0.021230496397180925 0.07584489344002 -0.07007657756003333 0.07558944747544354 -0.07062998698601995 -0.4185987208014649 0.03184953702621111
2685062000.0 -0.43739664903199954 0.024234500154894267 0.07373418585088909 -0.07234220661873081 0.07348179945412339 -0.07287290646579035 -0.4181484017633243 0.03584631680601192
2686125000.0 -0.43679665461568945 0.027227458574419352 0.07172388579894091 -0.07458445698374208 0.07136877495812156 -0.0752000271672904 -0.4178070488000001 0.03963522410036903
2687188000.0 -0.4365088625473067 0.030138545090520306 0.06962480218009805 -0.0768033757634684 0.06916514097585286 -0.07736568028876298 -0.4177720775476798 0.043408136560254135
2688250000.0 -0.4358422312496706 0.0331328022167736 0.06752793545292106 -0.07898900544890566 0.0668830690211424 -0.07942098207719064 -0.41792129555853974 0.04679356266061902
2689312000.0 -0.4351257459653092 0.036093446823737364 0.06520626532815496 -0.08113176222145581 0.06457186355292285 -0.08133496292219644 -0.41792960402801665 0.049885534781618474
2690375000.0 -0.4344409870914548 0.03896190489627164 0.06298682035481304 -0.0832395384908193 0.06240373213934075 -0.08321775229376795 -0.41855909400169855 0.052696239901380774
2691438000.0 -0.4336978642951935 0.041729934544666454 0.060578027884179535 -0.08514708840056767 0.06011019272317793 -0.0850367913170557 -0.41850992590162284 0.05507400290300975
2692500000.0 -0.4327237754417616 0.04482130844094942 0.05818453272045741 -0.08703608585100175 0.05779757256299414 -0.0867108974658191 -0.41837689060283295 0.057074299677421864
2693562000.0 -0.43179921070642807 0.047621831053514495 0.055790532171997045 -0.08867368344143751 0.05555373031733399 -0.08838046609933997 -0.41785953035571005 0.05876155732625224
2694625000.0 -0.43066619111778004 0.0505964142472944 0.053228561453137396 -0.09024471785649082 0.053202535453013365 -0.08994623499693788 -0.41713167637190884 0.060589442203234825
2695688000.0 -0.42943937332450277 0.05362739042937799 0.050680536505336396 -0.09168951602050315 0.05089707405264396 -0.09147510310864074 -0.4155670517775262 0.06199672454267415
2696750000.0 -0.4281190670494839 0.05648566247857466 0.048154673506557985 -0.09284972367868694 0.04851265559522465 -0.09300174736735593 -0.4143927254557189 0.06398796442982403
2697812000.0 -0.4266398022531595 0.05960874683183023 0.045382787399911216 -0.09407997396005549 0.04592767717145262 -0.0945615937024382 -0.41248529235262343 0.06615344657687271
2698875000.0 -0.4251736511408939 0.06267789870197492 0.04272658488770942 -0.0951494341125851 0.043138276490286426 -0.09580899504175013 -0.4107968277152607 0.06795460405671566
2699938000.0 -0.42368722032205075 0.06564511963563766 0.03989076295830778 -0.09616824748654525 0.040245549543218566 -0.09709921063661202 -0.40849133218292344 0.07066602708178066
2701000000.0 -0.4220357815263345 0.06885092879122663 0.037080007344093266 -0.09708129812699816 0.0372405186175121 -0.09817863757145749 -0.4061677572738688 0.07289925509456055
2702062000.0 -0.4205360341083113 0.07150707926036462 0.03427869430358347 -0.09776699485860156 0.03417220824456528 -0.0990266411362485 -0.40412192361762733 0.0757000284864051
2703125000.0 -0.419169922866482 0.0744433634635523 0.0315083867610681 -0.09875908332816102 0.03088342369415272 -0.09984543154561014 -0.4018273743821258 0.07882331870983122
2704188000.0 -0.41763956854746875 0.07734101541553211 0.028772920871599775 -0.09971503329016888 0.027676856382988176 -0.10045078369167428 -0.39995804295523524 0.08195392314176271
2705250000.0 -0.4162714597868845 0.08023075071320157 0.02570123878298742 -0.1003890609613123 0.024550030523926892 -0.10095622518338271 -0.39777967923117263 0.0850922157177896
2706312000.0 -0.41483990684761607 0.08277916255369447 0.022841769108958836 -0.10111173484881661 0.021415048279614282 -0.1014467250993719 -0.3962586352116527 0.0882676463083716
2707375000.0 -0.413610891878751 0.08531985662904153 0.01981143627432411 -0.10183991518115264 0.01843193590011936 -0.101819981609144 -0.39511894782109536 0.09156149557739264
2708438000.0 -0.4120823287484899 0.08793964763729381 0.016863860721787163 -0.1026335191261061 0.015513667083977674 -0.1021930322030523 -0.3938977828360219 0.09462717383565514
2709500000.0 -0.41058749426497615 0.09046892487590232 0.013789853171688253 -0.102985038641675 0.012687353739407613 -0.10260148202677989 -0.39252538276367366 0.09723301447592958
2710562000.0 -0.4092697630799414 0.09311740074089103 0.010744455827775334 -0.1038417228249976 0.009977460767781596 -0.1029793830818692 -0.39168356347544253 0.09906466795367935
2711625000.0 -0.40762909677618453 0.09554032631999337 0.007506882818290842 -0.10415925190124325 0.007117802208836847 -0.10337953032208384 -0.39031000445877817 0.10112916214335498
2712688000.0 -0.4059335969725881 0.0981524087341066 0.004264485856423239 -0.10453409284660191 0.0042806083117536775 -0.10377872172971843 -0.3892060857431809 0.1029725519361992
2713750000.0 -0.4041826916133442 0.10049692995986358 0.001221989862753662 -0.10467374448123219 0.0014357201012134692 -0.1042518812107975 -0.3876549483253866 0.10491341024213308
2714812000.0 -0.40249128956023084 0.10297124441489632 -0.0020728446099103175 -0.10494141644122418 -0.001659745437051143 -0.10460440685661346 -0.38560769844592785 0.10719169063397305
2715875000.0 -0.4005061627740361 0.10528712466902121 -0.005302658207620015 -0.10478861817858914 -0.004801571022350103 -0.10480065388784768 -0.3837020473264183 0.10907962199220732
2716938000.0 -0.39876154748263093 0.10768455044781651 -0.008367186628932976 -0.10474091658125369 -0.007944784642457467 -0.10499618963852173 -0.38173144436208634 0.11113553950317594
2718000000.0 -0.3970988220421533 0.11006924887644695 -0.01150127955590433 -0.10430889005246913 -0.011259639357105803 -0.10493563262536702 -0.3795681354804376 0.1133412359666839
2719062000.0 -0.3950940546402592 0.11245644504175294 -0.014435636945282966 -0.10390726840856217 -0.014580503322822973 -0.10470400380756463 -0.3779195926045526 0.11582289096157009
2720125000.0 -0.39348242297950264 0.11461229832792735 -0.017474010997058368 -0.10328277214446423 -0.017815185297732704 -0.10413967269671948 -0.3758779957059655 0.1186918228972254
2721188000.0 -0.39158765788275657 0.11684459193000285 -0.020352476891378125 -0.10264739983776258 -0.021104351810692652 -0.1034806115688157 -0.37441935662638115 0.12191423435864031
2722250000.0 -0.3897470911489312 0.1188722814593439 -0.02325436645399046 -0.10191663642227033 -0.024164801831380256 -0.10251781712175578 -0.37262014103148844 0.12445788987884725
2723312000.0 -0.3878786186888926 0.12110162690003366 -0.026063518807784184 -0.10106319556403931 -0.027130108744607705 -0.10144427933505194 -0.3718602780992913 0.12729277185311075
2724375000.0 -0.3860915853075355 0.12328754544899982 -0.0288636809469351 -0.10017232797164233 -0.029956844890588707 -0.10036834166355647 -0.3712992408807482 0.1298112025414064
2725438000.0 -0.3842978089767838 0.12558825789790093 -0.03160064095998981 -0.09937891501484673 -0.03266716542525282 -0.09916733959110566 -0.37009555963559965 0.13195706193461793
2726500000.0 -0.38230717900871025 0.12774831151041743 -0.034362022772178556 -0.098375382053334 -0.035322446250423384 -0.09802312704150283 -0.3692908748753136 0.13368653371981373
2727562000.0 -0.3802977976483469 0.13000215175013555 -0.037060772173108186 -0.09747101158082354 -0.037855605032994406 -0.09695652885250573 -0.36861185857840645 0.13527363891918268
2728625000.0 -0.37836212951620907 0.13233170038602263 -0.039901451042415756 -0.0964945880911607 -0.040349249004714455 -0.09597862369459302 -0.36791314601102265 0.13648754765657095
2729688000.0 -0.37634386397256525 0.13428998551264365 -0.042600697028831964 -0.09549881724826463 -0.0429224319846821 -0.09491683979468822 -0.3666597984476316 0.13763724537834401
2730750000.0 -0.3743567046556819 0.1364726660686866 -0.04538053643726074 -0.09438530122226506 -0.04551759944696449 -0.09392059360957496 -0.3659158681505807 0.1380918416539141
2731812000.0 -0.37270064695521804 0.13846173854632496 -0.04814264014342961 -0.09328753703777037 -0.048350566076774536 -0.09285063519014823 -0.36446841023854276 0.13927962562237023
2732875000.0 -0.37076104937404514 0.14039028110904653 -0.050940977158794386 -0.09186681916795289 -0.05118195321102851 -0.09166007139174144 -0.363063457749003 0.13963687405723832
2733938000.0 -0.3690670535577502 0.14223768530340142 -0.05375454963454755 -0.09042836614446373 -0.05401078120449417 -0.09021595611119561 -0.3610170655817922 0.14042662001673537
2735000000.0 -0.3672578446442349 0.14411644652455277 -0.056479803469771044 -0.08889131837634921 -0.05682644498894751 -0.08872912919035507 -0.3592128914559711 0.14081995772634529
2736062000.0 -0.3655913054437738 0.1455406791872019 -0.059326505702811734 -0.08719110527356412 -0.05962667651224604 -0.08701748316537833 -0.35667613233774986 0.14183028643190124
2737125000.0 -0.3640064638469785 0.14722781921525127 -0.062118572318109376 -0.08532753904432495 -0.0624527390891157 -0.0850935986193764 -0.3542644281955129 0.14308360055179234
2738188000.0 -0.3625093555393488 0.14875340343323024 -0.06473771660008563 -0.083337846638477 -0.06509901531860926 -0.08310787975868285 -0.3517776689535002 0.14421069637546874
2739250000.0 -0.36083427510292954 0.15015077648197322 -0.06729321306516937 -0.08131861584630189 -0.06756623659540847 -0.08100646087950002 -0.34950684243804847 0.14600553953516185
2740312000.0 -0.3592795536640909 0.15152165436759485 -0.06974478895202448 -0.07924389020244806 -0.06995963301623044 -0.07879200010870269 -0.347186795448087 0.14819335363128283
2741375000.0 -0.3574737567279411 0.15284323853395942 -0.07199536216602775 -0.07699930050562025 -0.0722265952631188 -0.07665474985288728 -0.34528851220151197 0.1504597540823646
2742438000.0 -0.3556821386362646 0.1541812525292771 -0.07427616709306065 -0.0748155190757896 -0.07436537949993136 -0.07449728170411622 -0.3438194698171085 0.15281296722064386
2743500000.0 -0.35379218492529035 0.15543918776308396 -0.07623428356700802 -0.07241788814563999 -0.07632727667500804 -0.07231106224762733 -0.3427684889580227 0.15498789987788053
2744562000.0 -0.35198652350624704 0.15672595664016653 -0.0782248545493 -0.07018489213224982 -0.07841719692973563 -0.07017350915044794 -0.34200704183752045 0.15690609692848131
2745625000.0 -0.3500458715494675 0.15777637900239405 -0.0801051437850851 -0.06786923728066502 -0.08040417242159474 -0.068006540514582 -0.3413856380850964 0.1582718301800463
2746688000.0 -0.34819050349673847 0.159023169074776 -0.08207491400365645 -0.06570678166150537 -0.08242001311912488 -0.0658404024391159 -0.34116657736740347 0.1595142354138274
2747750000.0 -0.3464681611491112 0.15979762409339038 -0.08392672511310577 -0.06349896637915671 -0.08447244890832185 -0.06365443716130902 -0.34086636379902674 0.16015946837137726
2748812000.0 -0.34447671586631096 0.16078904728128532 -0.08574143973177906 -0.06125732152767051 -0.08644441657892699 -0.06123308181203997 -0.3403570164506955 0.1604776502685763
2749875000.0 -0.3426896564689275 0.16185025871185513 -0.08752849527986988 -0.0589864665551764 -0.08831812842374043 -0.05882006636150916 -0.3394350622532726 0.16043999588544117
2750938000.0 -0.3409706878578039 0.16263832187451407 -0.08926535871988218 -0.05661244137899751 -0.09014763482247437 -0.056071584207488284 -0.3384590390303775 0.16018579144209763
2752000000.0 -0.3391812054869929 0.16352749114705276 -0.09090686675964199 -0.05408500172190721 -0.0918324464758129 -0.05346968679824555 -0.33731020882420026 0.15991145779932703
2753062000.0 -0.33761932270037603 0.16444152938810078 -0.09259148915917864 -0.05154250571449048 -0.09330708634403614 -0.050629017180573964 -0.335419657787682 0.15954157376002337
2754125000.0 -0.3360541841940899 0.1653047606326501 -0.09423548374185275 -0.048613094541479406 -0.0946578051799343 -0.04777593752312944 -0.3332999962569404 0.15947175180239362
2755188000.0 -0.33444017958493305 0.16609124439317313 -0.09556040717042098 -0.045922903294900175 -0.09588201936613903 -0.04488759728499218 -0.3309215311466188 0.15924263175624115
2756250000.0 -0.3329279960870106 0.1668891995726783 -0.09699736712819915 -0.04280406494245996 -0.09697328930913339 -0.04194345697180102 -0.328307729726054 0.15973795313645658
2757312000.0 -0.33123400218840193 0.1677091106182797 -0.09823481180377422 -0.03976404801099125 -0.09797520970240134 -0.03900586453292394 -0.32550931493890284 0.16041364770105426
2758375000.0 -0.32970954651548295 0.16870422933324616 -0.099319603010422 -0.036638861923193045 -0.09893381703704658 -0.036144218911648686 -0.3226429561043951 0.1614351734810106
2759438000.0 -0.328368425763559 0.16946818809069727 -0.10024452743575549 -0.03356902510340392 -0.0999712627297629 -0.033312715323256595 -0.3201354583170742 0.16280900706195722
2760500000.0 -0.32704854480231954 0.1701783010102734 -0.1012459044619417 -0.03031908162547965 -0.10084822582150928 -0.030313307347424948 -0.31762196607266335 0.16464874222661413
2761562000.0 -0.32580675884827537 0.1708494560742978 -0.10201719380807982 -0.027132938250653715 -0.10186156092888445 -0.027361909498347468 -0.3157489946534891 0.16674718697282223
2762625000.0 -0.3246574273267437 0.17156467268788 -0.10257734909599586 -0.02418841951369954 -0.10277042939334553 -0.02440151878774392 -0.3144224222241074 0.16844295755463654
2763688000.0 -0.3236137043679746 0.17204302142595787 -0.1032121772348294 -0.02111927298123216 -0.10366822982825973 -0.02129097793468449 -0.3133962885402787 0.170393408282908
2764750000.0 -0.3227123107008001 0.1727694575531454 -0.10375830651113081 -0.018104435104120017 -0.10432636062403033 -0.018074089812795503 -0.31284042948849217 0.1720192343235083
2765812000.0 -0.3217758922263033 0.1733430863967807 -0.10427073686654434 -0.015174609979671154 -0.10502370570560611 -0.01491264983783972 -0.3126353116905447 0.17344323287547006
2766875000.0 -0.3207405181076837 0.17387001815608077 -0.10467443104227867 -0.01220713650891408 -0.10549448039104017 -0.011617755292206005 -0.31242955144408524 0.1743266310718712
2767938000.0 -0.3198344234325528 0.1741939939124647 -0.10503046337959755 -0.009085522501917836 -0.10580257053605904 -0.008433740481036917 -0.3123937152450361 0.175010940051731
2769000000.0 -0.31901819785194174 0.17454180311316914 -0.10540792043821867 -0.006021181351471221 -0.10598588191936159 -0.005163557727497985 -0.3122635146386315 0.1751359620540924
2770062000.0 -0.31799997607558994 0.17487306249676549 -0.10594258510187597 -0.003264782521459514 -0.10603145784537783 -0.002101502851494364 -0.312247964693141 0.17567938710732217
2771125000.0 -0.3170455356483716 0.17510274745180646 -0.10591020210246942 5.420572235904624e-05 -0.10593026844710841 0.0009533106096683611 -0.31141111090899953 0.17508446321807083
2772188000.0 -0.31606410378070465 0.17521130156785392 -0.10606004898243958 0.003047706551073133 -0.1058749034857493 0.003941354195330554 -0.31027021598603094 0.1747764071514358
2773250000.0 -0.31489119314181047 0.17537541549796057 -0.10601944731582381 0.0061547422762422725 -0.1056431176787192 0.006882866167441887 -0.30946966751020594 0.1742410973748602
2774312000.0 -0.3137491653987041 0.17552395379501043 -0.1058309767096898 0.00928425830824808 -0.10533964527403188 0.009813669603164953 -0.30773638660862135 0.1739177665807438
2775375000.0 -0.31271862025440816 0.1757374777642982 -0.10545173563819812 0.012574248812873284 -0.1051090798195508 0.012824944837844403 -0.3057252190883866 0.17396651538460592
2776438000.0 -0.311762642630583 0.1758821149711239 -0.10504845418147915 0.015739897187225096 -0.10462484753206265 0.015803912673762573 -0.30341331643879754 0.17368997511294598
2777500000.0 -0.31053179683333176 0.17611956632699566 -0.10436937959587747 0.018953326554733748 -0.1042069541575548 0.018879688301612588 -0.3007939025951605 0.17416702943129467
2778562000.0 -0.3095997195027989 0.17637603147641545 -0.1036795712937852 0.022072973638010775 -0.10358136432025683 0.022119721096739767 -0.2985910939649879 0.17506689983733598
2779625000.0 -0.30863113503406336 0.17666355289529864 -0.10271734094942901 0.025319922261726743 -0.10285188497856873 0.025281538534476244 -0.2958384640087716 0.17611537649594783
2780688000.0 -0.3075650834767907 0.17708992070437649 -0.10172139259479987 0.028374679913268686 -0.10197587349063722 0.028554442619183603 -0.2934518482703631 0.1776229959249546
2781750000.0 -0.30660802797855047 0.17743950692982 -0.10069993127201145 0.03158654412845857 -0.1009612848754404 0.031886805325076935 -0.2913826434343925 0.17915283361519227
2782812000.0 -0.30566667231202355 0.17780031324063691 -0.0994521631436527 0.034502328728248335 -0.09972279246787677 0.03504613458274074 -0.28963463889682345 0.1809986444093035
2783875000.0 -0.3047666029897852 0.1782311343739106 -0.09821432288878927 0.037487760152800566 -0.09842947417090828 0.038131954063265625 -0.2883387049179052 0.1829091239210161
2784938000.0 -0.30369109797466454 0.17878297416037336 -0.09706781387473136 0.04032917047557644 -0.09703598184804706 0.041170508666511445 -0.28763076569776896 0.184677623272539
2786000000.0 -0.30297289500584357 0.17955833037260233 -0.09563774298249589 0.04325586429263084 -0.09564501325401789 0.04406217737144348 -0.28734850218650865 0.1865023383224709
2787062000.0 -0.3021167666130018 0.17994791871953314 -0.09427005867845797 0.04604936418882321 -0.0940799773041803 0.04679048002421024 -0.28694554098697467 0.1876618788821054
2788125000.0 -0.30129291967349336 0.18050455126323545 -0.0928591453502857 0.048810803877111335 -0.09257554960484109 0.04938969827584134 -0.28690691565913135 0.18890852130459296
2789188000.0 -0.3006051843790477 0.1811249851750615 -0.09138579631727005 0.0514002384853994 -0.09104990675072266 0.05195913239372602 -0.2870383391708455 0.18978151786455336
2790250000.0 -0.29992759268914027 0.18170894402432688 -0.08980924121184407 0.05405567696451633 -0.08951409314750125 0.054520370262000524 -0.2868275404423332 0.19051621411629605
2791312000.0 -0.29930518718215854 0.18245321525195643 -0.08815698569366802 0.056720404521707235 -0.08800021311007526 0.056991080659153204 -0.2867150486943315 0.1908941768062549
2792375000.0 -0.29880511394782716 0.18286239541467722 -0.08665237130980932 0.059134336581835714 -0.08633314631276941 0.05944625064860721 -0.28620878122503274 0.19114418457833152
2793438000.0 -0.2981681739310982 0.18380469308332842 -0.08482800320496037 0.061666724815825566 -0.08461994326882562 0.06200865147209819 -0.2856532440026103 0.19155906704979916
2794500000.0 -0.29774550871224276 0.1845246955094112 -0.08293569822398311 0.06421656316868052 -0.0828185629189403 0.06450303854088629 -0.28478761537328595 0.19183007903487154
2795562000.0 -0.2973119699752375 0.18530719473817042 -0.08107850521818578 0.06676284882399576 -0.08091154627356971 0.0671421933375033 -0.28390603431745276 0.19249093161786904
2796625000.0 -0.29690842560946945 0.18611727313876747 -0.07897392085195389 0.06914052345828853 -0.07883505627147293 0.06969547225553656 -0.2827981530839331 0.1927792877122814
2797688000.0 -0.29617801255071424 0.18696396028673856 -0.07701593870286161 0.07156555181527305 -0.07653890735385928 0.07217338715648684 -0.2812928648598025 0.19356916194339344
2798750000.0 -0.29564334367441497 0.18761492022765774 -0.07465988254124957 0.07403970649016059 -0.07420506678843708 0.07449803538021994 -0.2797475814614806 0.19435964336258577
2799812000.0 -0.29505941981770106 0.1882761004120545 -0.0722631874491002 0.07624797353400711 -0.07165300390417025 0.07660944680804704 -0.278577080355142 0.19531391096052558
2800875000.0 -0.29440939893522483 0.18890920366237957 -0.06978555379675898 0.07848966233269164 -0.06907481317799334 0.07867873968573925 -0.2769132749411308 0.1966882780760846
2801938000.0 -0.29382748731574093 0.18976540250649077 -0.06707138391962078 0.08054518893786723 -0.06643214034114278 0.08059714417811212 -0.2754802310514394 0.1981850762763459
2803000000.0 -0.2932570567485256 0.18998910674422412 -0.06439891997864436 0.08256823930640775 -0.06389960436554602 0.08224326993894633 -0.2741838298363269 0.19945460755936031
2804062000.0 -0.29246783216542477 0.19088630182209046 -0.06169545965541911 0.08445671531520771 -0.06124723291593822 0.08395985465773649 -0.27326325578562083 0.20091661391846194
2805125000.0 -0.29174536502413695 0.19151469725001194 -0.058867224031432734 0.08610736620503344 -0.05879023742027905 0.08550854101255075 -0.27243917599360795 0.20268587786341172
2806188000.0 -0.29128004661043444 0.19253329168182684 -0.05601966504266871 0.08755198404756798 -0.056356030002107094 0.0872604379037211 -0.2721061606449046 0.20410120990416347
2807250000.0 -0.2907212749298139 0.19327127037006236 -0.05337229469163617 0.08890091764071771 -0.05395775207486449 0.08878901182459967 -0.27174063361316925 0.20554675234718736
2808312000.0 -0.2896701043822622 0.19448832138610075 -0.05087633577787941 0.09017143044602563 -0.05142951791735909 0.09033381024895855 -0.27129008156925677 0.20671781638729886
2809375000.0 -0.28896231789849725 0.19557114397549413 -0.048114283969467056 0.09134347204694525 -0.04887663939807355 0.09186712376237458 -0.2710995248674835 0.20807570457488736
2810438000.0 -0.2882019177414215 0.1965626503492553 -0.045530869965640264 0.0923178465534553 -0.04610655959354858 0.09326282425819987 -0.27087022205048966 0.20867352106711515
2811500000.0 -0.2876164041069727 0.1977968663412932 -0.04292536516157082 0.09329471622625174 -0.04328225424772121 0.09467023940091705 -0.27057068392447564 0.20981042115410292
2812562000.0 -0.2869940786155429 0.19904429654123384 -0.040505090915068515 0.0943539555019659 -0.0403384217948332 0.09580998957657913 -0.27050291059255416 0.21018606120790462
2813625000.0 -0.28610453887782233 0.20030769193977258 -0.0378872833955631 0.09530658411748738 -0.03723949511473134 0.09674104563235102 -0.2697368569371766 0.21062604165886226
2814688000.0 -0.2851955569747266 0.20149186887960135 -0.03534542936878544 0.09623019917912824 -0.03410517708142578 0.09744586662489556 -0.2689609853445739 0.21111204283334456
2815750000.0 -0.28463218365133297 0.20275948467050744 -0.032532976085201774 0.097129254170764 -0.03107213714002071 0.09802343783591422 -0.2678087102512058 0.2118124126544167
2816812000.0 -0.28396115988100956 0.2038268799005829 -0.029815119130319135 0.0981558378912156 -0.028010933906321884 0.09837302917665201 -0.2666080160573404 0.2122408527822037
2817875000.0 -0.28311815382732475 0.20497447165395397 -0.02677490460221241 0.09882779692526386 -0.025067541196219206 0.09867594655556379 -0.2650453148282822 0.21326834997963748
2818938000.0 -0.28253050569571714 0.20628812690044745 -0.023695324458969116 0.0996515438850071 -0.02211261663440984 0.09888526493103415 -0.26364742231355043 0.21400720587158537
2820000000.0 -0.2817642887554456 0.2075995055123216 -0.0204886293525844 0.10023839720920184 -0.01939629243537524 0.09911699131575977 -0.26220755703664034 0.21488696327424625
2821062000.0 -0.28119981067887695 0.20876528573270378 -0.017268837539692845 0.1006168468908239 -0.016743453466966433 0.0993905583627379 -0.2606571273416811 0.21602241777405168
2822125000.0 -0.28042386199338754 0.21019183811130454 -0.013996700492525735 0.10094726358710178 -0.013975481968902885 0.09983473482791182 -0.25942507176417695 0.21732667740308692
2823188000.0 -0.27962199953858435 0.21140468468463744 -0.010705717198562023 0.1010535208755473 -0.011226438598650225 0.100174596590835 -0.2583849271554786 0.21827267387014865
2824250000.0 -0.2789275338636178 0.2129706313474606 -0.0074581910041237225 0.10126882722659003 -0.00838783011247324 0.10056430453383451 -0.2573709874547673 0.21947383306193077
2825312000.0 -0.2781112218852004 0.21431827006135076 -0.004095720719797791 0.10106520682092265 -0.005285751540368088 0.10093775763354708 -0.25614938411179683 0.22071638784094133
2826375000.0 -0.2773661100101653 0.215648867409173 -0.0010303780266455373 0.10089079831373712 -0.0022250436110278424 0.10125468589582856 -0.2553323043442945 0.22157242099087568
2827438000.0 -0.27656705809128246 0.21708370158982232 0.0019175186292911444 0.10055314081401637 0.0011457225515289736 0.10136245700586152 -0.25421234039890395 0.22277075271132857
2828500000.0 -0.27575102129625223 0.21844786344777628 0.004819948468272074 0.10016046107935224 0.004393107850330417 0.10151556440781323 -0.25328882007157366 0.22407744274333355
2829562000.0 -0.2749704983139312 0.2196399615643372 0.007470649739504088 0.09984370572284643 0.007627935624106306 0.10129629759784269 -0.25211865522569465 0.22533826228684734
2830625000.0 -0.27403971093596996 0.22074610915121007 0.010204392947397695 0.09935230985655044 0.010893915920648437 0.10091547713999284 -0.2510719093895137 0.22643498059568437
2831688000.0 -0.2732646038789925 0.2218183564667213 0.012754499471372636 0.09895660718356566 0.014033737695530176 0.1002137302581061 -0.2496737765156401 0.22801635123920777
2832750000.0 -0.2724818834573174 0.22294032665220184 0.01525481876058781 0.09852128380268899 0.016941664701868836 0.09940259232051013 -0.24908053106942418 0.22959199661507476
2833812000.0 -0.2718219476823617 0.22395512377640592 0.01788530360449111 0.09793502674729447 0.019680425184808788 0.0984350302941982 -0.24821610444209793 0.2308007873903494
2834875000.0 -0.27098702347630166 0.22508050587252648 0.020494206667745297 0.09735986873195329 0.022211000803954908 0.09734067253600547 -0.2471826909052899 0.23171834146705714
2835938000.0 -0.27022046824892154 0.22626638732976886 0.02321780235128511 0.09680222057020635 0.024643403137634433 0.09628954840874346 -0.24613626000721733 0.2329820105234305
2837000000.0 -0.26939817598195936 0.2275670796810772 0.025711203138146763 0.09611477161571713 0.02693909408002243 0.0952164344817712 -0.2451622673207935 0.2338432950271766
2838062000.0 -0.26857329997322943 0.2287769747216913 0.028297047688899138 0.09537408988605857 0.02920700461975491 0.09415707719818803 -0.24421518922249935 0.23497237976537969
2839125000.0 -0.26793106388466803 0.2299414370480032 0.03115764360163794 0.09442108911492236 0.03152344183776707 0.09317508885595274 -0.24289837149737606 0.23556400651499987
2840188000.0 -0.2670040262114036 0.23127986250755433 0.033767686407346544 0.09350593540563 0.03390886014856582 0.09238140516920958 -0.2418776924640492 0.23655473000613547
2841250000.0 -0.2662630854522104 0.2323840531945408 0.03665516826037098 0.09236191125689419 0.03633615811352401 0.09145722090904798 -0.24123749410531853 0.23778317389489526
2842312000.0 -0.26533998830272215 0.2337081454739749 0.0392565625151227 0.09103206800873084 0.03885175485848322 0.09053864859002467 -0.2405438123499581 0.23812120544654622
2843375000.0 -0.26471009106055726 0.23507240043313318 0.042159640915767106 0.0896499780174524 0.04158172386540505 0.08958650879134267 -0.23952548926025286 0.2398573820948213
2844438000.0 -0.2639317445198347 0.23605882778541867 0.04472178816003286 0.08809543327595117 0.044280579828392376 0.08838299466472894 -0.2391227414248226 0.2399269051198285
2845500000.0 -0.26326118720798175 0.23734664832674165 0.047248347118020055 0.08647084353911395 0.04704411542399405 0.08693987559711801 -0.23789592787966907 0.24054411561303451
2846562000.0 -0.2627338495525214 0.23831296252206668 0.04974932428057709 0.0847951683524012 0.04979500193302552 0.08546293234260531 -0.23728419804667725 0.24058314467894487
2847625000.0 -0.2620308047201905 0.23949543224233913 0.05218724244640605 0.08305586534019814 0.05238375637124238 0.08367846351134427 -0.2358427193565781 0.24104443587086988
2848688000.0 -0.2615375359676869 0.24046772506201156 0.05457857813544189 0.08141264238357847 0.05502505361484851 0.08186874456547011 -0.23467979453291515 0.24185137886121794
2849750000.0 -0.26099889487938505 0.24146832050355976 0.056803189442089064 0.07950766200755685 0.05745791338133558 0.07980658553985373 -0.23284298506496454 0.24177501375728844
2850812000.0 -0.26040261426349454 0.24259414202013457 0.05896788620846438 0.07758239000030566 0.05961116686345064 0.07771701550635668 -0.23126673587456553 0.24254196975696612
2851875000.0 -0.2595209624515099 0.24358406311330247 0.06113511771213275 0.07572235555818876 0.06176780248807438 0.07560524761760708 -0.22925862665843064 0.24348700843083787
2852938000.0 -0.2589857304108019 0.24472568871167114 0.06305574535826018 0.07385589137476338 0.06373016227132075 0.07357292624602407 -0.22735369437025965 0.24429057268387902
2854000000.0 -0.2583431402605793 0.2458179325826514 0.06501390077341587 0.0721735116345316 0.06562395179362725 0.07158910954441786 -0.2255835697002643 0.2454948184617293
2855062000.0 -0.25767028936033265 0.24671127792013153 0.06685331476038507 0.07007975530358826 0.0674344053404745 0.06968351783543202 -0.22416477154453865 0.24683037603600755
2856125000.0 -0.25681778975525327 0.24780310632039437 0.06875467111146057 0.06806962405084564 0.06916548414936284 0.06761340969301309 -0.22263621054331356 0.24819855644966476
2857188000.0 -0.25595901595233933 0.2485632173507764 0.07058771569746063 0.06614302483283502 0.07088245860271226 0.06573326114095494 -0.22170289783636657 0.2494924570295165
2858250000.0 -0.25506687572736914 0.24958927073905748 0.07234991547900269 0.06403127404678817 0.07266460806881339 0.06376871569971353 -0.22093181333105724 0.2503685959341239
2859312000.0 -0.25422779632421266 0.2504853195826434 0.07419576743215746 0.06196271250182407 0.0744650345081032 0.06172638945103735 -0.22037083774602906 0.25123212253076277
2860375000.0 -0.253422706859039 0.25135742265707556 0.07603318649761405 0.05980091900707312 0.07630956640957243 0.05960380500343871 -0.21983090408413766 0.2524090567246711
2861438000.0 -0.25243692847484983 0.2520807685594673 0.07764294389485221 0.05761637298327716 0.07803563815787103 0.0574055609620264 -0.21949720823126312 0.25280494880705695
2862500000.0 -0.25159840853714954 0.25292276689311566 0.07952244198352627 0.05542452639289771 0.07977564823985202 0.0550621361419979 -0.21932744081874006 0.2533288874262164
2863562000.0 -0.2506975013740281 0.2537487188281887 0.08101444824358466 0.05302901757602557 0.08134308413330138 0.05266721324381731 -0.21896167695790686 0.2535504618722942
2864625000.0 -0.24975962738236285 0.25452308898169407 0.08253705073365793 0.0505630531173928 0.08287333810555222 0.05012638957761923 -0.21884271241586448 0.2535085373887048
2865688000.0 -0.24872963554408667 0.2554829082623247 0.08404960901909522 0.048125548453486156 0.08422923404694774 0.04757696466744681 -0.21842364099372116 0.2532586227759964
2866750000.0 -0.2479661323751766 0.2563437159856782 0.08526985295805786 0.04569272739416466 0.08541967891778598 0.04509139423689857 -0.21793829228281839 0.25296808955292754
2867812000.0 -0.2468141802816041 0.2573844413257063 0.0863974481700673 0.04308426402336425 0.0865358563699997 0.04257333306833611 -0.21715804207388312 0.252307273132095
2868875000.0 -0.24578847601233572 0.2580668102327369 0.08737492923718772 0.040442513852411856 0.08743748323336377 0.04008263561101052 -0.21595353197300088 0.25180212651712713
2869938000.0 -0.24477193012729362 0.25904839299444393 0.08835306761342455 0.03769289364057367 0.0883276471679993 0.03751687267947657 -0.21457839581617835 0.2512504521417066
2871000000.0 -0.24370521473062956 0.2600422004718401 0.0891906340930124 0.035121915352993346 0.08916952844595386 0.03497423848018444 -0.21292630984983346 0.25081722485043756
2872062000.0 -0.242893794687455 0.2608337511175806 0.08998989351341247 0.032400155638486645 0.08993414487340318 0.032437847790408716 -0.21121583871072797 0.2505810195118766
2873125000.0 -0.24180563406470862 0.2616878905412398 0.09051915225523803 0.029854225234813316 0.09071393869170019 0.029859631821908594 -0.20921199220330036 0.25073618837387
2874188000.0 -0.2408511715179276 0.2625183968107744 0.09115773114837232 0.027166264584433844 0.09139951454675249 0.027152825487803865 -0.2074152575450067 0.2511822279636261
2875250000.0 -0.2398430811285619 0.2632977990338679 0.09174009470095203 0.02451098309374524 0.09209946340883005 0.024544070567312296 -0.20562829526610563 0.25172613499577906
2876312000.0 -0.23908547588636772 0.26400776175826784 0.09224688842454286 0.021930315957462268 0.09273536059707538 0.021755378251272734 -0.20415802968225863 0.25241026245361237
2877375000.0 -0.23813972901405006 0.26488037984480406 0.09268671633632151 0.0191319966272573 0.09323959107410291 0.018896327379723406 -0.20313946456127968 0.25339147763820713
2878438000.0 -0.23734211486819537 0.26537585275839504 0.0931720794169353 0.016536344128071787 0.09362590068261285 0.01603381549320965 -0.202209018004587 0.2543039260698964
2879500000.0 -0.23659065306325583 0.2658843417630521 0.09360997619648183 0.013932638380057075 0.09397850134463627 0.013348042067153851 -0.20154318132748442 0.25519219735070936
2880562000.0 -0.23541476142398862 0.26652363274550056 0.09391338398552858 0.011124293831138849 0.09424802226112199 0.010507968054224274 -0.20128839643024193 0.2561860366337352
2881625000.0 -0.23460570934544783 0.2669437645958472 0.09416251160091199 0.00838164719588021 0.0944262385105685 0.007692546190432173 -0.20117602900793863 0.25698876942178867
2882688000.0 -0.233483837181366 0.2674967975103955 0.09448511732707714 0.005541050891612786 0.09453125072799257 0.004947813720675305 -0.20116929523124472 0.2576880499362606
2883750000.0 -0.2325851437277883 0.2678035308169044 0.09461021151768258 0.0027143928349022423 0.09458113460852376 0.0021558476578296343 -0.20135616555139516 0.25781165943117695
2884812000.0 -0.23163469982740792 0.2682062410408475 0.09458495847467126 -6.0008659381678936e-05 0.09452687586658273 -0.000417075165082184 -0.20190715600343787 0.25765194358086807
2885875000.0 -0.23060361441751562 0.2684133022370233 0.09465217873604077 -0.0028086112952215615 0.0944960049853656 -0.003071870009017091 -0.2020108334727413 0.2578158848237297
2886938000.0 -0.22958366185090817 0.268765337249113 0.09434323603406669 -0.005461512351253694 0.09432524336469819 -0.005788786095715218 -0.20185215546906157 0.25686858651581507
2888000000.0 -0.2287206516004292 0.2691426298829295 0.09400727758803756 -0.008043586818687944 0.09404958117797262 -0.008388367692714694 -0.20158537878962315 0.25614559637559053
2889062000.0 -0.2275767638006744 0.26946730615258596 0.09363694646649046 -0.010819360598288526 0.09375195044285586 -0.011037515217394841 -0.2009434714154984 0.2551049020951441
2890125000.0 -0.22656476847199097 0.2697938381120606 0.09306600980895585 -0.013346192478172913 0.09319030187630652 -0.013817388608048277 -0.1996790638395012 0.25406209509676503
2891188000.0 -0.22549607814526895 0.27022125734301444 0.09247998323648814 -0.01604563247156795 0.09260525947998441 -0.016435259451940666 -0.19839388387923157 0.25349364292755805
2892250000.0 -0.22461108650737488 0.27057701071247425 0.09169888093209005 -0.018657484749353987 0.09189155957549448 -0.01910460659790184 -0.19655540101008503 0.25289570400395817
2893312000.0 -0.22361359111635418 0.2711999835246388 0.09093354402865729 -0.021205108782462855 0.09101362766483438 -0.021719933905110327 -0.19504683679607931 0.2526432374591738
2894375000.0 -0.22250494625864162 0.27170539964632945 0.08996766964375397 -0.023661745323530995 0.09008647863583316 -0.024321466851433993 -0.1932074700458541 0.252692951033024
2895438000.0 -0.22149899109946375 0.2719887754340267 0.08909610013433855 -0.02625547883981675 0.08907610654673595 -0.026907032734126275 -0.1912460545054561 0.2533158691822504
2896500000.0 -0.22045036105690619 0.2725942918118234 0.08824820695320566 -0.028738793825276197 0.0880135584150437 -0.02934593057427803 -0.19016470399799207 0.2537683609699076
2897562000.0 -0.21960789139482048 0.2732841631143528 0.0869867002455062 -0.03133429367461747 0.08682254449291277 -0.03183649398945213 -0.18864576933920488 0.25464904878434935
2898625000.0 -0.21871659920138078 0.2736845000651981 0.08593526739486868 -0.03383428640057314 0.085604709657212 -0.034184282370082884 -0.18737949206786403 0.2558600351153877
2899688000.0 -0.21758977726900128 0.27419950108829655 0.08478090499848309 -0.03622962835788567 0.08451252432736107 -0.03656491098177263 -0.1868356810838609 0.25735011029479105
2900750000.0 -0.2167874975001033 0.2750134033163048 0.08360298524404731 -0.03879830920530072 0.08343915306106502 -0.03892801925452986 -0.1859286502052961 0.25847665650839796
2901812000.0 -0.2161258415588387 0.27555272624264193 0.08235002370858377 -0.041218064130768096 0.08219295293189677 -0.04131172689327118 -0.18565905965530252 0.25994238876256837
2902875000.0 -0.2153351840044903 0.2761119335034819 0.08106184044308949 -0.04369584452486362 0.08091199246465623 -0.043783717919065976 -0.18563252171155442 0.26149187708571214
2903938000.0 -0.2148242272221592 0.276936579876157 0.07954071157759679 -0.046011305471663336 0.07962449086902108 -0.04617928362531296 -0.18569807864898813 0.2630669997322234
2905000000.0 -0.21413994447784535 0.27770049203176295 0.07803764446587946 -0.04825980098096104 0.07819651044637896 -0.048583167867988476 -0.18640549217318064 0.26425248992886846
2906062000.0 -0.21366408830648959 0.2783624829962061 0.07667299781784873 -0.05048439030147371 0.07674968729790375 -0.05090311998670442 -0.1869708026976009 0.265619614125369
2907125000.0 -0.2131692610759561 0.2791998646923707 0.07512158759354316 -0.052675818165435956 0.07513013820975759 -0.05313111740660756 -0.1874287331880346 0.26622710601540917
2908188000.0 -0.2125771600042635 0.27975551880435984 0.07349962563158283 -0.05481759688302481 0.07346004761410067 -0.05529433199937701 -0.18786443985984141 0.26698640722088984
2909250000.0 -0.21217264185891535 0.28060021799775753 0.07165547240720081 -0.056949721018130985 0.07166032934965913 -0.05743168982231136 -0.18846537600861338 0.267548453005763
2910312000.0 -0.21167357261523678 0.2812747683942383 0.06982591934000702 -0.058764992265532875 0.0697852341137224 -0.05925597751742427 -0.18879661409561585 0.2677496250865816
2911375000.0 -0.2113108436125617 0.2819880828422762 0.06809837418760716 -0.06061179900879968 0.06782790930085597 -0.061128826305745114 -0.18864693117860937 0.26806290965711277
2912438000.0 -0.21109690951557045 0.28263015823092386 0.06612953400604994 -0.06239058727187424 0.0658455054947873 -0.06282541379688279 -0.18841107090278947 0.2683856911084873
2913500000.0 -0.21038464095399095 0.2833528185917273 0.06418108049086013 -0.0640742372211889 0.06382941283947993 -0.06443287342447203 -0.1879167527388433 0.26835373851291555
2914562000.0 -0.21010208498972874 0.2839678044652111 0.06213559621435485 -0.0656229422871705 0.06173894832814173 -0.06591448975066204 -0.18698424177498596 0.26902592440698675
2915625000.0 -0.20979033415007928 0.2848699436711264 0.06003811948544615 -0.06722769152378272 0.05968376595010807 -0.06744351695083607 -0.18618762920915446 0.2698850058220158
2916688000.0 -0.20937866907449715 0.28542171609191624 0.05807718807988717 -0.06883751626632295 0.05766227208805224 -0.06899707559572907 -0.1852059892635384 0.2708523306527644
2917750000.0 -0.20895196571978156 0.28648159593756406 0.05585585623349613 -0.07041042724181089 0.05556784643004026 -0.07042562368287089 -0.1842820066077962 0.27174208960393686
2918812000.0 -0.20844921142116393 0.2872339783940033 0.05363527727305249 -0.07173498391179911 0.053507194696583514 -0.0720087546915837 -0.1835059439426025 0.27323423273922354
2919875000.0 -0.2081347180214418 0.2883472598078407 0.051587249335079466 -0.07317949804041197 0.05141656977697115 -0.07346057592497617 -0.18280285854585962 0.27466704102532113
2920938000.0 -0.2077045524667519 0.28948899337582334 0.04936988496359108 -0.07465711616288233 0.0491692454821939 -0.07487662661730585 -0.18210881341206278 0.27612436841014104
2922000000.0 -0.20736690416469877 0.29059062436868077 0.047074815691668104 -0.07598104767490844 0.04687327821456187 -0.07632000655308425 -0.181434965442502 0.2779226324702673
2923062000.0 -0.2068855372426712 0.29185850361120225 0.044820491460280984 -0.07725495213025504 0.04451350512550493 -0.07767587548772767 -0.1808610395127531 0.27964280544235387
2924125000.0 -0.2063511084677097 0.2929790988054692 0.04248761284099719 -0.07845362254056551 0.04208401172889735 -0.07885628060976366 -0.18054851413995876 0.281590511910256
2925188000.0 -0.20594864300194615 0.2943448924652604 0.04014149308830846 -0.07959118502221464 0.03956638371156398 -0.07982626839565067 -0.18024291506242165 0.2834440322141357
2926250000.0 -0.20555090618327213 0.29571320520549216 0.03765793771420697 -0.08072617517022838 0.037187665308386894 -0.08090484053360221 -0.18015477082416098 0.2854481074130544
2927312000.0 -0.20508439835603906 0.29694419536646016 0.03523549659811841 -0.08157078159853656 0.03471202403355215 -0.08160173682637825 -0.18037952500129853 0.2872618529702251
2928375000.0 -0.20471786794038824 0.2984290037349509 0.03266140673826325 -0.08240835931324292 0.03232143668697491 -0.0823640681016602 -0.18050922435126626 0.2889502008204108
2929438000.0 -0.20422684997385585 0.2999808130279497 0.030335724355445445 -0.08325775432289587 0.029870818397171272 -0.08296091872558932 -0.18092829637200342 0.29040264571223273
2930500000.0 -0.20374312193011004 0.30145295342163475 0.027897864022613433 -0.08362024054467689 0.027627752249861325 -0.0834254003278221 -0.18124945609653162 0.291667622692982
2931562000.0 -0.2036159771671172 0.3030536894945678 0.0254771637101762 -0.08418504555191361 0.025334720706488907 -0.08397098067554791 -0.18115119574348035 0.2928213618082044
2932625000.0 -0.20330265165742184 0.30465175458335714 0.02288594943581551 -0.0843856627358559 0.023053395724745518 -0.08447706510471421 -0.18096604962353968 0.2937260661291626
2933688000.0 -0.20291172837421464 0.3063420087099227 0.02047840616982777 -0.0846100492948894 0.020729659180599366 -0.08487424034423258 -0.1808789861512029 0.29469942136845007
2934750000.0 -0.20255748655930478 0.30809821480971555 0.01810727953892023 -0.0849399032700286 0.018297111303586546 -0.08524454069143586 -0.18026064724007135 0.2957388771174374
2935812000.0 -0.2022803919241336 0.30992348118268354 0.01553710648510066 -0.08497525724101535 0.015769414480887048 -0.08564564051935382 -0.17982913151645977 0.29678277001594094
2936875000.0 -0.20182875845328274 0.31148757439321667 0.013207309670601962 -0.08511778154510825 0.013247834451596007 -0.08590675159599453 -0.1790851510148449 0.2980122875827164
2937938000.0 -0.20146757964734757 0.31328107160783103 0.010738622032967366 -0.0853490143518508 0.010574734825045161 -0.08602282021595874 -0.17831492235900714 0.29919290505444424
2939000000.0 -0.20092599563924124 0.3150159762459799 0.008465709147662452 -0.08544329447384522 0.00786050358929378 -0.08601246327840516 -0.177445649487245 0.300492846039037
2940062000.0 -0.20042078323425894 0.3166730946747782 0.005945135914633905 -0.08543271990471425 0.005238318918555827 -0.08617160424368796 -0.17628972629277406 0.30193577649746567
2941125000.0 -0.19983226875244572 0.31831616652720873 0.0035961516979530128 -0.08550505592699625 0.002584619535402632 -0.086000843119936 -0.17505760716874708 0.3032762401243563
2942188000.0 -0.19943063036006872 0.31993715455167065 0.001133690993734696 -0.08562963572846542 8.78127856257571e-05 -0.08580679344147443 -0.1738303750873128 0.30513498033781716
2943250000.0 -0.19870973841974032 0.3216663307264799 -0.0011942384532767278 -0.08556654721009735 -0.002431951284174039 -0.08544335843539434 -0.17273428339309457 0.30709047832998687
2944312000.0 -0.19821171360132195 0.3235030688536456 -0.0036039223291774304 -0.08547187644310911 -0.00474207155629272 -0.08513483409795934 -0.1717355147691958 0.30920642566926
2945375000.0 -0.19725206009914148 0.3251535271938679 -0.006174193093930216 -0.0852101258842194 -0.007020958429363399 -0.08477512588446083 -0.17084594339922837 0.3114597975112884
2946438000.0 -0.19651887325508974 0.32704999925508293 -0.008707984916347701 -0.08511871030291264 -0.009153615807963561 -0.08431028607496391 -0.17026443462140647 0.3137924714097609
2947500000.0 -0.19574223912661087 0.3288445660379294 -0.01115719361103531 -0.08471292414117332 -0.011233993455928333 -0.0840219662511985 -0.16981976964431292 0.3159930049691142
2948562000.0 -0.19500292801490707 0.3306531296081179 -0.013553466798650408 -0.08410997780173882 -0.013425844109683598 -0.08364871923661465 -0.16955775473972381 0.3177062708378777
2949625000.0 -0.19404330619528143 0.3327936333071006 -0.015860995638072743 -0.08360692424160725 -0.015554864380402577 -0.08322881849446612 -0.1691141397271348 0.3195648121506344
2950688000.0 -0.19307819930178277 0.3344168576384306 -0.018046908350347935 -0.08291517003954417 -0.01767597921914858 -0.0827470806411447 -0.16883681686566424 0.32118419944981885
2951750000.0 -0.19231491390901426 0.3364885288858717 -0.020216998365320118 -0.0821706303281039 -0.01986000990530486 -0.0822712889676262 -0.16822886562309577 0.3227188240124949
2952812000.0 -0.19129843908731178 0.3382438879849418 -0.022285870115997954 -0.08128242847066472 -0.02202579919587387 -0.08159780465350679 -0.1679041351370919 0.32411996739846016
2953875000.0 -0.19031710212119451 0.34006225298566484 -0.024307947997485754 -0.08032957227515372 -0.024239126424314344 -0.08080037075167298 -0.16720885820856124 0.3256416006824869
2954938000.0 -0.18915668211885284 0.34187165783139956 -0.02629091631974548 -0.07925923255208214 -0.026533533469015533 -0.07984580639275105 -0.16652007601149177 0.32683955016501376
2956000000.0 -0.18810145724692853 0.34358352868060926 -0.02825095369747489 -0.07818161071336707 -0.028738437720367507 -0.07880571350871213 -0.1656414543456147 0.3279606912859225
2957062000.0 -0.18686272593971534 0.34522217618474915 -0.030271500850952118 -0.07707663638256654 -0.03092816129242021 -0.07760946997111179 -0.16488465120166898 0.3293501926980396
2958125000.0 -0.18569219261150502 0.3470690866818136 -0.03218829804981919 -0.07591565715704121 -0.033106474150518116 -0.07627428827994213 -0.16409781758370745 0.3298360880035493
2959188000.0 -0.18449302289279312 0.3488104341288008 -0.03415639013922317 -0.07474008303659503 -0.03509918166210064 -0.07493055244682012 -0.16247309484664127 0.3304590111326069
2960250000.0 -0.18328999777676502 0.35053308334354955 -0.03616074078361813 -0.0736374109237613 -0.0370161493859457 -0.07346717106471422 -0.16091114115071914 0.33130879004089026
2961312000.0 -0.1819648264137789 0.35229235514996665 -0.03816849698728274 -0.07244862473210543 -0.038983853274589655 -0.07218320811091088 -0.1588147323657487 0.33209727642947146
2962375000.0 -0.18044836992691235 0.3538307149883301 -0.04007495069263894 -0.07119879610672131 -0.04079557008256971 -0.07076002537641907 -0.15652986271257652 0.33293023039237063
2963438000.0 -0.17907691752805946 0.35582107698107557 -0.04197255944567353 -0.0699473117415746 -0.04246957017233706 -0.06931149603034796 -0.15434779920752761 0.3338371327484981
2964500000.0 -0.17781631495932895 0.3573391189027154 -0.04387223409517359 -0.06855453778607062 -0.04412537452876069 -0.0678934570166601 -0.15148324995989107 0.3348562137369909
2965562000.0 -0.17617281123231138 0.35935458994086034 -0.04573913555257353 -0.06720215148054053 -0.04595455173776988 -0.06653066882202963 -0.1487928239816627 0.33659778095236703
2966625000.0 -0.17474979869737636 0.36101511488631355 -0.04749118681123428 -0.06575239674997399 -0.04755297617278581 -0.06523607612199608 -0.14598116225577315 0.3384602907941722
2967688000.0 -0.1730486674557533 0.3625961481307337 -0.04921061784577127 -0.06428015848980964 -0.04921426351539935 -0.06394077525251006 -0.1437687176185033 0.34074928414020206
2968750000.0 -0.17123317596913093 0.3643985243588328 -0.050832861503514855 -0.06276635059969504 -0.05081382194035457 -0.06257881560469851 -0.14179539469141966 0.34282544003279547
2969812000.0 -0.16950117378457674 0.36600391386060227 -0.05250899600229547 -0.061193857059120914 -0.05258583651890055 -0.06111006041336345 -0.1401985619165907 0.34525217184216556
2970875000.0 -0.16769258215756094 0.36761552654965585 -0.05410020253303189 -0.05961212685678059 -0.05414445931439601 -0.05957178996480785 -0.13881558757448728 0.34677884992871416
2971938000.0 -0.1656458004549886 0.3693003877113654 -0.05563966587394425 -0.05793256967170989 -0.05569405175045023 -0.05796703340669042 -0.1371795373356946 0.3494732736615758
2973000000.0 -0.16349667978008353 0.37087671589665844 -0.05710440510534543 -0.05633421041737118 -0.057244167667259316 -0.056437928792929096 -0.1358126196945349 0.35149842256444175
2974062000.0 -0.16144698089259943 0.3724857404061754 -0.05851052553915001 -0.05466564676278198 -0.058756822492305065 -0.054696808571581323 -0.13459905259864566 0.3530887508998117
2975125000.0 -0.15930884907063314 0.374209780860007 -0.05982404041556288 -0.05296325899159907 -0.06009945851362441 -0.05291213159269653 -0.13297784864003664 0.3547771538408743
2976188000.0 -0.15702259423861 0.37543883603116 -0.06111564542804071 -0.051226349705441716 -0.061384600515712456 -0.05115005739869809 -0.13173393132149475 0.3567404745585562
2977250000.0 -0.15473812917824575 0.37702492704618407 -0.062263080264369414 -0.04946133912939861 -0.06256704908401135 -0.04928871267109757 -0.13066215374516635 0.35811515258530785
2978312000.0 -0.15262506516996222 0.37859090420804287 -0.06342025279917475 -0.04770092805013781 -0.06381569500638656 -0.04744568500844515 -0.12933067565199569 0.35939484819133327
2979375000.0 -0.15033445686554622 0.37997315706541895 -0.06453255569451295 -0.0458895112784509 -0.06477570826338704 -0.04563770544513554 -0.12797761875294875 0.3605218093507811
2980438000.0 -0.14790539273034983 0.38150807245906293 -0.06559319056357722 -0.04406725706940174 -0.06592147528634647 -0.04373869075582196 -0.1265678079425555 0.36097021452929684
2981500000.0 -0.14546403684406656 0.3830410690988276 -0.06665913450887538 -0.042253952257883004 -0.06694122448810556 -0.04198270556999021 -0.12514387589300666 0.3614930315654729
2982562000.0 -0.14326200173336462 0.38433383370493357 -0.06759657953714088 -0.04045663495023186 -0.06795383695188124 -0.04019228943064508 -0.12280875124561205 0.3617494340638778
2983625000.0 -0.14087597100868518 0.3856895301072355 -0.06865084749756878 -0.03860065971110421 -0.06878014662099678 -0.038235450098454644 -0.12097031528097502 0.3617011224754898
2984688000.0 -0.13841185141667764 0.3870631811637773 -0.06956172411612506 -0.036654208585244714 -0.06980003126451456 -0.03641458632616553 -0.11800476562375901 0.3622112454770954
2985750000.0 -0.1359218885802786 0.3883421241727075 -0.07040665720817026 -0.0347636067077078 -0.07048823053623231 -0.034515497324213815 -0.1152323385924285 0.3627759087800911
2986812000.0 -0.13334365244617338 0.3895893651573727 -0.07115550250153987 -0.03287016130261388 -0.07127144166957626 -0.03256554093338761 -0.1121076698526283 0.36340048553339743
2987875000.0 -0.13081922606387472 0.3908138456649866 -0.0718997692497929 -0.03097344332673944 -0.07189308842087515 -0.03066366829509431 -0.10923313480503483 0.3640982896856167
2988938000.0 -0.1282448461994723 0.3919137692911806 -0.07251934971706403 -0.028959379388824313 -0.07252071279325757 -0.028675590466102147 -0.10636137389346226 0.3651463312487442
2990000000.0 -0.1258200988821807 0.39311498654342825 -0.07309348279085703 -0.02693980499448681 -0.07310609379636697 -0.026669315713047 -0.10329426802524848 0.3662943667992191
2991062000.0 -0.12321245578799718 0.39406439590980213 -0.07356303266877505 -0.024907993702084644 -0.07356091743950695 -0.024646874150256678 -0.10064469224755083 0.36764689963469793
2992125000.0 -0.12088022945457859 0.39510216608701915 -0.07403575910586753 -0.022860848999739607 -0.07411179938364212 -0.022684146446258695 -0.09804900631599946 0.3687929166522244
2993188000.0 -0.11805959400631424 0.39602514698216734 -0.07447180101072819 -0.020802358528397995 -0.0745746152820982 -0.020579119882026455 -0.09562906186236358 0.3702246241875061
2994250000.0 -0.11553310983786906 0.3970048235221198 -0.07487981555635001 -0.018804494690425617 -0.07500752348092912 -0.018632118531403317 -0.09290116353112986 0.37130911935306465
2995312000.0 -0.11298841080818142 0.39794005967548207 -0.07528020404424704 -0.016694745700719854 -0.0754800791046108 -0.016495166659465415 -0.09060494282008388 0.3724049304146124
2996375000.0 -0.11006643306052927 0.3989014695561747 -0.07563640175881137 -0.014677705584444298 -0.07584777133828106 -0.01443392639411761 -0.08820002873733802 0.3735379873363643
2997438000.0 -0.10757584547876192 0.3995632697591892 -0.07592132470313517 -0.012659417150874184 -0.07611165821387036 -0.012403229441947107 -0.08609560864161256 0.374623103390882
2998500000.0 -0.10486792388912126 0.4003267713762363 -0.07616983588886522 -0.010604032486617562 -0.07645622053710399 -0.010262488707610722 -0.08398043402695064 0.37578177373747684
2999562000.0 -0.1021618533697549 0.4011787139509013 -0.07642613728854614 -0.008617031600047053 -0.07668397211125468 -0.008160979433529574 -0.08230957411450544 0.3765485225605398
3000625000.0 -0.09905362045029924 0.4017538982318623 -0.07673368202892383 -0.0065552199426710915 -0.07680496131766563 -0.005924321630427062 -0.08033442134266892 0.3769406745964254
3001688000.0 -0.09619461808132217 0.4026544456570068 -0.07684348362636688 -0.004560591351258752 -0.07696482325180642 -0.003928687428027509 -0.07870334488255172 0.3774262567222454
3002750000.0 -0.09337497621435999 0.4032347778833028 -0.07698876537871198 -0.0025100072333285486 -0.07691705508948786 -0.001854350526414169 -0.07648103893724992 0.37740345662675845
3003812000.0 -0.09064787101804728 0.4038897178827048 -0.07709756526649512 -0.00045080543009228425 -0.07699762670486843 0.00019027511272665134 -0.07427113881601058 0.3775717841969279
3004875000.0 -0.08776164339319645 0.40453548015529917 -0.07707276005056724 0.0015578454201575214 -0.07683923518066642 0.0020322890249527587 -0.0720679510507075 0.37736479347941904
3005938000.0 -0.08494105151747752 0.4054210128122309 -0.07697970387167014 0.0035653125566642747 -0.07674258319433158 0.003955918474473011 -0.0696414533471917 0.37729258316672265
3007000000.0 -0.08209466442695254 0.4060401342499887 -0.07682015996022998 0.005620136444462517 -0.07664637339168978 0.005828715745728463 -0.06687388363871756 0.3770615862360752
3008062000.0 -0.07897448902208945 0.40660311419516776 -0.07659778425486154 0.007673633484678626 -0.07647203313413778 0.007682253081406632 -0.06388034730459143 0.3770619527808811
3009125000.0 -0.07642970810119239 0.40723948675517907 -0.07622779404456283 0.009570251568613719 -0.07638544757901317 0.009552000060708775 -0.06129127541060262 0.3770027006714583
3010188000.0 -0.07378069878974557 0.40789454444080103 -0.07586339634989489 0.01154216665470144 -0.07611460160028813 0.011469512782009106 -0.058343009305848605 0.3770607373835829
3011250000.0 -0.07110547964249692 0.4083934496374392 -0.07544939660543688 0.013463945091467965 -0.07578774886035769 0.01348383562584057 -0.055855501665039636 0.37713059807024274
3012312000.0 -0.06834463143362718 0.4092362462720898 -0.07495822307496425 0.01541055415632621 -0.07545530289284401 0.015559618656977353 -0.052947443494673674 0.3774063094307853
3013375000.0 -0.0658425590538531 0.4098900292104494 -0.07444710311564583 0.017277286390054724 -0.07506418265757295 0.01764296373544898 -0.05017816448522658 0.37735534696929535
3014438000.0 -0.06310485698203001 0.41067634219371985 -0.07390793806096164 0.019173630638477438 -0.07452408777037661 0.019829603956215195 -0.047328911202947944 0.3776811500196749
3015500000.0 -0.0605880278690774 0.4115004876447516 -0.07341217653963043 0.021131434206979775 -0.07385845945436284 0.02197441275152903 -0.044639737929689303 0.3780806178784958
3016562000.0 -0.058093149120307434 0.4120111847223554 -0.07283316994191104 0.02310261106101973 -0.07301490996225694 0.024082669350799408 -0.04173100512182894 0.37844356329626544
3017625000.0 -0.055542130649855095 0.41272387718279774 -0.07226998001050824 0.025043446771489904 -0.07223102945266158 0.02613072768766454 -0.039787087775954626 0.3793617980257265
3018688000.0 -0.053068738165994014 0.41311221624855 -0.07167449755851578 0.027096215340078167 -0.07137744133203647 0.028131206549212685 -0.03723669543406186 0.38004386519260014
3019750000.0 -0.05067793644126966 0.4137962127696628 -0.07098971475951278 0.029177439659360222 -0.07054521811154048 0.030091682385203978 -0.03511645428736256 0.38135358722118434
3020812000.0 -0.048327425313313355 0.41420527835325943 -0.0703079977065299 0.03126373933701317 -0.06966839904903602 0.031996657946688135 -0.03300479928937678 0.3821410246841844
3021875000.0 -0.04598483008863564 0.4141838969905062 -0.06949765939488935 0.033288155512608344 -0.0687192042292865 0.03386728923646503 -0.03193919586068129 0.38275047901070913
3022938000.0 -0.04361132453670084 0.41441599577169796 -0.06862990085389335 0.03541433207998399 -0.06793187520215184 0.035615668334539656 -0.030037876084978047 0.3837000431058446
3024000000.0 -0.041426873056779494 0.41466035556302816 -0.06770370324875293 0.037434615438573966 -0.0671244368312634 0.03742400787824905 -0.028777050203537522 0.3841440344258732
3025062000.0 -0.039035191930400975 0.4147013883078557 -0.06668579765945798 0.03942710898230445 -0.06627623896191852 0.03928889186451083 -0.026975207820688515 0.38471921258187874
3026125000.0 -0.036903823557526624 0.41484368303078917 -0.06557439948701814 0.041370799232797954 -0.06529503904100212 0.0411708592989773 -0.025592192975396524 0.3849550802277773
3027188000.0 -0.034636012244261355 0.4145907875541582 -0.06430889098502564 0.043159686728105516 -0.0641941190260894 0.04296272063895608 -0.023808837843725127 0.38503575288393005
3028250000.0 -0.03236523119730676 0.41444308641974387 -0.06298818418635017 0.04490736687361884 -0.06313334239795075 0.044859094644592125 -0.02251746514418639 0.3852563167920885
3029312000.0 -0.030105788372066518 0.41450398597820953 -0.061571861004495645 0.04659575999077622 -0.061860966793194416 0.046676118654271403 -0.020585235472239654 0.3850275214342083
3030375000.0 -0.027880535085789773 0.41446056524421493 -0.060143555124032015 0.04816426719752764 -0.06049582436823758 0.048438931292128964 -0.018802983505688195 0.38455290720966806
3031438000.0 -0.02581683607473809 0.4142830254682442 -0.058588049267924575 0.049598410193749165 -0.05889721086594123 0.05015939210941879 -0.017581155154311818 0.38398443283243067
3032500000.0 -0.02358023548258744 0.4142853687169199 -0.057040308349429254 0.05115065331535826 -0.05723604633538832 0.051806489477772846 -0.015240087892765899 0.383768164525547
3033562000.0 -0.021566332349742937 0.41416214292393766 -0.055431586429063824 0.05257613357561398 -0.05549837443551605 0.05335818020964638 -0.013417925135819 0.3829999639361724
3034625000.0 -0.019425363086450303 0.41419616099254697 -0.05377579552196096 0.05391569105904213 -0.053601781588386944 0.05473441895680165 -0.010727455096923584 0.38186543554320695
3035688000.0 -0.017461326468351725 0.41402103606277246 -0.05212627135431449 0.05531280837739569 -0.051879123361207195 0.056003993721910665 -0.008493038973200723 0.381503230150018
3036750000.0 -0.015425862313185134 0.413897783271419 -0.05044900617990186 0.05664296720152619 -0.05000295854368574 0.05724066824699543 -0.005703732641193738 0.38055092918856903
3037812000.0 -0.013438684370940073 0.4139011721893307 -0.04875230891511622 0.05801689270376981 -0.04810105982814883 0.05846076431912208 -0.0028416477538418814 0.38005697791827303
3038875000.0 -0.011484196755078464 0.4138351001336753 -0.04702663669105933 0.05929451969897231 -0.04645091719514785 0.05965213832466938 0.0003756810384904322 0.3800088137767261
3039938000.0 -0.009704260318593535 0.4136818683442218 -0.04533122794175164 0.06059037235345323 -0.04483379100961771 0.060755849305403654 0.003258570331994237 0.3802301757048103
3041000000.0 -0.007747677838373031 0.4136422589979099 -0.043623780934129504 0.0618235059745992 -0.04315756549162539 0.06191014753220714 0.005910852876223943 0.38056346990328904
3042062000.0 -0.0061698561607989675 0.4136460807878452 -0.04187544482992778 0.06312640849667178 -0.04154832458265989 0.0631132244632979 0.008322777549925567 0.3812476006644826
3043125000.0 -0.00447416351327486 0.41374010180892523 -0.04016070802308202 0.06433177823838766 -0.039917224165232565 0.06435190639704043 0.010696592749754352 0.3820753696703324
3044188000.0 -0.0027570412114580624 0.41384857014549664 -0.038371235548566224 0.06549369129468059 -0.03820765330595793 0.0655860895454012 0.012748814623459516 0.3829627457959378
3045250000.0 -0.0008801384133092682 0.41398588858448804 -0.03662908910048024 0.06662398186399901 -0.03646530584521511 0.06678396730454753 0.014577472660830341 0.3837788578786369
3046312000.0 0.0007112533580983903 0.4141859897219525 -0.034783962120198575 0.06767414642431584 -0.034611874893265455 0.06794751166458725 0.016022221880374866 0.3845314973001815
3047375000.0 0.0024122837955954345 0.414392071798511 -0.032877875576225485 0.06867234929070203 -0.03269125521186371 0.06896212813863482 0.01733254048429734 0.3850752500599344
3048438000.0 0.003938633448680211 0.41427439979799935 -0.030969147200232798 0.06960795424563457 -0.030682715955387557 0.06986733831188725 0.018483101154141465 0.385407867874337
3049500000.0 0.0055520610360949765 0.4144484958123324 -0.02894601616821697 0.0704757582936994 -0.028618744617952028 0.07074878971486592 0.019859878317416115 0.38527955892558197
3050562000.0 0.007159926415935398 0.41455871312000286 -0.02687716861516342 0.07122409769624195 -0.02637000677464614 0.07141560232928819 0.021167898283619157 0.385330802580605
3051625000.0 0.008616807176370304 0.4146500914876843 -0.024769317686294604 0.07190150697427183 -0.02439106291153962 0.07209687615054945 0.022398662625563934 0.3851739150913849
3052688000.0 0.01013703385008472 0.41455451105404095 -0.02264620823732638 0.07247300869424592 -0.02222524255753618 0.07247137721575073 0.02357976507174976 0.38447986406425405
3053750000.0 0.011623269264188194 0.4145278744530244 -0.02046762447607207 0.07300379277854097 -0.020148802325956713 0.07294143365219673 0.025223121394618107 0.3836484278319307
3054812000.0 0.013344314577637543 0.4145269144607947 -0.018348192850598247 0.07335980580703336 -0.018078733122911028 0.0733061521544596 0.02693136826395392 0.3826858654046952
3055875000.0 0.015132453920546069 0.41437439076773097 -0.016160651419606716 0.0736941765872759 -0.016025249776497896 0.07360192312729368 0.02873031646362738 0.3816820392506601
3056938000.0 0.016650515634959742 0.4142183628008035 -0.013993120661589016 0.07390469323582674 -0.013853087148311091 0.07395378388780119 0.030956209899452816 0.38092107943092185
3058000000.0 0.01830915418492866 0.4143284163004581 -0.011891267312671431 0.07413052358840769 -0.011812610085791328 0.07425225293848275 0.03348856915991535 0.3800468558405583
3059062000.0 0.020060995317301558 0.41431081755366933 -0.00977626889566171 0.07427103944915153 -0.009732516327949374 0.07461787992919953 0.03586027976581597 0.37951162646569636
3060125000.0 0.021817454135551556 0.41435290945445735 -0.00766901731275514 0.07437411101167797 -0.007533812543402129 0.07488597842973059 0.03842823282965129 0.3792802210673693
3061188000.0 0.023422668005911938 0.41440352787121276 -0.005562395140284637 0.07455996115979949 -0.005429071562811431 0.07509188676059306 0.041431529164732264 0.3793829224098722
3062250000.0 0.025392940560085488 0.4141619424881208 -0.003486775297219791 0.07462057532736771 -0.0031681152323355423 0.07522467255877997 0.04367387383383157 0.37953158466333736
3063312000.0 0.027198512580425094 0.4144756259316233 -0.0014254696393692476 0.07474467851784096 -0.0009597239892429742 0.07524378126139417 0.04598459800771217 0.3800168204405533
3064375000.0 0.02907369896644175 0.41422477795250306 0.0005904629695223422 0.07481589809839567 0.0012341483054628866 0.07527383954024673 0.04812409997231065 0.380704471665889
3065438000.0 0.031019318452218583 0.41427044820741393 0.0026887899281459447 0.07483137795289961 0.0033789504199836498 0.07515508688583845 0.050062111299010705 0.38124083754427573
3066500000.0 0.03264408725631863 0.41414714065538577 0.004673030159247134 0.07477557030085089 0.005534382501390104 0.07486908225060537 0.05190025470092068 0.38198547978551556
3067562000.0 0.03456483624710333 0.41428634866349223 0.006761334052811654 0.07467569854232195 0.007541979128276179 0.07455238552241476 0.053287346117542704 0.3828790579041485
3068625000.0 0.03646033493189829 0.4139476950650096 0.008795759183537078 0.07444716100894912 0.009605953487452312 0.07423674289351123 0.05426121161001763 0.3834179781120896
3069688000.0 0.03824906973398598 0.41383349569546873 0.01091171956567437 0.07412868911199245 0.011561412191579898 0.07383416399276056 0.05543947820031473 0.38365558214328693
3070750000.0 0.0401223320494007 0.4138991395247242 0.013012641914602083 0.07365042569008565 0.013528594750125057 0.07332155544468336 0.056251981553959225 0.38384869065633015
3071812000.0 0.04215731789461062 0.4138834475385228 0.015139687083945048 0.07311544157636791 0.015432991207451686 0.07273669687304343 0.0568684601523754 0.3831615413288962
3072875000.0 0.04429571355731246 0.41399122140311073 0.01716015889294499 0.07244973033764654 0.017385317307231283 0.072224321534324 0.05779151839198816 0.3824496229059057
3073938000.0 0.04625683527974202 0.4139573294479445 0.01922972824814483 0.07174443220803345 0.01927839905515723 0.07161059692127854 0.05896312262544639 0.3816665295247959
3075000000.0 0.04820478470181165 0.41390507293672674 0.02120192686181169 0.07091439653678115 0.021223550929818848 0.0709860754232425 0.06045866966412891 0.3804764846318371
3076062000.0 0.05011175826919386 0.4138985190222698 0.023183886347092314 0.07006278434329917 0.023256096995809883 0.07022946491164855 0.06253508727020424 0.3794292916275088
3077125000.0 0.05210406242824063 0.41383928614181703 0.025035218068292682 0.06918475445712212 0.02525964410021468 0.06945992361077925 0.06480428495107221 0.37892785984982846
3078188000.0 0.05408024348110316 0.41367285783552626 0.026830562124061746 0.0682381110082271 0.027128493810112026 0.06852487379796338 0.06710121897979039 0.37818758639064026
3079250000.0 0.05637919497230396 0.41372104690151473 0.028621211434348103 0.06729117486490449 0.029154919489523895 0.06758742586467147 0.07024517140288018 0.3776816100427197
3080312000.0 0.058522262256868365 0.4133395945937005 0.030322258030946944 0.06628729254753317 0.031045333247868963 0.06647630796648689 0.07267896898985773 0.3776261366114009
3081375000.0 0.06065950175655212 0.41329206494377324 0.032108700662944994 0.06534371082177132 0.032890517537203345 0.06539372175209185 0.07566129130602099 0.3782283495267757
3082438000.0 0.06268226237733047 0.41305978364087653 0.033821013576386526 0.06431168741355481 0.03451829456187078 0.06425998442101379 0.07841226202539622 0.37870908237660766
3083500000.0 0.06482285419049881 0.4130572783648932 0.035478803566109995 0.0633021253976868 0.03619415322968528 0.0630888533045387 0.08090317757526495 0.379692280738063
3084562000.0 0.0669510263223678 0.4129851565739198 0.037218116311228434 0.062221758797767916 0.037834788153399655 0.06194855989095966 0.08343850759365161 0.38063191605128166
3085625000.0 0.06920006800580314 0.4126347941894666 0.0389095278398184 0.06118581965643428 0.039473351918225666 0.060918745464166445 0.08525952453794998 0.381675113412072
3086688000.0 0.07138160709322054 0.41238163087552065 0.04056480949401973 0.060046283994157484 0.04091758265175136 0.05972270033408424 0.08747234008376617 0.3827276331021675
3087750000.0 0.07375383113411306 0.41248197490451954 0.042185556371084613 0.058874566354637226 0.04244343416035792 0.05858915121312559 0.08923155684103862 0.38381253027356016
3088812000.0 0.07605942576118838 0.4124767641473246 0.04369019296903184 0.057672830847152634 0.043893283887401664 0.05740145503265825 0.09094769483639926 0.38526909982981256
3089875000.0 0.07837834410986984 0.41242515730570267 0.04520815783065343 0.056359380940371503 0.04549133821621046 0.056210770880133785 0.09202771106974347 0.3859163595594405
3090938000.0 0.08053611147025673 0.4125153015944092 0.046636162762016244 0.05502131890927189 0.04684215996921495 0.054877546613343334 0.09312000975292675 0.38660136191167005
3092000000.0 0.08303455175181183 0.41275756703048505 0.04800326937482599 0.0536528066171682 0.04829953920097432 0.05345631171695023 0.09383978958710272 0.3871391231394504
3093062000.0 0.08530142937625887 0.41280722811495485 0.049344586030758884 0.05214327518978172 0.049709368869251286 0.05198736888523363 0.09478902253937749 0.3873203989163016
3094125000.0 0.08783523164276072 0.4129784314060766 0.05058861579438891 0.0506447045318578 0.05101747703853151 0.05047850968543585 0.09559888396048068 0.38663703492558177
3095188000.0 0.0902764246571553 0.4132439107617099 0.05183649137563414 0.04907371195838586 0.05220077720753308 0.04885062837198364 0.09709331123687909 0.38597642139701877
3096250000.0 0.09267605383707599 0.4136122385591898 0.05296443580877522 0.04752554299933792 0.05337244546366162 0.04731439822669392 0.09864962546631262 0.38480399958590145
3097312000.0 0.09533512760629022 0.41407280689222425 0.05410033181707738 0.04600510788111037 0.054537111397643535 0.04577895506916774 0.10041293686624968 0.38376475589286085
3098375000.0 0.09722593429699007 0.41466227270246125 0.05515215332101708 0.044399691196523434 0.05555772853346947 0.04413588362419728 0.10279651428237765 0.38266067202059606
3099438000.0 0.09959568655194709 0.4146233737594559 0.05615844771778946 0.04288313045637561 0.056546775970285505 0.04252332466199115 0.10548015379920571 0.38208043583713497
3100500000.0 0.10194699552307286 0.4153406661189475 0.057169393136806704 0.041325664670713656 0.057339494787922225 0.040975556126247155 0.10874184527625587 0.38151227636554835
3101562000.0 0.10441202798501335 0.41561211875727844 0.05813265312176304 0.03974661067379587 0.058282366963155106 0.03948159844966056 0.11156038024219422 0.3810465942870744
3102625000.0 0.10681016154457752 0.4158681524195374 0.059047992762891785 0.038143791578482744 0.05917526468749304 0.03788306939410768 0.11474604702974138 0.3811463647765206
3103688000.0 0.10930619382328527 0.41604053760898735 0.059896672538013875 0.036544184108061414 0.0600263970917415 0.036365817034341684 0.11750025118548116 0.3812383329761748
3104750000.0 0.11164968806283151 0.4162094197541806 0.06073460800299575 0.03489036657159266 0.06089732721479812 0.034717062100002256 0.12017481287211385 0.38141131596443806
3105812000.0 0.11420559029595982 0.4163312641669846 0.06156525429042256 0.03323400539126869 0.06178710813365665 0.033002721406908735 0.1229715286486453 0.38178764602943194
3106875000.0 0.11675466481474556 0.41630593168729213 0.06233004717077581 0.03150410838726094 0.0626341876011889 0.031290665810235645 0.12540587966893982 0.3823785271528959
3107938000.0 0.11926535680132308 0.41635201870340466 0.06303858437917412 0.029728692879449885 0.06335900823032667 0.029591011873318123 0.12733907208041684 0.3826631205592589
3109000000.0 0.12192201369665315 0.41614874226656323 0.0638104317219758 0.027909773403818217 0.06407072471867677 0.027584761308701262 0.12972709587496628 0.38297842714275676
3110062000.0 0.12466857679271948 0.4160787643903242 0.0644171221989045 0.026079174174179275 0.06476199565411772 0.02566647443241895 0.1316535873278346 0.38314275070694714
3111125000.0 0.12725810420187664 0.41600407519160726 0.0650159644987124 0.024225014548279692 0.06528374998035735 0.023853299113486777 0.13362583571730596 0.3829928853207085
3112188000.0 0.12993032133109642 0.4159728262810498 0.06557752929972734 0.02237059590123798 0.06569169071522211 0.02201927591071602 0.1354946183893302 0.38327928579792964
3113250000.0 0.13284600627238602 0.4157346603022614 0.06604933919062203 0.02049428841022217 0.06609605012918308 0.02004710898984369 0.13742801849154768 0.3829816808239966
3114312000.0 0.13556239993425367 0.41558340543179406 0.06638290806587065 0.018578027779779044 0.06640789658571448 0.01827777260783783 0.13900370632699158 0.38260269657265616
3115375000.0 0.13856163408304695 0.4155529434565602 0.06676395402131073 0.016664587521620988 0.06662860965685075 0.016410607808577102 0.14096773001988744 0.38194624087628987
3116438000.0 0.14152323981005924 0.41562816132786745 0.06702587746207726 0.014859752420242251 0.06690366455453525 0.014679556243206375 0.14296364638295303 0.38126555256233813
3117500000.0 0.14448431698126085 0.4153419762038431 0.06725404355408077 0.013037610259420967 0.06723608492583932 0.012899112299338456 0.14526941962922055 0.3801157571351412
3118562000.0 0.14725887455304232 0.4152209519925583 0.06737625329977263 0.011225123034924317 0.06748711272181086 0.011152029203032418 0.14774684476723646 0.379232772049569
3119625000.0 0.15013310841038827 0.4153094014297183 0.06757353078213767 0.009450907128548612 0.06781110782370295 0.009606926056186672 0.1508344439038538 0.37846477753241003
3120688000.0 0.15299864082001707 0.41522013246301664 0.06768143497484778 0.007746512663870315 0.06807952564791922 0.007811467709073004 0.15391365451550013 0.3777214696232844
3121750000.0 0.15608974482703536 0.415072268358429 0.06785838884111864 0.006068228653955836 0.06832879566675398 0.00595782295461527 0.1566027558042269 0.3769936137682681
3122812000.0 0.15887973640453212 0.4150150388916324 0.0679330820664669 0.0044352733659253725 0.06851954542641317 0.004088664285638961 0.15963769010912404 0.3764127822859433
3123875000.0 0.1619201579476622 0.414980380949716 0.06798769317578425 0.0028231440716925717 0.06854538451644254 0.002334118858637258 0.16240245534424813 0.37620914978859055
3124938000.0 0.16478227512126897 0.41478688212567416 0.06804852170763795 0.0011878729930568609 0.06861470467482769 0.00043707763590183137 0.16520174026758302 0.375635765499722
3126000000.0 0.16798731466075909 0.4149430814965361 0.06802216077010509 -0.00046267499963791725 0.06842568171137334 -0.0013201055376782826 0.1678735871259658 0.37504062136554484
3127062000.0 0.17090521731513267 0.41479255814753957 0.06797320700326791 -0.0021907817944432063 0.06815125942270842 -0.0031365848643461 0.17048740143480443 0.37442882605107164
3128125000.0 0.1737365232782098 0.41497360453180254 0.0679067349664034 -0.003935686986365589 0.06786079088098916 -0.004823669241730091 0.17319162958823062 0.37399703130999795
3129188000.0 0.17646121469099887 0.41496048262321866 0.0678190736474221 -0.005786802745238837 0.06748947489060128 -0.006590630845619658 0.17599437757705894 0.3735922595937374
3130250000.0 0.1791509956337515 0.41477806655337857 0.06762909797150635 -0.0075707686577014995 0.06710330060072246 -0.008212956389492208 0.17831694143259394 0.3732319664114446
3131312000.0 0.18206678443497976 0.4142988741867591 0.06733768422741343 -0.009443911164567798 0.06679615965709733 -0.009885897764747022 0.18071228813127355 0.3729886991022498
3132375000.0 0.184321510812855 0.4135724088270848 0.06699276112828459 -0.01131275665216959 0.06636660118626433 -0.01141154264189312 0.18270325440806093 0.37240672287045185
3133438000.0 0.1870202166640124 0.41333921915918326 0.06656480547241683 -0.013181668178204344 0.06606095319209675 -0.013189060838387527 0.18491715879837065 0.3715304462371225
3134500000.0 0.18950316063017417 0.4124334871051163 0.06599829893597589 -0.015007050722642502 0.06574205937625212 -0.014797254700286672 0.18710120506622022 0.3704830112314078
3135562000.0 0.19203063823571878 0.41166437306833464 0.0653791714136681 -0.01681563057227731 0.06533500189149102 -0.01653828138144692 0.1900143599559803 0.36911684343539414
3136625000.0 0.19462109432555333 0.41048502315465246 0.06468157573899595 -0.01856575550432171 0.06501371535132984 -0.018327146216463426 0.19221927465276936 0.36799535924905935
3137688000.0 0.1970617713199023 0.40941680050753076 0.06400223965005006 -0.020232956366432967 0.06447101258438478 -0.020170388168272827 0.19509840972291762 0.36693823980463813
3138750000.0 0.19964130158062882 0.4085552378632363 0.06327506361955047 -0.02188840659684978 0.06393884869021352 -0.02199953333502351 0.1982031432513049 0.36573603004262506
3139812000.0 0.20224945983468098 0.40708109281947447 0.06254272594508903 -0.023419575133666517 0.06326301539041797 -0.02374829705643866 0.20119812040940768 0.3646201868363261
3140875000.0 0.2048533625782136 0.4058477341430888 0.0618788239683478 -0.024922742459701934 0.06257842633469554 -0.025480801151550124 0.20414322858335393 0.364136412501299
3141938000.0 0.207662406633329 0.4046082457215347 0.06121815537201937 -0.026349605969557453 0.06177589691169381 -0.02727272062274834 0.2064545428977235 0.36335591948279883
3143000000.0 0.2102869741105176 0.40331370328941085 0.06058895850255227 -0.027793578261419503 0.06088436332025589 -0.028755257320444143 0.20914836561183536 0.3632650088267005
3144062000.0 0.2130892522618604 0.40204960844283183 0.05991737090074452 -0.029196674014042547 0.05994421633729574 -0.03023234161992707 0.2110602815796071 0.36209102813759586
3145125000.0 0.2159322039572699 0.4006925847020134 0.05930640931716454 -0.0305709563959733 0.05905586215921107 -0.03166317728665741 0.21296425640086375 0.36116689020711795
3146188000.0 0.21845999945483313 0.39944520745710893 0.05861371680452219 -0.03191455369762155 0.058150948523884784 -0.032916470679838515 0.21482341104477617 0.35964326454934664
3147250000.0 0.22143655778090363 0.3980185929411054 0.0578660774285913 -0.03334206958899984 0.05720556544605894 -0.03416668392430982 0.21654233961947092 0.35781037041320896
3148312000.0 0.22411638692783276 0.39676623918910237 0.05708811041653295 -0.03480599022319893 0.0563331628682651 -0.03539199422014356 0.2185996514890973 0.3558441456982844
3149375000.0 0.22682962639981882 0.3950496088036045 0.05619814199499563 -0.03622794771376011 0.05547036343687352 -0.036726822802066586 0.22068815950907056 0.3538696647110431
3150438000.0 0.2294638426973319 0.39356288484973584 0.05524383143693084 -0.03780192419751443 0.05458505486127868 -0.03797210201978367 0.22342096656566446 0.35221847456850397
3151500000.0 0.23217867086575114 0.3920689501224439 0.05421628893122164 -0.039302554149095024 0.05357326634082626 -0.039309547540567286 0.22555227506100037 0.3504909025137251
3152562000.0 0.23477811293829748 0.3902833751225663 0.053104779553145215 -0.04081189261727247 0.05263895291212599 -0.04061618033056307 0.2280400175876908 0.3489041737249818
3153625000.0 0.23742442820178114 0.38863001712090617 0.05190265515140102 -0.042299883333304464 0.051603268687937597 -0.04202389880725344 0.23058568050962758 0.3469107184363976
3154688000.0 0.24007646937083438 0.38702833800940506 0.05066290421226051 -0.043723354556195235 0.050608690249273065 -0.04359231518481568 0.23313436782281863 0.34539417888839136
3155750000.0 0.24256563808168163 0.3854923329250317 0.04934917461831945 -0.045080358978728474 0.0493798567224296 -0.04498724350240261 0.23570418750054686 0.3437006838405818
3156812000.0 0.2455788304199646 0.38367790943287344 0.048052352297741616 -0.04644357247654507 0.0482836765258943 -0.046533772001185594 0.23870745432455792 0.3421358851167599
3157875000.0 0.24778709022590703 0.38222367458817014 0.04675890802746711 -0.04765346350950257 0.04685707237307653 -0.04789505709986344 0.24163503860754088 0.34076367616899755
3158938000.0 0.2503108007210695 0.38051949911156113 0.04543776525132663 -0.04886928056925876 0.04560691398474032 -0.049218498832611826 0.24479649020752942 0.3392857408056171
3160000000.0 0.2529314721953354 0.3786390848197632 0.04415840922847225 -0.04992755103280411 0.044185422888680305 -0.05028301475374819 0.24764092036731905 0.33791658342037517
3161062000.0 0.25518530132218176 0.37687506303748936 0.042829184143652194 -0.050953551221226606 0.04282120772688785 -0.051491820768271 0.25034125675277824 0.3368856909738124
3162125000.0 0.25723038811375065 0.3753528019615416 0.04154877048502875 -0.05196329502676076 0.04141359723805346 -0.05247227856601848 0.25292887763688426 0.33637097956157563
3163188000.0 0.2594751265784922 0.37329171411628514 0.040287092898912226 -0.05296832009905276 0.04012967536244847 -0.05349762222426986 0.25506704933926727 0.3359357451245892
3164250000.0 0.26133873358359294 0.3715504445782912 0.03896491725287358 -0.05388573867088038 0.0387556887272916 -0.054441434182405164 0.2567350545072133 0.33495070393011817
3165312000.0 0.2633851906994751 0.3691549702614345 0.03776534344316753 -0.054828137977448496 0.03752854177930588 -0.05523612114240835 0.25796427252568765 0.3337549308994585
3166375000.0 0.2653595456630064 0.3671131469736535 0.036532716904181854 -0.0557929732256688 0.03617165391475119 -0.056133943959406546 0.2585811507004444 0.33268740091442844
3167438000.0 0.2671224538477273 0.3645263227295555 0.035207662770494724 -0.056689910502376775 0.034807055272774674 -0.05699872106114378 0.2596469134304893 0.3306186354642469
3168500000.0 0.2693822741989247 0.3623185197566263 0.03386279539471783 -0.05762219277259769 0.03353835766887313 -0.05785280464752654 0.2604500667911198 0.32800692132729675
3169562000.0 0.2712750212124119 0.36001519086197475 0.03246745179096742 -0.05846042492090733 0.03199348333039952 -0.05870245764493925 0.2615161810303338 0.3253847690498813
3170625000.0 0.27329913853601084 0.3575416275196508 0.031005594835527974 -0.059274966864549694 0.030602269215268436 -0.05964568668335182 0.2631831655291786 0.3222610952706816
3171688000.0 0.27563493402961464 0.3549522058225443 0.029452420975058093 -0.06007581377205794 0.02898619164140965 -0.06034967028853014 0.26484581140770064 0.3192996129420578
3172750000.0 0.2775296325296475 0.3526233760195461 0.027798569393703697 -0.06087644467487885 0.027301868303132956 -0.0610846585836424 0.26674719467634245 0.31634574111432634
3173812000.0 0.279956195260402 0.35042998519448665 0.026104035078625396 -0.06162853239979876 0.02569300517596133 -0.06178002238584654 0.26894543301899054 0.3134136100511152
3174875000.0 0.28224525272204853 0.3483889372928218 0.024334393511440157 -0.06239012748943599 0.0239281001919435 -0.06249874899382895 0.27114838159019355 0.3105849675985846
3175938000.0 0.28432101677239524 0.345660223471072 0.02252463621687442 -0.06308946426461912 0.022221788439653008 -0.0631214379682265 0.27379189061331644 0.30791783443623844
3177000000.0 0.28656501713634486 0.34372359549858633 0.020771543012178116 -0.06381207974560954 0.020457726869171113 -0.06373277355432867 0.2765690645127742 0.30533580903510943
3178062000.0 0.2885309911202272 0.3414958741914838 0.018943366019880357 -0.064377189181876 0.01882583870735758 -0.0642861416987569 0.2791917217734791 0.3031191740343643
3179125000.0 0.29071601045802486 0.3394272254447121 0.01722111592845932 -0.06496196568031576 0.017137807247070924 -0.06495271482230275 0.2819153200309301 0.30066036629287507
3180188000.0 0.2928661463737579 0.33704510193678683 0.015494111919036616 -0.06547438225114553 0.015427533940614082 -0.06536732574984795 0.284540827468409 0.298747366689237
3181250000.0 0.2948017662195328 0.33478788209986876 0.01381088354194244 -0.06584580754897673 0.0137554860319752 -0.06593366414981955 0.2873172779692391 0.2975449159236179
3182312000.0 0.2967876835768106 0.3324640675406158 0.012099267238858583 -0.06622541867480804 0.011970206595819669 -0.06638648451726459 0.2893130140085296 0.29617923605132007
3183375000.0 0.2986577079407453 0.33025029583541315 0.01042925020872763 -0.06655686593021307 0.010335036989768885 -0.0669109031378373 0.2914523727426992 0.2949452665735005
3184438000.0 0.30085932525812703 0.3279231267053037 0.00876024731127226 -0.06685674293981847 0.008556524900073992 -0.06725138221028083 0.2928686713357596 0.2935828393188831
3185500000.0 0.30280124260654195 0.3256313948803051 0.00705893794912988 -0.06715791564128011 0.006833120428780915 -0.0676018685151913 0.2938023721029345 0.29212076167511986
3186562000.0 0.30448578151820344 0.32349837269767096 0.005421800928766937 -0.06740908083346339 0.005096846983447537 -0.06785637567619711 0.2944325230332575 0.2904042030154761
3187625000.0 0.3065898943322138 0.3213172492463727 0.0037240358377437833 -0.06759837328921343 0.0032977557711650067 -0.06810065966167148 0.2950128212703315 0.28798745400359366
3188688000.0 0.3084931118427435 0.31912042440849514 0.002057709309467246 -0.06784832879030465 0.0015934350158117454 -0.06818208729208497 0.29596337353778335 0.2857028105782581
3189750000.0 0.30976812628703865 0.3169955334374039 0.00035788942369604755 -0.06800876884214264 -0.00022442868123148565 -0.06822855048548272 0.29698504247218915 0.2827904579668279
3190812000.0 0.31173615233703417 0.3150530051091374 -0.0013702760750749234 -0.06821780137007387 -0.0020164965220189793 -0.06834676586722206 0.29832997914345943 0.2798953879728809
3191875000.0 0.313289652738923 0.3129161277044608 -0.0031085393972976843 -0.06827623449375991 -0.003747255489639428 -0.06814563588092055 0.29976585134906114 0.2770053495212922
3192938000.0 0.3147142845185869 0.31064526574404216 -0.004880363266451423 -0.06825787516173965 -0.00547625356093285 -0.0680870673217045 0.30132162582669486 0.2740209232583423
3194000000.0 0.3162142838518533 0.30863308269936923 -0.006724248452848683 -0.06818753234659214 -0.007228938907061856 -0.06794443056082426 0.3032607799971807 0.271103026249066
3195062000.0 0.31766652759786074 0.3064246820553946 -0.008636545224681234 -0.06799118643139933 -0.009078409006219479 -0.06782485362577415 0.30522231483257717 0.2682783399800235
3196125000.0 0.31899984550096633 0.3043846514081665 -0.010540055031006553 -0.06777689828302466 -0.010787857976982307 -0.06763166461207873 0.3075990877513722 0.2656529677270755
3197188000.0 0.32020290740559326 0.30225086584612604 -0.012490022834958434 -0.06749066505164097 -0.012706333488091756 -0.06743320672201188 0.3099845958919233 0.2630044611845387
3198250000.0 0.3216507987917051 0.30020086304335075 -0.01442027758834762 -0.06718480310718578 -0.014540441078959578 -0.06723200819042219 0.31263209816830406 0.2607286084696363
3199312000.0 0.3230730554031152 0.2979440678704474 -0.01630682272998275 -0.06680330254963045 -0.01641652190523719 -0.06692513963549164 0.3150627703960389 0.2588834537512014
3200375000.0 0.3243934640462254 0.2959929267290769 -0.018225434650570492 -0.06645405911389148 -0.018409672654594242 -0.06670361691733435 0.317722195299231 0.25723343449699243
3201438000.0 0.3259123040035856 0.2937899418438638 -0.020008002474365183 -0.06602973058760965 -0.020234876269240403 -0.06623333488571775 0.3202634596850574 0.256404964047172
3202500000.0 0.32740881856855525 0.29196038351990483 -0.021809380572837066 -0.06560401396519956 -0.022224639883922415 -0.06583146438017799 0.3219960837239496 0.2556841402555923
3203562000.0 0.3290144070246249 0.2898971523851442 -0.023505465586011402 -0.06519699055286375 -0.024038733477601628 -0.06522970677059317 0.3237930761961477 0.25520047050050615
3204625000.0 0.33068766445326786 0.2880559257138269 -0.025207308378652222 -0.06468614822039649 -0.02581955574904009 -0.06475653004699661 0.32460476148970047 0.25430637690223457
3205688000.0 0.33227761184634363 0.28645993261766356 -0.026846929502731758 -0.06414171416397327 -0.02739583053687748 -0.06406413914360122 0.3248798529263797 0.2534921820166578
3206750000.0 0.3336196458817089 0.2846694398322613 -0.02854378619580638 -0.06350830895897097 -0.029184197676198835 -0.06347751643123713 0.32513017305203734 0.2522509544756954
3207812000.0 0.3348553894841742 0.28296387804656037 -0.030216998494775892 -0.06289686649972735 -0.030753089043583502 -0.06271683585361987 0.32507653740957115 0.25039004645303686
3208875000.0 0.336553756226809 0.2817722003875388 -0.03194612356063219 -0.06225145110085697 -0.032395184822926915 -0.06197072931451814 0.32524226462008415 0.24824996851385622
3209938000.0 0.33724819156249336 0.27969794687124794 -0.03363420978657454 -0.06151309764768579 -0.034053293085734834 -0.061175298645203505 0.3255770452289397 0.2455347867074384
3211000000.0 0.3386493850731453 0.2782190770935986 -0.03538987867228557 -0.06075455783175231 -0.035675640124087464 -0.06035416091494297 0.32636198866611077 0.24258808603312412
3212062000.0 0.33957249595240563 0.2770070387691389 -0.03710637072078468 -0.05990138879191801 -0.03721380860917604 -0.05963334485699049 0.3270715391251915 0.23969761035271306
3213125000.0 0.3403233405485129 0.2754177521177551 -0.038828401862819543 -0.05895579544019312 -0.038920917704057256 -0.058664942835401995 0.3282843615132978 0.23721141783943375
3214188000.0 0.34121721212597717 0.27377942881687534 -0.04049020035666063 -0.05796508903525038 -0.040524660668662414 -0.057732141077007 0.32967448503563 0.23452842038188862
3215250000.0 0.3420732209835533 0.27228023153954345 -0.04209320560946656 -0.05686967665344755 -0.0421387733363476 -0.05680869356004989 0.3312749884809897 0.2316707233827075
3216312000.0 0.3431849347650443 0.27061655474049384 -0.04366018194212615 -0.055748269799175965 -0.04385458060167634 -0.05568629224365833 0.33268225162488674 0.22925264573198975
3217375000.0 0.3441057968850644 0.2689608754072392 -0.04514982785609544 -0.054512522954689384 -0.04541411761923407 -0.0544955688621785 0.3342013751655522 0.22719671887110324
3218438000.0 0.3451054278957052 0.2670934481879977 -0.04669259746881986 -0.05315573806225767 -0.047016184054665816 -0.0532048943471344 0.3357508818099678 0.22504406342214645
3219500000.0 0.34602702182238526 0.2655859687309438 -0.04812136565841082 -0.05182119564887919 -0.04853165873440388 -0.051768450088763636 0.33750698415517105 0.22311109349456662
3220562000.0 0.3468179627559249 0.2639143316365705 -0.04959752716597417 -0.05045067078076549 -0.049989667387780184 -0.05038758292780479 0.33919073579246894 0.22203358682199179
3221625000.0 0.34753578657822104 0.2623999505347387 -0.050986984550190746 -0.04904565728112432 -0.051427710079389836 -0.048873165218979234 0.3406074577241283 0.22015941650343707
3222688000.0 0.34832411390244256 0.2609455550995775 -0.0524224206331908 -0.04763707858339036 -0.05271952362310404 -0.04741090893585344 0.3420392752194146 0.21916651633859854
3223750000.0 0.3491220086317073 0.2592890900019451 -0.053705042900377836 -0.04623305807020215 -0.05408560458157797 -0.045962423239287474 0.3429288527400918 0.21836318314603154
3224812000.0 0.3501128913296956 0.2578485454140672 -0.055026184095371466 -0.04477452280118404 -0.055307524482636775 -0.04448711641605681 0.3437014569412034 0.21719686187749082
3225875000.0 0.3508070263724936 0.25601115278972264 -0.05627809919564482 -0.04332902189770205 -0.05645953935284709 -0.04298610407741103 0.3440980455995868 0.21624975584259923
3226938000.0 0.35208387567446975 0.25456006755979216 -0.05745244148078059 -0.0417837196507783 -0.057662742577941774 -0.04149274955347026 0.343980443225885 0.21505769096024124
3228000000.0 0.35281122388017216 0.2531969713973678 -0.0586335796988812 -0.04023314428532554 -0.0587944700307638 -0.039975508052617646 0.3441903901263142 0.21339834722399345
3229062000.0 0.3538546896086225 0.2515415597183021 -0.059772819556051356 -0.03858004339681558 -0.05997810220992999 -0.038317619826898616 0.3439589889265511 0.21103050816719213
3230125000.0 0.35442439653053587 0.24987045078163694 -0.06085523636156057 -0.03687707303481404 -0.06104801329228683 -0.03665417816078912 0.34392440106498584 0.20929592658035012
3231188000.0 0.355624237636969 0.24815431992479786 -0.06190221479149077 -0.03517735001856537 -0.062128816813326125 -0.03496258853331256 0.3442238236267511 0.20669949068204047
3232250000.0 0.35674874938410134 0.2463172640853622 -0.06296031383747777 -0.03340501750448159 -0.06318637920618628 -0.03310917855783487 0.34448664273240115 0.20398708635703178
3233312000.0 0.3576429705744419 0.24464056675292578 -0.06399094516724352 -0.03162825152231289 -0.06416835051197381 -0.03134194441065573 0.34564559935232636 0.20106638745671143
3234375000.0 0.3589202945010392 0.24319260647691152 -0.06506497298885343 -0.029749232168063102 -0.06501632116166885 -0.02955232090677937 0.34679386100661014 0.19834668241841155
3235438000.0 0.3600485100339851 0.2416242302602142 -0.0659580024605474 -0.02800595917062116 -0.06596746963144945 -0.02770435785624942 0.34804454840702226 0.1959158317923364
3236500000.0 0.3612161920201906 0.24018250528058846 -0.06682102402081125 -0.02612344107105291 -0.06680187846321246 -0.025850990316053143 0.34977231493397465 0.19360208939624085
3237562000.0 0.3624497297012128 0.23854670974430686 -0.0676449049294634 -0.024257612379415205 -0.0676684751578042 -0.02403727825649393 0.3514599571076603 0.19162582288486268
3238625000.0 0.3634901347599224 0.237065963981908 -0.06839873350454587 -0.022426655240922858 -0.06850461820727284 -0.02220349387421345 0.352921341245056 0.18955503251412545
3239688000.0 0.3644522950333655 0.23561225491919577 -0.06903908673570597 -0.020407935644495917 -0.06910104747152797 -0.020263387676473732 0.3545765521918532 0.18809744520790048
3240750000.0 0.3654315932746451 0.2340771590199695 -0.0695910342349993 -0.01857876160294205 -0.0696656159133315 -0.01847764406105755 0.35612377402799106 0.186696241654661
3241812000.0 0.36650644313268244 0.23289584278598988 -0.0700689855985484 -0.01661443475001707 -0.07027389065479922 -0.016543127656870237 0.3574013852720539 0.18537596355750413
3242875000.0 0.36745374934736263 0.23156774697724505 -0.07050360997294954 -0.014702482679986435 -0.07074720607458226 -0.014577696113848442 0.3586615140826091 0.1846294289724699
3243938000.0 0.36838600379336617 0.23006487759724917 -0.07088704983657906 -0.012691563676578843 -0.07122202044424206 -0.012647271034297455 0.35951878993478364 0.1833787466799757
3245000000.0 0.369161278672074 0.22855851837272492 -0.07114077829132481 -0.010748199325886002 -0.07144699191741305 -0.010629748352585391 0.35995690301823446 0.18187380132134343
3246062000.0 0.3699758728810242 0.22682187861868666 -0.07141136321283606 -0.008753648540354805 -0.07180770426032525 -0.008576014231667504 0.3601917618630961 0.1811617646195532
3247125000.0 0.37032167382792225 0.2251366191520135 -0.07156316081924143 -0.006813078226940236 -0.07195465483557748 -0.006493694581292446 0.3603495393297866 0.17912029221968245
3248188000.0 0.37130116082601794 0.2231238274140897 -0.07167364975070993 -0.004846311679507966 -0.07211854551405242 -0.004437957213492864 0.36076043166669663 0.1773104306790091
3249250000.0 0.37216595232907906 0.22145510185095088 -0.07173582178964971 -0.002893449296114263 -0.0720747465810956 -0.0024500889351498126 0.36109720113431826 0.17480677111351184
3250312000.0 0.37268731602987887 0.21933788850726715 -0.07173946985182268 -0.0009141125987193711 -0.07200399609680816 -0.00035694644947675385 0.3613676945312333 0.17216145157759402
3251375000.0 0.37357451124166896 0.2172405808688838 -0.07168244382542363 0.0010783294203099807 -0.07190318473477424 0.0016914309939919836 0.36202852390310414 0.16971850333470992
3252438000.0 0.3745957219155966 0.2152026434297586 -0.07165898671933377 0.0031189440358465595 -0.071748017010248 0.0038066623967066265 0.3629329623798625 0.167306903041207
3253500000.0 0.37574661835689016 0.2132788981412881 -0.07158040123101281 0.005153780974580879 -0.0715304305266045 0.005783356017279385 0.3638571543560822 0.16416517538099462
3254562000.0 0.3766708786408584 0.21106723002160277 -0.07151667033950561 0.00720542426603908 -0.07137730640397362 0.0077130013044840635 0.36504889398328294 0.1616861559545063
3255625000.0 0.3776962211979437 0.20863384135128948 -0.07137516425926471 0.009338447517010635 -0.07111990419551045 0.009769457011518599 0.3662991265569014 0.15896266638173595
3256688000.0 0.3792976414020254 0.20669534249973032 -0.07124624897378945 0.011461901784816927 -0.07095521925633733 0.011690513724507374 0.3675839427458706 0.1559986003721577
3257750000.0 0.3803102678705882 0.20415459947138007 -0.0710150725375032 0.01350685754107357 -0.07077824756679028 0.013830123153885307 0.3696798752280691 0.1537408751099152
3258812000.0 0.38184674839637556 0.20205894918756276 -0.07070674314642962 0.015583194466135708 -0.07057249630173626 0.01578545667602017 0.3707635112986962 0.1514073435810153
3259875000.0 0.3830029291489436 0.19959243884778133 -0.07038490508154382 0.01763341733465919 -0.07029653157403919 0.017848459922584554 0.3730275638125575 0.14935866610469428
3260938000.0 0.3843057177504949 0.19709586034199592 -0.06995989465672962 0.019646188316888115 -0.06989460090997053 0.019799492140289605 0.3751795129241798 0.14765193816902164
3262000000.0 0.38598948359712454 0.19459154106590823 -0.06937385245781398 0.021666155214104733 -0.0693741872960087 0.021716931365706835 0.37637963426031 0.14569488146216725
3263062000.0 0.38717048670730514 0.19181517296398223 -0.06876017675508946 0.023610353012136032 -0.06879782096667043 0.0237471862516061 0.37812216698337564 0.14407898058919347
3264125000.0 0.3889958027669353 0.18932116758522793 -0.06813471667498922 0.025526551471589803 -0.06836517495572739 0.025727787370308005 0.37938331710510237 0.14242082032192202
3265188000.0 0.39099838475649795 0.18647571346154276 -0.06738569439434983 0.02734720458836881 -0.06763888653414561 0.02769320302666283 0.38059630302560077 0.14089903051495856
3266250000.0 0.39253082375705883 0.18407416134058943 -0.06660630834354862 0.029072343289646127 -0.0668372879286363 0.029519073754608976 0.3812482772902735 0.1391467021787427
3267312000.0 0.39398280811269576 0.18152768465889285 -0.06576287769060059 0.030842805606408043 -0.06593692339352268 0.031227280712722464 0.3819284146927923 0.13710550831512894
3268375000.0 0.3957882625801143 0.17937620071288174 -0.06495657436145104 0.03253604185952402 -0.06504457334799621 0.0331749222947398 0.3825528331897198 0.1345505541915039
3269438000.0 0.3976047317871007 0.1767339826729495 -0.06405881916472161 0.034231365355884315 -0.06406651181111063 0.03478308150067335 0.3836049411258846 0.13209433197959466
3270500000.0 0.39898978476253816 0.17456713436809004 -0.06314671204425727 0.035907103682206024 -0.06306110959208713 0.03652482165245347 0.38442432222052686 0.12906105399208778
3271562000.0 0.40071923941324794 0.17202607803749947 -0.062285135269260876 0.03761961190591144 -0.06204246742513484 0.03826715802847368 0.3859530662596726 0.12643442782153771
3272625000.0 0.4018155138054441 0.16971115149382868 -0.06130155276484777 0.03930185000017279 -0.06096079475495543 0.03988224917936239 0.38734910674825423 0.12346349792964838
3273688000.0 0.4033583249164092 0.16722350901818467 -0.06033280405002988 0.04100542708835214 -0.05997756347032252 0.04158962510552198 0.38892081648868165 0.12145961892245259
3274750000.0 0.40465881538747367 0.16483952165176988 -0.0593104155763974 0.04260352778009883 -0.058915896745805364 0.043164440151162255 0.3902463657381827 0.11902865277961326
3275812000.0 0.4057283365516847 0.16239006652758375 -0.058213547826754614 0.0443890659114601 -0.05780873727532763 0.04486131119783042 0.39173930963952047 0.11729788697619958
3276875000.0 0.4069634221792032 0.15962097012023047 -0.0569762430528237 0.04604802688001733 -0.05665821943568577 0.046475114661345976 0.39304464508839004 0.11508744397937137
3277938000.0 0.4079434758166854 0.1570229494676183 -0.055726475285161885 0.04781445157031423 -0.05542593584992145 0.04803790249418753 0.39425009136385164 0.11314633062293165
3279000000.0 0.4090987280203444 0.1542612548787804 -0.054498447594589626 0.0494655708094701 -0.054210655488965226 0.049700723478877266 0.39511091439914725 0.11166212236190662
3280062000.0 0.41057996263080093 0.15113914178333496 -0.053176791533289074 0.051059598615197065 -0.05291055337207343 0.0512796126549737 0.3956366829920074 0.10961357853867021
3281125000.0 0.4116310152976276 0.14850837103362075 -0.05176410036081142 0.05259277447671818 -0.05152459603121773 0.0528031536648717 0.3962318941307775 0.1075897960721229
3282188000.0 0.41284069647957333 0.14535009081372344 -0.05037537490629201 0.054076270848498996 -0.050013334402043516 0.05430903480560077 0.39674194482924174 0.10528264110957763
3283250000.0 0.41397374433240747 0.14274120647079713 -0.0488850480811101 0.05544708855991476 -0.04864878201644196 0.05568743454896093 0.39704444182688525 0.10326439908210584
3284312000.0 0.4152047251082696 0.13952606665600287 -0.04736401953925443 0.05674790627543584 -0.04716796394870501 0.05691342208735375 0.397203013755072 0.1008509500369863
3285375000.0 0.4166536464678516 0.1366006573993656 -0.0457628987278563 0.057996374204996544 -0.045638656362939144 0.05813263300027995 0.3974217901636108 0.09830447271866825
3286438000.0 0.4182703338245703 0.13368041916472387 -0.04418689750428437 0.059112196223619656 -0.044061368772243446 0.059353633236082504 0.39751838118098537 0.09562076320733402
3287500000.0 0.4191077119890257 0.13086462197278448 -0.04251004035310131 0.060236116356567074 -0.04243082933345417 0.06047901769974363 0.3976520605458721 0.0925171241570542
3288562000.0 0.42036949150248193 0.12793218879117485 -0.04083589551561791 0.061262985734524496 -0.04064960322309145 0.061554131435115365 0.39778331485818735 0.08926171080263359
3289625000.0 0.4215832277752402 0.12493268737718433 -0.039152245891981484 0.06236029773915078 -0.039000675582500074 0.0626314621022069 0.3984137931583066 0.08602328184918206
3290688000.0 0.4227030630665483 0.12200888215823363 -0.037454069559517814 0.06331080490884446 -0.037286422175702834 0.06361134364663526 0.3989124609629453 0.08269305674295913
3291750000.0 0.4242471952642223 0.11865588882927555 -0.035702291131782145 0.06433002137544554 -0.03542184009508741 0.06463013622992392 0.39975257904439904 0.07929418435541957
3292812000.0 0.42527187841876385 0.11602696221965335 -0.03392250400807929 0.06527241238671525 -0.03358282234978317 0.0656145880755792 0.4004853924913217 0.07624275197771244
3293875000.0 0.4263039532194547 0.11309571190313861 -0.03212783687456624 0.06622465604283645 -0.031764086518010916 0.06654556567863544 0.4012828862330252 0.07327785401139646
3294938000.0 0.427632181379236 0.11026175942100776 -0.030277704515213128 0.06713988186334116 -0.029961653169494236 0.06749954784038831 0.4024065367490654 0.07044279403772442
3296000000.0 0.42886709055304867 0.1070588561607383 -0.028316206478953318 0.06801614491739869 -0.02793664216359542 0.068396511035769 0.40285678559307536 0.06780458040762499
3297062000.0 0.4300173466299947 0.10417442704844174 -0.026318841996655462 0.06884519578368493 -0.025996716433155743 0.06915511756539627 0.40359467950732414 0.06486360812341949
3298125000.0 0.431098932948271 0.10132649938710363 -0.024396597159334368 0.06973143007543443 -0.02406223711874718 0.06996137344547584 0.40372897508702027 0.06218021156844573
3299188000.0 0.4323449709032539 0.09876443913931601 -0.02242444290498689 0.07051320437795112 -0.022117275482760896 0.07070937038497249 0.40417091115319986 0.05980227208035015
3300250000.0 0.4331844259993624 0.09605202784090079 -0.02042513096539643 0.07126967179141028 -0.02016287813506704 0.07136296601203244 0.4040271687352137 0.057163242865223625
3301312000.0 0.43430071087910205 0.09348127250309933 -0.01846426936173856 0.07193170760575437 -0.018151327108796616 0.07204278134020649 0.403911248907121 0.05440433681573838
3302375000.0 0.43537324255065457 0.09097752835138012 -0.016511272738621508 0.07253368783633217 -0.016170264235377808 0.07272387691026323 0.40416835794848155 0.051867391047113146
3303438000.0 0.43608155075509014 0.08835154819526173 -0.014539026746880549 0.0730357665373304 -0.0142806091531721 0.07319098236332584 0.40321176089161004 0.04896332351132134
3304500000.0 0.4369492670447549 0.08562760290033292 -0.01261302762483234 0.07348309941795356 -0.012365747899212276 0.07357221769575571 0.40288810797831337 0.045912930592701094
3305562000.0 0.43757670125167053 0.08316327720398409 -0.010698767599457712 0.07380791520090345 -0.010293202019830238 0.07410357523269136 0.4029548389975988 0.04262994734253726
3306625000.0 0.4381934362490136 0.08059547561582377 -0.008705729365768909 0.07412330705461542 -0.008403528249335884 0.07427850192596082 0.4026719263961016 0.03886195051731466
3307688000.0 0.43887183941454233 0.07812814236319297 -0.006834143533076871 0.07427583818456623 -0.0064598234236447095 0.07454575753013155 0.40211295916089784 0.03551875304370846
3308750000.0 0.4393524288414683 0.07550147863967197 -0.004865652439942012 0.0743474105595769 -0.0044015637961309405 0.07457873761071891 0.40238569781561295 0.031503683338896575
3309812000.0 0.4395747224336758 0.07275810165875844 -0.002795459023003086 0.07445636957442045 -0.0024888655690355325 0.0747382406929469 0.4030627208339321 0.027241590040244165
3310875000.0 0.43986527673578907 0.0700117602153376 -0.0007644356197186896 0.07448856905663197 -0.0003733536683311438 0.07454266128603763 0.40372205944483186 0.023956353153697093
3311938000.0 0.4403481372180918 0.06727145740377823 0.0012623911694226602 0.07447700655638766 0.0015145027323461562 0.07450999111184965 0.40449493555685656 0.02071130729313513
3313000000.0 0.44069615134190915 0.06418090638006088 0.003326783790796006 0.07441489198401055 0.003645294305242419 0.07436684219435231 0.4052981810702855 0.01742818248483274
3314062000.0 0.4409455800780078 0.061470831941993716 0.0053819782657189615 0.07431878825538231 0.005675282161690968 0.07419741357170785 0.40590633051418756 0.014777554080336435
3315125000.0 0.4414199443327449 0.05857841763795513 0.007451766711396849 0.07410833589664954 0.007821089410785876 0.07409955380240077 0.4063382026683349 0.011959417504503602
3316188000.0 0.44133250099865357 0.05566864670812623 0.009530454902937125 0.07389749268610032 0.009863216886609003 0.073809041596242 0.406299690584781 0.009526543071711475
3317250000.0 0.4414264570371479 0.052989294409018145 0.011672413464711276 0.07359253244120274 0.01193453060476251 0.07351455601229694 0.4058974974930679 0.0069088189819346444
3318312000.0 0.4418778232581298 0.05010629594900484 0.013840097265195661 0.07325323610611008 0.014084230506183735 0.07332949318922341 0.4055378884944372 0.004058191119187085
3319375000.0 0.44188179763133123 0.0472815953348959 0.016038477550262456 0.07282646058242834 0.01630594951138965 0.07294447737407594 0.404748431270172 0.001160673232803978
3320438000.0 0.44185178915171225 0.044419620505406286 0.018072519105303414 0.07233886776533388 0.018454029352198073 0.07251958458331051 0.40373254047959994 -0.0009027998265781776
3321500000.0 0.4420789852362258 0.04177539203307351 0.02016262906759158 0.07181165714829005 0.020499115203570704 0.07208597979916043 0.40232609101786415 -0.0037240960336787934
3322562000.0 0.4418676711786882 0.0388998918165664 0.02223359861620277 0.0712660954136131 0.02261523966108839 0.07143516504279451 0.4009796257110116 -0.00638126608840114
3323625000.0 0.44170741799928054 0.036135242910952214 0.024302597298099828 0.07072956051834492 0.024762271184543275 0.07082763254438727 0.4001331874508094 -0.00967310958192619
3324688000.0 0.44150869416936334 0.03336026951937749 0.026219179846310562 0.07011677421879395 0.026655073743781153 0.07017926808362236 0.39875162998774416 -0.012368220208163121
3325750000.0 0.4413771416248234 0.030607454109574016 0.02819473430860715 0.06941301915834622 0.02863099472083562 0.06946362632964719 0.39743318035692965 -0.016031654047682465
3326812000.0 0.4408736117916096 0.028177475246118956 0.03000780137174379 0.0687036335208307 0.030554583440588614 0.06864761282021183 0.3965159145008527 -0.019754976831120836
3327875000.0 0.44068232805713753 0.02551692566027508 0.031779095733127906 0.06801118215575469 0.03237994952922344 0.06787735850079664 0.39536779883638773 -0.023694641342921038
3328938000.0 0.44015724933775974 0.02295203709684912 0.03358514396685958 0.06723341470598053 0.03417721148275339 0.06704210173158201 0.3949314532935065 -0.027673920419477034
3330000000.0 0.4394307688625126 0.019918612286814935 0.03532754635869661 0.06638604612530101 0.035908784980129706 0.06613590195374859 0.39467957515559376 -0.03158055242999922
3331062000.0 0.4389781182511298 0.01737528854369705 0.03712050100039919 0.06548502913186635 0.03756103894366811 0.0652160752322388 0.3951126489793343 -0.035764975369003214
3332125000.0 0.43837092818242107 0.014692322190814523 0.038837998450533824 0.06455561537390875 0.03922865199637285 0.06427236167322652 0.3951524867303376 -0.03902754681272902
3333188000.0 0.43741135894140326 0.012074482324831833 0.04061016631777391 0.06359860693440667 0.04094243602448332 0.06330525784995181 0.39650380066319224 -0.04200754803836465
3334250000.0 0.43685152970503605 0.009128714427705974 0.042466296138452694 0.06251609476392687 0.042735703949549474 0.06223854400609414 0.3975504316497863 -0.0448460014945073
3335312000.0 0.43599851450972416 0.006426530114019661 0.04424633233406445 0.06137651026587469 0.04432462034005438 0.06130369834232354 0.39836438404503566 -0.04660687883766594
3336375000.0 0.43540027115849633 0.003877026089782228 0.04596167860334939 0.0602034237575943 0.046076755555880346 0.06009171917870953 0.39852521649672523 -0.048449089339122384
3337438000.0 0.4341869613727956 0.0009927109883072823 0.0476852480638669 0.05892696876219506 0.047855990375457715 0.05879726946825076 0.39829329133768937 -0.04985466926965133
3338500000.0 0.433268108067085 -0.002176972984232959 0.049322952671908046 0.05759101046076841 0.04953388319488916 0.05754469224996437 0.39743929423998126 -0.05104343985297993
3339562000.0 0.43256130628338985 -0.004787315833080526 0.050964804326960794 0.056269157671323504 0.051284956577310505 0.0560916357990441 0.3966401166874594 -0.052808615642349066
3340625000.0 0.4316529381322797 -0.007569143009013792 0.052505380300815294 0.05477353897032112 0.05278770270429127 0.05462890410721043 0.3950818451274841 -0.0544705923610116
3341688000.0 0.4304927035894873 -0.010406563701842312 0.05396718960752135 0.053281785929585004 0.05441077536039138 0.05306629403973635 0.39327150135709443 -0.05612926594758261
3342750000.0 0.4293752037770888 -0.013383297868649943 0.05539130286187634 0.05171895740093997 0.05582458254366913 0.05155182670653878 0.3914106051709403 -0.05801381028400073
3343812000.0 0.42848942014848346 -0.01633413247611498 0.05678837664948015 0.050128223982033655 0.057189506865973884 0.04995893167805708 0.3890679806914573 -0.060491635916962654
3344875000.0 0.4276175164213221 -0.01947213370546567 0.05813685814130321 0.04861669453823519 0.05849583709927295 0.048473036256635724 0.38708248746595175 -0.0627296967537131
3345938000.0 0.42645401339502387 -0.022526373133477787 0.059426309787244946 0.0470696585922231 0.05976849113594375 0.04693084355629102 0.3848802223109251 -0.06549757651348848
3347000000.0 0.42553069810505983 -0.025549111925377073 0.06069734520722457 0.04550494994845465 0.0610610716407956 0.04542180021395219 0.3826873044783948 -0.06838206095847513
3348062000.0 0.4244488358561645 -0.028706505879861205 0.061975447654402036 0.04393378102226071 0.06230625115840263 0.043842848908248425 0.38075210203297805 -0.07184432112580495
3349125000.0 0.4232500875631546 -0.031590707884497166 0.06321091455137307 0.042456783368734596 0.0635911361740524 0.04217217920079672 0.3788979836254716 -0.07509949256668007
3350188000.0 0.42225971235194165 -0.0345823342832599 0.0644182734126971 0.040858997167887996 0.06493465942372288 0.04063316270206874 0.37752963066008255 -0.07856271427030766
3351250000.0 0.4214341940954404 -0.037543105546308055 0.06567630812951106 0.039226186510123766 0.06602819316288802 0.038988187023352314 0.3766914814985994 -0.08182126548143064
3352312000.0 0.42017462703922637 -0.04022435415098986 0.06691580959292845 0.03761614910802968 0.06739250170726632 0.03725060720543801 0.3762842437133134 -0.0846663389899662
3353375000.0 0.41876971627989584 -0.043336332383066854 0.06801533043065085 0.03585205534911931 0.0684432711047237 0.03547157266189513 0.3761524000417826 -0.08688148546136538
3354438000.0 0.418015024364727 -0.04602845004596892 0.06911071080601168 0.0340721009559444 0.06953234078993778 0.03358950430327784 0.3752997532668835 -0.08880376446254912
3355500000.0 0.4164167908228738 -0.04885672568679596 0.07023519781873462 0.032122954914725284 0.07049307729737099 0.031795214579208225 0.37481141639898125 -0.09052924140718205
3356562000.0 0.415026008788519 -0.0516705425588255 0.07119769584149824 0.03023648636058902 0.07134591551455566 0.02989284957849869 0.37392536655637343 -0.09198104877235457
3357625000.0 0.4137359659313312 -0.05432924846716217 0.07212729934528633 0.028254380948222694 0.0722962182218881 0.027837141719988634 0.371889666743935 -0.09286353803458305
3358688000.0 0.4123592462399025 -0.05709409802824816 0.0729952775980748 0.02629198112939287 0.07295565152520589 0.025944602840286542 0.37025953446580845 -0.09452763963864418
3359750000.0 0.4107862028717368 -0.06017850127339115 0.07375034105749916 0.02424935869499021 0.07376035462284597 0.024003091626305612 0.3684353170669049 -0.09564611326446538
3360812000.0 0.4094890923793324 -0.06290692832206043 0.07441762556984223 0.02231798276782178 0.07445636513141281 0.022041656888356177 0.3664611417080176 -0.09669957019678715
3361875000.0 0.40787077715843073 -0.06555859223487723 0.07499619651907476 0.020275267185087802 0.07509857725957121 0.020060525395323013 0.36379662154539627 -0.09774616314206015
3362938000.0 0.4063009235150171 -0.06814351225892123 0.0755163743978248 0.01822623313224958 0.07565929373527808 0.018145406697798655 0.3610768805821019 -0.09943302686436793
3364000000.0 0.4046835917673166 -0.07076339568701476 0.07602938667868779 0.016177006017465214 0.07621129945852294 0.016128590804913603 0.35820413438350956 -0.10069865749592702
3365062000.0 0.4030383370071616 -0.07355490749898128 0.07638072722594018 0.01420124057309619 0.07663521023131259 0.01407702074465578 0.35549265822321663 -0.10232171686755913
3366125000.0 0.4014865054503412 -0.07636224867464868 0.07684700175111735 0.012169949972879646 0.0771340030015894 0.011879905978611438 0.3523107600216176 -0.10412242371758842
3367188000.0 0.3998056752915554 -0.07909890290183216 0.07713840073624141 0.009952000656604544 0.07753837135957178 0.00985746191310975 0.34942639552037696 -0.106291746201009
3368250000.0 0.39824921184018375 -0.08162432968888317 0.07751696534763716 0.0078452746068139 0.07792670221993821 0.0074979000895459115 0.34655413183274886 -0.10970986064507342
3369312000.0 0.3968293429449885 -0.08439174405741101 0.07782866809468536 0.005646823560562373 0.07823083333230028 0.00517025582173599 0.34395545270658423 -0.11242520054505985
3370375000.0 0.39527392766229313 -0.08698701843198309 0.07810795952975874 0.0033819960968873657 0.07847002755313978 0.0029592414946897905 0.3427047785194449 -0.11553352938503951
3371438000.0 0.3935470976332017 -0.08971993932765467 0.07836858776921696 0.001192443842098397 0.07850294618490926 0.0006359872941602207 0.3413478458261128 -0.11848998522624145
3372500000.0 0.3922547729451241 -0.09230375377157264 0.07856240651291141 -0.0010231268459648874 0.0787451906883397 -0.0015014276900588324 0.3406144093759664 -0.12085534837731805
3373562000.0 0.39043460760496246 -0.09500459224446092 0.07863734504657031 -0.0033141598592390893 0.0787440464647799 -0.003795610659590957 0.33859358061873107 -0.12282650704372372
3374625000.0 0.3891071795984501 -0.09749483345653312 0.0787995701859274 -0.005519122033005325 0.07869809514023614 -0.005978118932961664 0.33791999451630345 -0.12520717865273123
3375688000.0 0.38767768684085496 -0.09997374715147178 0.0787602997350617 -0.007763222364921763 0.0786804811332019 -0.008184753385516228 0.3370961092269019 -0.12621577990532606
3376750000.0 0.3862426704650277 -0.10240470301996155 0.0787312004811637 -0.010059836456757789 0.07859254349585164 -0.010419817858542887 0.3355243907071273 -0.1274947006075317
3377812000.0 0.38486149051502394 -0.10493269590904936 0.07859461271954447 -0.01233293823344298 0.07855736313993553 -0.012517381947844727 0.3335451017459485 -0.12859086409706144
3378875000.0 0.38352909632857085 -0.10727486111329386 0.07843936571925902 -0.014591766560196616 0.07834536898573322 -0.014689599928688025 0.3315974307971441 -0.1290482882844311
3379938000.0 0.3825390157942294 -0.10936276783671768 0.07832037159444147 -0.016771382797197112 0.078203514572508 -0.017098852128084895 0.329583045107302 -0.1304145415832204
3381000000.0 0.3812643268573465 -0.11150545525543772 0.07804079859299816 -0.019025075434326955 0.07809819813555373 -0.019330251806334207 0.32710917564967984 -0.13209124751904683
3382062000.0 0.3800718888249973 -0.11351231302131107 0.0777311443410541 -0.021354321419723314 0.0777807263480956 -0.021651186570468516 0.32575633988951314 -0.13386226072436538
3383125000.0 0.3788284653538708 -0.11560958970520674 0.0773509479163013 -0.02351698830406604 0.07742751505891997 -0.023870366183586504 0.3244061897721587 -0.13456330410077363
3384188000.0 0.37780740154440173 -0.1177168220868797 0.07681569529998589 -0.025833643441560954 0.07683870642722448 -0.026163955792459868 0.3220908468275738 -0.13634692158221964
3385250000.0 0.3765963112243958 -0.11929308635084687 0.07615629139005667 -0.028093375434135627 0.07613821651044558 -0.02839939175056653 0.32044506960904506 -0.1379291714171031
3386312000.0 0.37542722615673235 -0.12081301098703058 0.07553639355809859 -0.030256990922440663 0.07547201752966705 -0.030736524976112466 0.3188569714006545 -0.13884940717622943
3387375000.0 0.3743143823703371 -0.12265972342109602 0.0746928291684355 -0.032507207525719374 0.07471509715900587 -0.032935813566052845 0.3169683395142376 -0.14048590444484566
3388438000.0 0.37306184693627853 -0.12418169406664314 0.0738653562429583 -0.03475087581032401 0.07374922328502083 -0.03508249645189605 0.3166315907011086 -0.14189206820720285
3389500000.0 0.3717104249441204 -0.1257916811499388 0.07288175026972028 -0.036906441580007145 0.07279946996591388 -0.037334122051078396 0.31494782949156697 -0.14319352090920456
3390562000.0 0.3705962850054789 -0.1273395034286332 0.07184524197771779 -0.03907459668575266 0.07174508787021665 -0.03937888723040286 0.3139741563071593 -0.144433179626249
3391625000.0 0.36897955930773607 -0.1287363646828069 0.07074014306129514 -0.04112461684981346 0.07065536438506527 -0.04138070739096918 0.31262619142618914 -0.14593589538775495
3392688000.0 0.36780931545826606 -0.13032082688101704 0.06964239504040044 -0.043272727709785005 0.0694908109778598 -0.043486905825201656 0.3114548116921761 -0.14710284426988698
3393750000.0 0.3663990124271201 -0.13198078871232086 0.06851914508136768 -0.04526127021994756 0.06841422681189521 -0.04556363058441741 0.3107932280287998 -0.1486350252643341
3394812000.0 0.3651381364256766 -0.133270466284872 0.06730183804268049 -0.047225082638730105 0.06720329781783647 -0.04750942538090535 0.30903195726658267 -0.14913904306481746
3395875000.0 0.3639678097232143 -0.13469897539646308 0.06612581199643383 -0.04922338457537356 0.06613859337349154 -0.04951482775740594 0.30819159205689983 -0.14913749209268157
3396938000.0 0.3626095408415484 -0.13622904950581366 0.06483637656731436 -0.051218124957168834 0.06480120043787517 -0.05165390095141652 0.30613459943353194 -0.15005777545550605
3398000000.0 0.3613088525654699 -0.13743049006075575 0.06362394355545313 -0.053139516148672336 0.06346716662662302 -0.053512443211140674 0.30431625842766113 -0.1495748922583974
3399062000.0 0.36008216839246693 -0.1386982046812935 0.06225614600736646 -0.055092818256741595 0.0620329286677251 -0.0555990456756426 0.3020125907937518 -0.1499602051405098
3400125000.0 0.3588774649525928 -0.14006847482971496 0.06081102500059063 -0.057095247176891926 0.06061288205253379 -0.05758419096477779 0.2998450460488999 -0.15018646953269274
3401188000.0 0.3573033027554209 -0.14142797832148676 0.05927831196531855 -0.05898935094379485 0.05898595999195217 -0.059403958007052574 0.2971874497464076 -0.15114797646750944
3402250000.0 0.3560793866864486 -0.14262598153239425 0.05767138698866954 -0.06088066203866118 0.0574060738366678 -0.06127797935521284 0.2946503310827868 -0.15235936674196757
3403312000.0 0.35471585115949017 -0.14382541013605465 0.05591294398518564 -0.06271937446176354 0.05552356410636374 -0.06301892606950064 0.2921937163195944 -0.1537529042267693
3404375000.0 0.3531749663766096 -0.14530869345662054 0.05409232524608548 -0.06454260208653415 0.05362607299947034 -0.06473418895795904 0.29034856982346585 -0.1554163800560115
3405438000.0 0.35204440578226587 -0.1464709528714378 0.052156805066632665 -0.06626198918895834 0.05183873981287869 -0.06650684401608845 0.28878345201161554 -0.15740763688807846
3406500000.0 0.35066752185091543 -0.14791326330254267 0.05012109769876906 -0.06790399817413811 0.04980119908262705 -0.06796803480365814 0.2875147457470105 -0.15894871221488424
3407562000.0 0.34933795233078563 -0.14895067464028539 0.04816532700711397 -0.06942344279719213 0.04790288746840562 -0.06950946375658668 0.2868229593932298 -0.16057500306311412
3408625000.0 0.34833952386953243 -0.15026277693883366 0.04601196665873629 -0.07087736225716865 0.04583533103057151 -0.07092504553171787 0.28625185442602197 -0.16182665771692437
3409688000.0 0.3471303869979256 -0.15144633520861497 0.04388618097283944 -0.07222242901922171 0.04373409183619212 -0.07228178738297515 0.28549488774859033 -0.16299002760761208
3410750000.0 0.3461010198362099 -0.1525284885015758 0.041817533650420964 -0.07347664734115192 0.041730938489614455 -0.07367453602427594 0.2851085310276601 -0.1633019875454712
3411812000.0 0.3453648495984794 -0.15344845712950617 0.039673771703317116 -0.07465991294402395 0.03962520392763209 -0.07493683753007226 0.28430400900073555 -0.16380923430277494
3412875000.0 0.34418343827237297 -0.15447894196855133 0.037576430536589864 -0.0758874737950464 0.037540380638534265 -0.07622783822217186 0.28345963658843887 -0.16414768773324143
3413938000.0 0.342911023101754 -0.15538177385395963 0.03546832430820344 -0.0769884289550253 0.035371164110431064 -0.07737511414245525 0.2821777627419186 -0.1641394961930606
3415000000.0 0.3422699548720214 -0.15645896856172678 0.03332948675853319 -0.07815138249136215 0.03320159690725937 -0.078692071077192 0.2809377209055855 -0.1642112803510205
3416062000.0 0.34133827588274906 -0.15701710228398905 0.031187556980116177 -0.07928544072527063 0.030962321571803224 -0.0798044809978359 0.2796572862906898 -0.16415289204344788
3417125000.0 0.3401523883366565 -0.1577424844395055 0.029020717694539584 -0.08028764239104981 0.028582860798309066 -0.0809309305635497 0.277662792665682 -0.16405484483033822
3418188000.0 0.33878825531837453 -0.15843237843443056 0.026754512202853485 -0.08130018025129158 0.02615727375276746 -0.08181533691141143 0.2756544746474259 -0.16409070366252335
3419250000.0 0.3375944439317948 -0.15935256018596244 0.024465094922316275 -0.08228894738203331 0.023813410131992688 -0.08261002317547318 0.2732536627385012 -0.16460673686716973
3420312000.0 0.3364084560006857 -0.16005778715207955 0.022081089318207257 -0.08308877379410058 0.02140365842671607 -0.08342857986899284 0.27069704168321607 -0.1651643761562318
3421375000.0 0.3352034890673147 -0.16088431923727214 0.01964581424186789 -0.08389035141089445 0.01902321554402747 -0.0838998186375944 0.26839508485481384 -0.1659888187622563
3422438000.0 0.3339125299718615 -0.161917167137427 0.017142100672100806 -0.08457016191307504 0.01654969212240716 -0.08449510411725103 0.26620505154642216 -0.16757158195262836
3423500000.0 0.33279825508184446 -0.16269147412999446 0.014658847991730674 -0.08506139967790763 0.014161098991716622 -0.08506691909040233 0.26426419056112893 -0.1692342151991376
3424562000.0 0.33145219652689356 -0.163659656528193 0.012048118769455588 -0.08558510945661488 0.011814038159635222 -0.08535043051439957 0.2625041295343903 -0.17099728279835236
3425625000.0 0.3302744099031267 -0.1646137107175197 0.009522717414773065 -0.08592827955137346 0.009459301114058178 -0.0856744791618328 0.26131246660224483 -0.1726439924467753
3426688000.0 0.3286641388053571 -0.16573509001895456 0.006946878337544441 -0.08607165309592997 0.006880699912603438 -0.0860566028203032 0.2603157073510867 -0.17458874290683357
3427750000.0 0.32729304020472394 -0.16690682133364548 0.004426058924724728 -0.08619730912331727 0.004501881919855456 -0.08627488726465318 0.25964239774522774 -0.1758989900740955
3428812000.0 0.3259132180647686 -0.16781485689161468 0.0019166650316660636 -0.0861899549102941 0.0019671208767556322 -0.0864877089999904 0.2587919764276665 -0.17716865439246632
3429875000.0 0.3246697639872666 -0.16902664870417652 -0.0005876126596328576 -0.0861742443361437 -0.00065564136442027 -0.08664934232036574 0.25861364688489114 -0.17846551962218746
3430938000.0 0.32340846463531553 -0.1702420532706949 -0.0031307473617576236 -0.08606926575794022 -0.003316652929736961 -0.08665853417315073 0.2583591726458779 -0.17921753332868853
3432000000.0 0.3219410279401975 -0.17174336202112264 -0.005701473601253335 -0.08585172525252692 -0.006123407955862919 -0.08661400621526677 0.2579751124351428 -0.17960627187833403
3433062000.0 0.3205068657281325 -0.17275247700615123 -0.008215631423974398 -0.08574689116071459 -0.008811077492607825 -0.0864197354825948 0.25743374097706223 -0.18024314776493822
3434125000.0 0.3188874913334198 -0.17411846630296876 -0.010801879026370814 -0.08548444886627174 -0.01156748782260349 -0.08602597526735524 0.2568621964003595 -0.18025966638657095
3435188000.0 0.31745096625610575 -0.17577579439088994 -0.013359316566376733 -0.08526234534998228 -0.01421000214367092 -0.0855788765180293 0.2555598838338193 -0.1803396180336096
3436250000.0 0.31598815897107635 -0.17699721327564635 -0.015890892530056943 -0.08498998790793764 -0.016824122587798095 -0.08507835907929232 0.25421627997679835 -0.18024370214369004
3437312000.0 0.31444932255483604 -0.1785329882907959 -0.018508208466713277 -0.08461207691877161 -0.01936206205189209 -0.08442212538084598 0.252420908444624 -0.18020793329399615
3438375000.0 0.3130243708778576 -0.18017307791142487 -0.02102240846751531 -0.08415193469484471 -0.021772301714100696 -0.0839435586127346 0.2502863780838904 -0.18043695697140033
3439438000.0 0.3117452559555524 -0.18166947506281048 -0.023570405939998564 -0.08365315457297182 -0.024262262754374167 -0.08326030412849755 0.24766150277349935 -0.18112134466497823
3440500000.0 0.3102203159743029 -0.1833568400532723 -0.026128846725250714 -0.08305212150791086 -0.026654559161745438 -0.0825733236099946 0.24549588867422314 -0.18228149147335138
3441562000.0 0.3086393079111073 -0.18501950985036358 -0.028667650234587835 -0.08232434248951277 -0.029036735192787558 -0.08186751101186539 0.24277543312595837 -0.18404357241244254
3442625000.0 0.30725267365949804 -0.18652554045255487 -0.03113876074251146 -0.08154060565279804 -0.03129549588719351 -0.0811442363336113 0.2409274060033298 -0.18611097084215908
3443688000.0 0.3059160753468043 -0.18836573116964175 -0.03368300687685106 -0.08056142337316814 -0.03381142264493127 -0.08035631059041193 0.23929159030833821 -0.18873278963366824
3444750000.0 0.304223198129996 -0.19026174114934508 -0.036128037799322464 -0.07956595498472836 -0.03623255945088758 -0.0795891909463527 0.23828159642192287 -0.19131314346188502
3445812000.0 0.30265027176049286 -0.19148737077371616 -0.03855888453069652 -0.07846186657454936 -0.03852005928736115 -0.07856236895105663 0.2377957014076407 -0.19397349009416798
3446875000.0 0.30121775484555524 -0.19323029334744643 -0.04091054426127788 -0.07730982372216026 -0.041001229426183096 -0.07762477048925223 0.23760170427867086 -0.19641676686866477
3447938000.0 0.2995564422536374 -0.1949469397701182 -0.043209581691391254 -0.07608047534698298 -0.04340998405625354 -0.07645019629243878 0.23778517483136236 -0.19870523086080713
3449000000.0 0.297770164012779 -0.19640536632534406 -0.04545654906403031 -0.07469916410546026 -0.0458593507535453 -0.07510854382282955 0.23828939127091206 -0.20057638277468157
3450062000.0 0.29612293348153956 -0.1981910802671998 -0.04758881443714353 -0.07332962095261937 -0.048100706515831086 -0.0735795008413919 0.23869139422050975 -0.20198622569036143
3451125000.0 0.29459665951043984 -0.19977382620974551 -0.04968272238445438 -0.07183910854550929 -0.05041092702026995 -0.07210502443360836 0.23913471097235495 -0.2033778977909549
3452188000.0 0.29287441393721336 -0.2016868062918202 -0.05162886576400522 -0.07034239687938937 -0.05245411872311099 -0.07037354872512391 0.2394563951397298 -0.20406470437612628
3453250000.0 0.29115218885683913 -0.20329235310210497 -0.05363109996975073 -0.06872719500384636 -0.054546806896297796 -0.06854650462170069 0.23956294366830136 -0.2045539184441121
3454312000.0 0.28931900074109995 -0.2049972903443431 -0.05558113977339534 -0.06707113171205474 -0.05649561234153003 -0.06691960859418646 0.23945384453636384 -0.20520244973050536
3455375000.0 0.28770091726345365 -0.20680923921345412 -0.05752656653987157 -0.06544948712309578 -0.05819727426850108 -0.06501300347488127 0.23907612732846334 -0.20518452201980195
3456438000.0 0.2858458434121774 -0.20861935802225373 -0.05940853655033743 -0.06370808379620987 -0.060046966233154246 -0.06323736202805873 0.23790846701768242 -0.20512653190554828
3457500000.0 0.2839133560418446 -0.21048138612361644 -0.0613277239025951 -0.06188727332003977 -0.06183868121236624 -0.061485781357113606 0.23657449288111884 -0.20540418123846196
3458562000.0 0.28212602854517044 -0.2120936692977172 -0.06325372244333471 -0.060145019406057515 -0.06365102877896352 -0.059626998825896255 0.23497134412392154 -0.20543219315133493
3459625000.0 0.28009158272844936 -0.2143364567124585 -0.06510032359630846 -0.05830632212639892 -0.06546725388186696 -0.05788615041118067 0.23297192943180683 -0.20602115836074603
3460688000.0 0.27820757054306927 -0.2159919825166956 -0.06685971140798302 -0.056338928124615016 -0.06709898417296514 -0.05604802369947208 0.2305247639905807 -0.20734029146850244
3461750000.0 0.2764955598508404 -0.21789600542236856 -0.06864840085479602 -0.054418777988108576 -0.06882006958344108 -0.05403444015331141 0.22826657002438616 -0.20859979014798305
3462812000.0 0.2745455535282274 -0.21983104347402044 -0.07031169968913087 -0.05236813439463359 -0.07051767503415661 -0.0519866566814907 0.22624958968892656 -0.21080360713402832
3463875000.0 0.27288969911697886 -0.22142045561830925 -0.07184936349831575 -0.05018876137252312 -0.07206070651154445 -0.04980406874676415 0.22456171754726068 -0.21308471266769305
3464938000.0 0.2711556885932607 -0.22335441508326578 -0.07339415427642627 -0.047947178012250555 -0.07362383303997783 -0.04763892124401443 0.22346516701307478 -0.2157933113406352
3466000000.0 0.2693989042491128 -0.22507638464528984 -0.07488576426049007 -0.045650663414121946 -0.07512810486278217 -0.045506778305117825 0.22270150270393113 -0.2182699913876593
3467062000.0 0.2675066651247886 -0.22676929429297774 -0.07617849631571963 -0.04330594162770889 -0.07643226601071362 -0.04317536795344382 0.22238090687520648 -0.22069584405812787
3468125000.0 0.26578498738073725 -0.22853127574396429 -0.07740946994916809 -0.04097951175058177 -0.07768549279886944 -0.04077568912192458 0.22236522401532485 -0.22285306005199423
3469188000.0 0.2641769192232394 -0.2306523058740151 -0.07848823394376421 -0.03856764814648773 -0.07881057924737918 -0.038657317972891465 0.22233916152985256 -0.22462870798353488
3470250000.0 0.2625402089175583 -0.23236892998686623 -0.07950681308120884 -0.03631752559169966 -0.07976179881998031 -0.03641479497812606 0.2224262658894885 -0.22629920139648416
3471312000.0 0.26049284356988156 -0.23404481220422205 -0.08041959946937051 -0.03402274751124613 -0.08080302886912473 -0.03395897327014055 0.2223969177723118 -0.22738784712312124
3472375000.0 0.25887126647461123 -0.23563921863696385 -0.08114420321671356 -0.03174349547499204 -0.08156069732112572 -0.03170001780024758 0.222234326818719 -0.22788246501980675
3473438000.0 0.2569696526082244 -0.23731326929514934 -0.0818525534493459 -0.02947520286970246 -0.08237248533599971 -0.029292105323925975 0.22218366888185856 -0.2284617103075523
3474500000.0 0.2552220671125588 -0.2388274996173681 -0.08251479762386786 -0.02722845659312331 -0.0830579370259158 -0.027028720372182617 0.22168040065799918 -0.2287093484960105
3475562000.0 0.2534297691884643 -0.2405136677261416 -0.08318255049426677 -0.02497624692142913 -0.08367373583141312 -0.024539462525247795 0.22086760931082863 -0.22845944657904324
3476625000.0 0.25140707544515856 -0.24215109896913511 -0.08375626053406109 -0.022619342401085044 -0.08435046090165312 -0.02213840512475149 0.21941626735146375 -0.22798179729375959
3477688000.0 0.24950018180210437 -0.2435545518950536 -0.08434625881221719 -0.020244697044697602 -0.08487897724174027 -0.01971665479776306 0.21742834708192704 -0.22795844319232494
3478750000.0 0.24770024027456683 -0.24461560995414267 -0.08490296332914034 -0.017896434316574002 -0.08533148767477262 -0.01731763010904401 0.21526839924007146 -0.22804700739074885
3479812000.0 0.24590365788182603 -0.24618004683813852 -0.08527107372232103 -0.015399793971134045 -0.08576820393461239 -0.01479342520335788 0.21234789197081108 -0.2278801636427011
3480875000.0 0.24406377857603878 -0.24764289747963533 -0.08573252309084535 -0.012913276383126292 -0.08601641821593022 -0.01228552435673789 0.2097851456200756 -0.22871405566888695
3481938000.0 0.24217665835174104 -0.2487741668111031 -0.08608465969758508 -0.010394680031845788 -0.08623573108273161 -0.009714364586049412 0.20665040365120851 -0.23082954428986582
3483000000.0 0.24030988641068818 -0.24998080495664263 -0.08636571266166333 -0.007824532057030516 -0.08639331811474373 -0.007311613886332455 0.20426112105175023 -0.2331441323533199
3484062000.0 0.23828743446447032 -0.2514340968890289 -0.0864513002402552 -0.005212462756400841 -0.08636729922313265 -0.004779286735450382 0.20157134144678762 -0.23491154676376996
3485125000.0 0.23630565066734566 -0.25248580465850506 -0.08654330617646921 -0.0026585513869749697 -0.08639589827273424 -0.002293928571426231 0.2002100776518778 -0.2372821213318411
3486188000.0 0.2344988657882201 -0.2535648951788429 -0.08650366245936936 -0.0001143044680168199 -0.08628998489832769 0.000259390169959737 0.1987009518541696 -0.2389892683257587
3487250000.0 0.23239265885971486 -0.25448421838512775 -0.08633067853107552 0.0024460437178099627 -0.08634456063652884 0.002632109369407057 0.19789760557664698 -0.24068592415821435
3488312000.0 0.23026754853389408 -0.25582802061758153 -0.0861562778569976 0.00499432859550699 -0.08622971227405138 0.005144712359548488 0.19673201195077789 -0.2425373542772542
3489375000.0 0.22820296018433522 -0.2564813060626381 -0.08591598131409253 0.00741231494232664 -0.08594221628841806 0.007531412854100566 0.19594118514645062 -0.2437895128340805
3490438000.0 0.22650730418373016 -0.2575942188565187 -0.08559425001575371 0.009797585367299418 -0.0856991269548909 0.009807498243489428 0.19530130531878176 -0.2446805807617644
3491500000.0 0.22479358324034024 -0.2584182397398312 -0.08526027279570352 0.012130187544846854 -0.0856207685511686 0.012267633011453139 0.19446504398319564 -0.24565952187294715
3492562000.0 0.22245028576779147 -0.2590260671001138 -0.08478090937989419 0.014571641827366392 -0.0851200781891312 0.01477673718580776 0.193448637827696 -0.2461193364995315
3493625000.0 0.22077876094123708 -0.2597986293709195 -0.0844331219189579 0.01683101232026908 -0.08484496959153652 0.017254190118985803 0.1919833043730714 -0.2475100034600365
3494688000.0 0.21872088811249954 -0.2603615442366635 -0.08391965706309283 0.01921232855674463 -0.08411777464535979 0.019537149257887618 0.19095543862300632 -0.2477984299559874
3495750000.0 0.21679920294458654 -0.2608271789179229 -0.08339876120133215 0.02142218584520643 -0.08363957752305565 0.02193444342833014 0.190516561230908 -0.24761396415681136
3496812000.0 0.21472617940824537 -0.2614613248361607 -0.08279547249028549 0.023689063913226626 -0.08300762899360402 0.024250575140793148 0.18842130920005926 -0.2478723839946034
3497875000.0 0.21285763000025512 -0.26175230352251033 -0.0819957348065022 0.025900701632236213 -0.0822100405604426 0.026570512589294257 0.1871553419287654 -0.24737887163096078
3498938000.0 0.21085390775263477 -0.26197442173061336 -0.08132190837843915 0.028194709640370685 -0.08131936889408396 0.028727597605903103 0.1846218426914636 -0.24739118314440678
3500000000.0 0.2090176661617584 -0.2621412205753586 -0.08051667963585918 0.03035541631737369 -0.08036104368632001 0.03085785265943337 0.1820546229948421 -0.24754912710522275
