! Created with skrf 1.9.0 (http://scikit-rf.org).
# Hz S RI R 50.0 
!freq ReS11 ImS11 ReS21 ImS21 ReS12 ImS12 ReS22 ImS22
3500000000.0 0.19284935846999332 -0.25934230137979714 0.07500313981083531 -0.03379303158876031 0.07482734514138972 -0.03440378759544113 0.17497396535332002 -0.29682534732571403
3501562000.0 0.19004189354886467 -0.2593166971469314 0.07370058148821895 -0.03672648297033956 0.07357891912363582 -0.037114524709847614 0.1773812501256649 -0.30202779716905276
3503125000.0 0.18769413458956377 -0.2594170989573591 0.07205572439298263 -0.03997369781834586 0.0720130513146899 -0.04017483786378678 0.1821335632186219 -0.30720964590621513
3504688000.0 0.18492474157261082 -0.2589460831068023 0.07073649612455146 -0.043235426316635156 0.07053477739982393 -0.04326458437717811 0.18889256148005593 -0.31132775888231057
3506250000.0 0.18191253831856316 -0.25887680246594247 0.06907227201843077 -0.04641943888723357 0.0689178208626859 -0.046490997443530566 0.1948546205986025 -0.3097089825685789
3507812000.0 0.17902839414457303 -0.25844413919929554 0.06780436738090456 -0.04935496238445546 0.06753082481988858 -0.049336351423523425 0.20288465360991467 -0.3080296021703436
3509375000.0 0.17579416703726186 -0.2576520054353451 0.06587765157987223 -0.0520493824121169 0.06563962683736664 -0.052092734547731535 0.20557089887754013 -0.30287810523228104
3510938000.0 0.17297304684502673 -0.25733574763660855 0.0639124622437223 -0.054376217659908604 0.06365020741164723 -0.05463670754438609 0.20739328116023903 -0.2926531115146909
3512500000.0 0.16983536650465167 -0.25644614916025266 0.06151838353909923 -0.056422129485730846 0.06140633699313486 -0.05660641141852082 0.20467347310205594 -0.2812985337072578
3514062000.0 0.16673050032149725 -0.2559351349589166 0.058903027575714896 -0.05869780358722735 0.05890148834161137 -0.05886378937870091 0.1986702292998472 -0.2709500280242057
3515625000.0 0.16365485765281002 -0.25518613792110406 0.056255263566236495 -0.06073793486503684 0.0560391348582644 -0.060927283096352196 0.18925352162393116 -0.2628603345294758
3517188000.0 0.16076179626409318 -0.2544940496342987 0.0535356502579388 -0.06269879255997382 0.053577911263748834 -0.0627942320072588 0.17861176201613524 -0.255145730611428
3518750000.0 0.15796787971801118 -0.25378664620235364 0.05073859307373657 -0.06484638822729007 0.05051797678874007 -0.06492006428178745 0.16822840365331804 -0.25098093172300867
3520312000.0 0.15483648553085902 -0.25292371121990304 0.04781737881639627 -0.06662581856681496 0.04770334743594396 -0.06664571920470626 0.15574310159568955 -0.25097864649199547
3521875000.0 0.15222868521227323 -0.25232655887154953 0.04503426852538369 -0.06847532846946389 0.044681069590648444 -0.06851798088175293 0.1458291640309708 -0.25230106373719197
3523438000.0 0.14967507537006106 -0.2514385991579082 0.04206010615571487 -0.07021567916924315 0.04168035579937435 -0.07021250939643962 0.1386040297374851 -0.25492015190687173
3525000000.0 0.14730869141112427 -0.2504786492164441 0.03900079152582428 -0.0717808467848555 0.03868244759483883 -0.07205523086937131 0.1325414473345935 -0.25980192886561493
3526562000.0 0.14490143966672148 -0.24954785154184767 0.03571199301064147 -0.07337025509031905 0.035507935539843376 -0.07368409004391918 0.1302020741389249 -0.2639411984337987
3528125000.0 0.14302493401107289 -0.24839414994390116 0.032546809899304766 -0.0750922468023967 0.03233466020902986 -0.07535501678186436 0.12901821301878863 -0.2671063544760765
3529688000.0 0.14086396735782503 -0.24701339683158263 0.029263209722316094 -0.07674549004809968 0.029233118754495375 -0.07689467375901536 0.12970698305064157 -0.2673002411061762
3531250000.0 0.13876978763543144 -0.24566760037638924 0.026221583717119794 -0.07819396067713795 0.026231622236181473 -0.07816313185394627 0.1290273788130671 -0.2665687036990994
3532812000.0 0.13685970967954272 -0.2437592603926769 0.02305278474946934 -0.07928006918452192 0.022986631068014535 -0.07921808022127962 0.12681027442703768 -0.2641331271607446
3534375000.0 0.1347259111521506 -0.24204967746723952 0.019971342811808526 -0.08017207725888154 0.019887106363482565 -0.08006179085916454 0.12464334364367137 -0.26130053262873704
3535938000.0 0.13243689842498765 -0.24049176217345716 0.016705969197448923 -0.08084018798426983 0.01651315929147648 -0.08087336929599287 0.12090042548353581 -0.25757602168161703
3537500000.0 0.13019189138482237 -0.2390837700475915 0.013401037162257677 -0.08142333232467545 0.013299075192804584 -0.08162467054071774 0.11601260258129537 -0.25459415749806996
3539062000.0 0.12778583893142467 -0.23742580112818026 0.01004024577856897 -0.08182849335333582 0.009871262129206847 -0.08210556778382391 0.10960484443925113 -0.25264590112749796
3540625000.0 0.12559682519296317 -0.23649908307075918 0.006588710685884508 -0.08224661008591279 0.006370670439160469 -0.08259200718072239 0.10219015295994494 -0.25085391522658784
3542188000.0 0.12347632874019081 -0.23492276853522903 0.003227462795693638 -0.08256624220684917 0.0030682168470815394 -0.08274221545991414 0.09561707502941366 -0.25205550338309524
3543750000.0 0.12160280439050118 -0.23406458868900548 -0.00017653109752231787 -0.08259140499494855 -0.0004664707680914722 -0.0827236130329732 0.08906433000803073 -0.253819898496295
3545312000.0 0.1198807084519071 -0.23317070405902202 -0.0036931427077486847 -0.0824845442410892 -0.003819493176360752 -0.08235190663988824 0.0837963074740216 -0.2578254777923436
3546875000.0 0.11801203293430931 -0.2322842866513015 -0.007272658420390343 -0.08224190013145613 -0.0075650647634637625 -0.08205120928829433 0.08057364090361324 -0.26238145741097113
3548438000.0 0.11630288660034396 -0.2315089908531104 -0.010796588581398082 -0.08189987119937046 -0.011134523740113022 -0.08190865743505304 0.08017679342039395 -0.2668124324999597
3550000000.0 0.11479084610683774 -0.23102130668621004 -0.014335583230285717 -0.08147723627304333 -0.014577997036842462 -0.08167974928733063 0.08158778687216049 -0.2706857034329801
3551562000.0 0.1135604985374561 -0.23053791357949244 -0.01774769453209168 -0.08102826196686702 -0.017967811523532138 -0.08122969025304261 0.08425374472180697 -0.27249406668877296
3553125000.0 0.11239520325820743 -0.23000741515410847 -0.021145334227849876 -0.0803914583551542 -0.021241449485376252 -0.08066831941409297 0.0873306662591257 -0.27228061261430725
3554688000.0 0.11145414188119512 -0.22981243123935924 -0.024487892281576447 -0.07966436112987808 -0.024631630757507652 -0.079972403409304 0.09009979256010535 -0.27092823879478034
3556250000.0 0.11096662255695162 -0.22953249490442063 -0.02784885219969594 -0.07893557228211796 -0.028203287670462884 -0.07911056373984147 0.09239235624766695 -0.2683205902457727
3557812000.0 0.11011745971004494 -0.2290183549328827 -0.031202788657856164 -0.07804928838557032 -0.0316477571214812 -0.07805905755570686 0.09367957449309403 -0.26466160499542535
3559375000.0 0.1092945646269668 -0.22872500924734393 -0.03463563109304806 -0.07692010018216087 -0.035050940493218406 -0.07696316499422326 0.09400039739343814 -0.2610565353034628
3560938000.0 0.10903754114927561 -0.22830008130685867 -0.037805828336942834 -0.07573272182900795 -0.03825623480276351 -0.07559758238572369 0.09303814114504282 -0.25638792198919635
3562500000.0 0.10847137549065718 -0.22786840891085636 -0.040940941937098255 -0.07439392311093324 -0.041277299344904005 -0.07419749558987516 0.09109987274607692 -0.25153760161217636
3564062000.0 0.10739911056767197 -0.22786066927326584 -0.0440780181942398 -0.07254977675568039 -0.04439095833846222 -0.0724367741990022 0.08741984823972973 -0.24774035736199526
3565625000.0 0.1068896809366221 -0.2273961144374355 -0.047160235208592104 -0.0707591482290019 -0.047429004309092276 -0.07075471435442003 0.08326607352350525 -0.24612789438738297
3567188000.0 0.10586195233599754 -0.22719056212410788 -0.050269447400940456 -0.06859710869568866 -0.05042439292471152 -0.06868605453769831 0.07964687545355568 -0.2455306492729203
3568750000.0 0.10480815760619912 -0.22743921884615978 -0.05337632839624209 -0.0666867370538109 -0.053660756452309 -0.06662828976881517 0.07737560517421961 -0.24508661428353684
3570312000.0 0.10428673937043287 -0.22770095094879633 -0.05624331119734476 -0.06447166934310151 -0.05659063782990565 -0.06448589959459655 0.07493059949226769 -0.24603235223084094
3571875000.0 0.10317895018955964 -0.2283641739843634 -0.05917296071115628 -0.06220415570129977 -0.05947591375113152 -0.06207374565270323 0.0738514772369864 -0.24575025045874335
3573438000.0 0.10230214007900296 -0.22879368437246386 -0.06201693808042797 -0.05976144482683102 -0.06230564237431209 -0.05952282043576654 0.07355212848439116 -0.2461107233914021
3575000000.0 0.10178261774451436 -0.22990023223003206 -0.064751918470151 -0.05719045999215419 -0.06508802293756662 -0.0569410295913958 0.07325316416861372 -0.24603699719055308
3576562000.0 0.10108210282206105 -0.23090264424124865 -0.06739658955403724 -0.054362760650903355 -0.06754928686644164 -0.054283251291215556 0.07327010933717241 -0.24516782473520607
3578125000.0 0.10074876379050807 -0.23194329895154348 -0.06998160506755845 -0.05140995372704176 -0.07015141142088657 -0.0514935362446047 0.07372883466157919 -0.24385238687751182
3579688000.0 0.10029882806909464 -0.2332022082950189 -0.07234979780790354 -0.04834643658286553 -0.07244595204038229 -0.048438664509764924 0.0735012211492087 -0.24100056694787514
3581250000.0 0.09992648148233473 -0.23423525179659666 -0.07454915354536402 -0.045446877756977665 -0.07477032070100448 -0.04533984938209848 0.07190205083650204 -0.2372203728005593
3582812000.0 0.099538485089929 -0.23542776090469833 -0.07664739706852457 -0.04226254343425885 -0.0769030911618652 -0.04220803527319562 0.06860775456565431 -0.23350855761865583
3584375000.0 0.09944575713289616 -0.23689737967853375 -0.07849649941912884 -0.03912223524025543 -0.07871924701059861 -0.038904081717474566 0.06447669578258647 -0.22939742071413885
3585938000.0 0.09906486246835818 -0.23806976694936652 -0.080191733165446 -0.03567816717670546 -0.08054724563355845 -0.035494270571855585 0.058655892559070166 -0.22786324240315126
3587500000.0 0.09886843996593153 -0.2393501865584337 -0.08175072302278216 -0.03217203187604728 -0.08213575208813258 -0.03194478109063428 0.051050084143380685 -0.2273268443400564
3589062000.0 0.09859935771665738 -0.24038311684115451 -0.08313094215619851 -0.028510306104810035 -0.08353221544739928 -0.028059519410688155 0.04473019088669632 -0.2286977072258174
3590625000.0 0.09826078085351646 -0.24153189852224893 -0.084412735571259 -0.024775416852407074 -0.08461406116254801 -0.024467579648082997 0.03888824661239093 -0.23076824321246864
3592188000.0 0.09767527408083439 -0.24237688698621881 -0.08548787930665075 -0.02088366987991831 -0.08548781175917389 -0.020601106794664207 0.03393058501029258 -0.23448272790403288
3593750000.0 0.09686152345909771 -0.24341194620912687 -0.08624713009404868 -0.016880805179005233 -0.08620324750271645 -0.016801180790287806 0.028866234543100822 -0.23868661510773057
3595312000.0 0.09608746893583192 -0.244164988160584 -0.0868007667482342 -0.012968615820690211 -0.0867092164613034 -0.012850208262288389 0.026262632912576828 -0.2439403303895832
3596875000.0 0.09512329653886852 -0.24484031939713072 -0.08720210724941402 -0.008942558157341464 -0.08708498050647061 -0.008905122564899833 0.024350548950870736 -0.24892826625874218
3598438000.0 0.09402472827307022 -0.24586642461305735 -0.08732186965300838 -0.004909497644209744 -0.08753265213468618 -0.004758586900829888 0.023892052094470786 -0.2540526230907984
3600000000.0 0.09264240239630271 -0.2469107118643835 -0.08739531946569744 -0.0009894042816815352 -0.0877936531791313 -0.0008001924659198752 0.024571291983810573 -0.2582027143822018
3601562000.0 0.09087551893126204 -0.24810478150121024 -0.08742322690576773 0.0029619608404665727 -0.08786908275677724 0.003276347308841046 0.027613385041627855 -0.2603089236385591
3603125000.0 0.08944065655785775 -0.24924319326686212 -0.08723670496977018 0.006923759064351578 -0.08769183680861832 0.007331740389532389 0.029737730461508145 -0.26119600852569747
3604688000.0 0.08782869644649169 -0.2504803952114229 -0.08693522637483976 0.010882842959774985 -0.08720645838836955 0.011263333249253502 0.03081023619800362 -0.2599446436980117
3606250000.0 0.0862456948934739 -0.25198843424989104 -0.08658755515191902 0.014903237413533268 -0.08659124619032824 0.015312108679819997 0.0302659309672554 -0.25857219049763336
3607812000.0 0.08482934149052435 -0.25324699019848407 -0.0860735839387569 0.01885311678139572 -0.08594918005932518 0.01916850671095195 0.0280757200198427 -0.25791663994782976
3609375000.0 0.08323182693498948 -0.25428385400697384 -0.08526940014955899 0.022727981086099386 -0.08497595335336798 0.0230755310110503 0.02526651410706126 -0.2574300505771533
3610938000.0 0.08162107530456908 -0.2553372373212367 -0.08416623466544526 0.02653681778522654 -0.083899421704674 0.02670519123727137 0.021903588130928384 -0.2577224673429034
3612500000.0 0.08016602409890262 -0.25605831110169774 -0.08279630468008067 0.030349367761551335 -0.0828341630039066 0.030464655915834978 0.018739984599456687 -0.25902932673944423
3614062000.0 0.07849193538477361 -0.2569956642704258 -0.0811073673959466 0.034050360968529335 -0.08145107189576427 0.0342334868268461 0.01587026839170538 -0.26163872440694375
3615625000.0 0.07702584749596852 -0.25769116687311694 -0.07934973297956179 0.03770737777156944 -0.07988810738346366 0.03801870600836483 0.012937256056866742 -0.26489464418960806
3617188000.0 0.0754027201563225 -0.25790971526529366 -0.07754601868426979 0.041275479280642756 -0.07807132246214228 0.04157758250783006 0.011744969384571953 -0.2686767653239109
3618750000.0 0.07339142150755201 -0.2583073500724133 -0.07574952434966042 0.0446555062698324 -0.07576856950077306 0.04521693574494303 0.011712466083948412 -0.2731188254016541
3620312000.0 0.07134524831114834 -0.25870482954554147 -0.07375213717189812 0.04803129900044368 -0.07362875412853838 0.048704182617200636 0.013423075345064652 -0.2764538442209908
3621875000.0 0.06933437850437368 -0.25884725007669923 -0.07162680143884446 0.051152570249191655 -0.07126611148011977 0.05190025449344938 0.01669664410742333 -0.27804396734270703
3623438000.0 0.06712056306880422 -0.25847550112910167 -0.0692611615151246 0.05413337288028723 -0.0687595375843904 0.05478803300036091 0.019978783779361565 -0.27747185605778385
3625000000.0 0.06488552044604508 -0.2585469081784878 -0.06664308735021884 0.057035760123075686 -0.0662783748122984 0.05742694400282944 0.02223001960860207 -0.27526400393411554
3626562000.0 0.06214021292943069 -0.2582163455411133 -0.06370338697473485 0.05998301012950898 -0.0636275620570163 0.06004788938877721 0.023988085180709006 -0.27049828872085685
3628125000.0 0.05933704835978257 -0.2576890720786575 -0.060852594133724056 0.06266079455884292 -0.060975430596793896 0.0627774566912328 0.022967754485633932 -0.26565720102356494
3629688000.0 0.05628543605440646 -0.2575830755222516 -0.05788197851518257 0.06538813323244201 -0.05801183733072558 0.06522230660375158 0.019910802602738923 -0.2597564186434357
3631250000.0 0.053497443510780784 -0.2573865098337588 -0.05466002719649795 0.06791382866404752 -0.05483994290026854 0.06780355380907885 0.015221186340881224 -0.2554297642468819
3632812000.0 0.0505081829655375 -0.2571101910901593 -0.05165355792843633 0.07005912111124557 -0.051800134596804305 0.07035571329527471 0.009429263863839344 -0.2522749250044859
3634375000.0 0.047546369836476594 -0.25728122147427307 -0.048382041472013214 0.07198553912617352 -0.048263161219936596 0.07243335185802949 0.0017223059297864606 -0.25039767193295975
3635938000.0 0.04479170300877984 -0.25698702120806854 -0.04483458640847861 0.0737666010162246 -0.044608558605990924 0.07442835793613181 -0.005660111315279696 -0.2503500890867037
3637500000.0 0.04204237312277853 -0.2570176965457821 -0.041128105593446915 0.07540968427121983 -0.040827912111655366 0.07608294668638867 -0.011912856459349154 -0.2527403763216775
3639062000.0 0.03932794634368192 -0.25676878127172115 -0.037391138691846064 0.07707127879008231 -0.0369671840326676 0.07743400961259782 -0.01714549128181825 -0.2558292241486388
3640625000.0 0.03677707586619968 -0.256589407368067 -0.033451168231409575 0.07849394803384853 -0.03329112442525591 0.0786417248440448 -0.019721712541708715 -0.26041251555184053
3642188000.0 0.03455093366657733 -0.2562191234651943 -0.02985488644504907 0.07999134564310781 -0.029656857403647336 0.07960126453836436 -0.021502862371643037 -0.2633418267860757
3643750000.0 0.03190189808862109 -0.25563794871955847 -0.02620466775633232 0.08096438077016667 -0.026117860960719216 0.08071567815710784 -0.022151280715871115 -0.26604172354571404
3645312000.0 0.029939938404564364 -0.25498773026673266 -0.022563404918894362 0.0817974904219255 -0.022580047817366198 0.08153237948942307 -0.018859425520358873 -0.2670538130868072
3646875000.0 0.027553890245375627 -0.25437441556648965 -0.01902047333113438 0.08233562523989692 -0.018973031184391056 0.08261146232253852 -0.017487538877866193 -0.26564196745839086
3648438000.0 0.025195014240595053 -0.2534862875917275 -0.015475515627305756 0.08285155415231212 -0.015491698924658279 0.0832633479933043 -0.01718964032300638 -0.26241992364533406
3650000000.0 0.023047468304448003 -0.252718305407098 -0.011913202606115194 0.08324343086796177 -0.011774700760027861 0.08389989699236246 -0.019350068275564226 -0.2579387267229774
3651562000.0 0.020857271068041406 -0.25190736703397937 -0.00829782528457528 0.0834987938770591 -0.00800133006040406 0.08418962571477408 -0.02176404643069974 -0.2539848618811229
3653125000.0 0.018411411803825262 -0.25071660801263296 -0.004667483318652085 0.08362979111832121 -0.004352217553660181 0.08398699993756464 -0.02512948145449615 -0.24987238098844797
3654688000.0 0.016033174956600275 -0.24956610842820706 -0.0011455338218682195 0.08350292606606913 -0.0005439810134846443 0.08355916340373656 -0.0300984544183316 -0.24770745932936272
3656250000.0 0.013835769738743904 -0.24830500100653805 0.002454624913776969 0.08306405205342984 0.0028763266901049972 0.08282524406469252 -0.03531915744555532 -0.24551330642100352
3657812000.0 0.011664048306760643 -0.24753160233869242 0.006032496347966179 0.0823995331303035 0.0063980827262118045 0.08205153413096292 -0.04189193279970212 -0.24344502361168288
3659375000.0 0.00930551378825116 -0.24641506392990484 0.009663493596927265 0.08143046197855393 0.00962710480559437 0.08115137860492981 -0.04730496659255432 -0.2446141250628889
3660938000.0 0.007071617871835726 -0.2458440226413095 0.012995527438734365 0.08023621083514043 0.012974408513653968 0.08031718432965664 -0.051798150604601065 -0.24671443785865546
3662500000.0 0.005253678771418773 -0.24543430120139273 0.01639497014632181 0.07912368427071799 0.016233400158439944 0.07945771784033008 -0.05406608955321158 -0.24976747237702226
3664062000.0 0.0032515491131259173 -0.2448483768900988 0.019526461510817734 0.07784343765147447 0.019353760767040016 0.07837160417978283 -0.054555023695330385 -0.25273990653536194
3665625000.0 0.0014606074555891582 -0.24461315873005332 0.022608493276361434 0.0767260588758879 0.022746271091722097 0.07731070986306457 -0.05326985598287248 -0.2539825277433939
3667188000.0 -0.0005368886766994307 -0.2441527817100333 0.02566769040570603 0.07561946638849942 0.026017484088472365 0.07606130720936097 -0.051466120134952595 -0.2533817087172221
3668750000.0 -0.0018145780932199952 -0.2439904722451811 0.028613192365221193 0.07450055153289084 0.029197942469355687 0.07468974639949903 -0.049722317104117064 -0.2514851402082082
3670312000.0 -0.002926610702043801 -0.24354552501527024 0.03168536218015945 0.0731639858614144 0.03235156071968915 0.07312696342359541 -0.048195833020147426 -0.24807532296887944
3671875000.0 -0.004077728044952 -0.24319390850497646 0.03468472166300456 0.07186302930753359 0.03538495698309919 0.07154817541455519 -0.047932798736394125 -0.2438444401936671
3673438000.0 -0.004838986010717966 -0.2427650287935 0.03762088468125277 0.07025502137265734 0.03804710003110792 0.06986570442608182 -0.04893893522278727 -0.23974775247061156
3675000000.0 -0.005436377770697832 -0.2420607321777899 0.04041593759962759 0.06842905933974332 0.04063884835806996 0.06813865022797355 -0.050454132335624076 -0.23498910112623636
3676562000.0 -0.006335007257556205 -0.24163102622337265 0.04313210291736419 0.06640895336672219 0.04312988743044747 0.06630605251806014 -0.0527726064839324 -0.23012194727665083
3678125000.0 -0.007073323646293542 -0.24135668437404328 0.04563574426941701 0.06428523073380567 0.045503711927301065 0.06447362949647055 -0.05654215660928228 -0.22641779656772615
3679688000.0 -0.0076823435855185845 -0.240490345805308 0.04799584474801521 0.06212203107557425 0.047880242264375796 0.06240173333529479 -0.060516607773529824 -0.2236304847783607
3681250000.0 -0.008582670356650201 -0.24006834756958667 0.05024821355026292 0.059892335792902984 0.050403811091478234 0.060378837124163885 -0.06499888337016088 -0.22278505895493023
3682812000.0 -0.009539986336079644 -0.23950035111028864 0.05238318432577494 0.0577983151526396 0.05282938255168453 0.05813007420266669 -0.06863409592227841 -0.22276929342606774
3684375000.0 -0.010256585046631815 -0.2388132812127929 0.0543691535256973 0.055683811613373116 0.05503932033624394 0.05567788232422608 -0.07056379624839401 -0.223278363755481
3685938000.0 -0.010954690611824143 -0.2381360598865864 0.05637472789581669 0.05343063091694824 0.05704165573656411 0.05325016442452602 -0.07141951446944333 -0.22333727863447714
3687500000.0 -0.011626748357515097 -0.23772605825390172 0.058385963395510235 0.05101594023872148 0.05889627798276837 0.05086958301214994 -0.07194512850849713 -0.22304778181541116
3689062000.0 -0.012417241668421652 -0.23724892528762004 0.060318300855355826 0.048531947851414674 0.06077157590086086 0.048355919647610025 -0.07211743124801681 -0.2216669924701244
3690625000.0 -0.013231896171832848 -0.23718326553781854 0.06229863366637724 0.045960942101079386 0.06253438083410731 0.04579469681393521 -0.07253859074222466 -0.22025961736865543
3692188000.0 -0.014030864613428213 -0.23705389943354604 0.06418583298575371 0.043377584587504577 0.06421431275715654 0.04325708652328452 -0.07272559575736266 -0.21877752347623264
3693750000.0 -0.014808466906485013 -0.23696349702604796 0.06589378574772303 0.040701839078799096 0.065889272002449 0.040563261153134536 -0.07291305588276073 -0.21644259597364196
3695312000.0 -0.015517393560814618 -0.23679854290776295 0.06743255000619933 0.0379513064661377 0.06765547786280562 0.03789962978319592 -0.07289117233372676 -0.21389373357557298
3696875000.0 -0.01582396632583732 -0.23698923651004586 0.06881198568213952 0.035241312495929315 0.0691726869007929 0.035032498860289515 -0.07401097075195313 -0.21027233346756974
3698438000.0 -0.01632561781779846 -0.2372274872585532 0.07011045008414782 0.032369031075543155 0.0704871508528334 0.032181023288907686 -0.07598447850751137 -0.2073145938524588
3700000000.0 -0.01639316691379872 -0.2371338968203485 0.07125286793634854 0.0295278526840504 0.07174585460033697 0.029310578147167796 -0.07874961241613126 -0.20502356736505278
3701562000.0 -0.01650832132718117 -0.23722907622866124 0.07237663355361867 0.026517874746129058 0.07267621101504758 0.02634457497268282 -0.08194115636725889 -0.20421918923463697
3703125000.0 -0.016787182042057345 -0.2372786419160887 0.07329246595439462 0.023467574184357885 0.07346348038735225 0.02316820080405893 -0.08469600013564849 -0.2036311357909058
3704688000.0 -0.017028570883486034 -0.23703764213917525 0.07404896398106957 0.020411132554192305 0.07419225553895498 0.020158942022707887 -0.08602864027828319 -0.20454662651000113
3706250000.0 -0.01742331473135555 -0.23676192327969164 0.07476883623958913 0.01723241182695261 0.07471994964580532 0.017027386830144632 -0.0871428384911611 -0.2046906430991358
3707812000.0 -0.01777830422757755 -0.2364173404195967 0.07539070409381715 0.014112517584033585 0.07530135038418674 0.014021911505361709 -0.08795818917660696 -0.20550894759981417
3709375000.0 -0.01836022217476275 -0.23590735956946018 0.0757893221993214 0.011014943428971365 0.07584082054231688 0.010934180055700876 -0.08824278650980248 -0.20602353986092078
3710938000.0 -0.019120580329653795 -0.23557519321255008 0.07608073803531441 0.007866144961583346 0.07631356952924237 0.007836002159498893 -0.08816670744250363 -0.20665543838727563
3712500000.0 -0.02012294444022527 -0.23530308176304102 0.07628424843639811 0.004710418139280395 0.07666278997058941 0.004565316485804202 -0.08737613289329536 -0.20681088427835945
3714062000.0 -0.021089519212296494 -0.23503960745257588 0.07638681523810822 0.0015652552307014655 0.0769345259810148 0.0012656636405711207 -0.08612521562744066 -0.20625387271387963
3715625000.0 -0.022034999737277412 -0.23489490156125023 0.07655439523371879 -0.0016146873315111597 0.07701994873405303 -0.001983538100304166 -0.08430129632076207 -0.20676608427879906
3717188000.0 -0.023265314542102962 -0.23471958531281134 0.07665935734721857 -0.004923900459993714 0.07685168817041886 -0.005246216380517022 -0.08312113851373527 -0.20452228583918208
3718750000.0 -0.02440745883616167 -0.2350227384578534 0.07651788426858956 -0.008126516517890908 0.07667185431303614 -0.00870681625416589 -0.08196466199897544 -0.20202103874243432
3720312000.0 -0.025829394903472067 -0.23506776024575038 0.07639949793367432 -0.011402824213968333 0.07614737474492528 -0.011857135962389397 -0.08162630385984043 -0.1989987655459768
3721875000.0 -0.027554240246119868 -0.2351990275156141 0.075824612407087 -0.014760767228103587 0.07557663671643684 -0.01503159080566548 -0.08225940957020914 -0.19601627767490784
3723438000.0 -0.02902452198920051 -0.23567282731461875 0.07506798845889955 -0.017974311105415613 0.07488620911267015 -0.018192165304645624 -0.08354452767318704 -0.19369428938865652
3725000000.0 -0.03009819015711917 -0.23610800440539087 0.07415512581084155 -0.021175808646604982 0.07421703233761563 -0.021267149647148244 -0.0859643711473115 -0.19152990112000004
3726562000.0 -0.031615269913190074 -0.2364467407497503 0.0729478555867877 -0.02432165893157531 0.07323413154987114 -0.024260365759056282 -0.08903379531305859 -0.19076461386872176
3728125000.0 -0.032900402930916124 -0.2366331987846494 0.0716533724502649 -0.027341132280380643 0.0720240976140086 -0.02731729091538595 -0.09060829237617773 -0.18953226771710124
3729688000.0 -0.03428958344194558 -0.2372962236908674 0.07033400802418786 -0.030290020963774013 0.07075686075024194 -0.03029196019314263 -0.09439206143864859 -0.19004626618661669
3731250000.0 -0.03558344469968111 -0.23742604039645065 0.06900946174092064 -0.03308086155505945 0.06928164447094091 -0.033394407233276274 -0.09653558127068748 -0.1902910580531417
3732812000.0 -0.03706845297586286 -0.23773266135898885 0.06757206473023443 -0.03587131096598671 0.0677220244664575 -0.03635135702453815 -0.0992487728383379 -0.19159402540090184
3734375000.0 -0.038597728422843584 -0.23790278766796 0.0660682568446799 -0.03857523406537863 0.0659080288484988 -0.03928655045777112 -0.10104894163231189 -0.1938893836958109
3735938000.0 -0.0403928195327675 -0.23778930266101503 0.06433782712126511 -0.041361361769307194 0.06414987444245557 -0.041937028505922944 -0.10189496136275182 -0.19692364396294657
3737500000.0 -0.04212281316839372 -0.23768218538226996 0.062350647269527944 -0.04408161505357571 0.062148140200999485 -0.044592296032118534 -0.10117360929769031 -0.19801014146107823
3739062000.0 -0.044172815459741444 -0.2374687629876611 0.06018694056962899 -0.04685674515426837 0.06010608063882419 -0.04703613621666855 -0.1001154831858518 -0.19872509179240377
3740625000.0 -0.04629997900406322 -0.23715362289317662 0.057935305887898816 -0.04959774514705719 0.05788973892807854 -0.0496281934156608 -0.09953099419471606 -0.19823385277283886
3742188000.0 -0.04891206577349222 -0.23705250434376432 0.05556979766670086 -0.05215269184474179 0.05558362735634761 -0.051990208594868526 -0.09972977016256512 -0.19731338182767796
3743750000.0 -0.05134405806214 -0.2371941597429249 0.05310902043740262 -0.054373934303544307 0.05324592416189149 -0.05445078223702835 -0.10071033969125767 -0.19597231243450605
3745312000.0 -0.05391231110619927 -0.23730542052428918 0.05074356552958792 -0.05648661088724354 0.05080926728512618 -0.056708214247289244 -0.10241458353629605 -0.19454700529692975
3746875000.0 -0.05661266920854879 -0.23761719169158102 0.04812201691079826 -0.058350236404648724 0.048204888024392184 -0.058756481144333586 -0.10506416877254257 -0.19308639462750712
3748438000.0 -0.05946410698429938 -0.23788337551919508 0.04554105649464052 -0.06005652821115195 0.04552673945717358 -0.06064609290827011 -0.10843684795263017 -0.1922175122214586
3750000000.0 -0.06225650777534315 -0.23826539235617344 0.042773477255158246 -0.06185524616442476 0.04269528444978834 -0.06236312622439454 -0.11350135334270017 -0.19222887195595428
3751562000.0 -0.06528290020296933 -0.23859001711783642 0.04002097828582731 -0.06356141733007097 0.039851889522536633 -0.06392579895688968 -0.11743888185320994 -0.19388662557527062
3753125000.0 -0.06776718617769638 -0.23884403178295485 0.03718769136727923 -0.06514943635902874 0.03697992180284672 -0.06544293641534189 -0.1214855597697054 -0.1967978131228985
3754688000.0 -0.07044812245174108 -0.2394238597331923 0.03442420026392788 -0.06661193139988049 0.03420045156158361 -0.06668166875608737 -0.12381048354943198 -0.20120625448391405
3756250000.0 -0.07305263563872284 -0.23991015889699605 0.031545363877678735 -0.06790106702841342 0.031186466621307623 -0.06797831309914079 -0.12513275144436337 -0.20570211315064632
3757812000.0 -0.0753513655446747 -0.2399340251398816 0.028392584012902913 -0.06903560489542128 0.028146412756289544 -0.06906073582618559 -0.12406012070371034 -0.20919763894850776
3759375000.0 -0.07771271683385868 -0.24033016307747151 0.02522375163718296 -0.07000085832969927 0.02505352959053524 -0.07019832214028102 -0.1223836581041791 -0.21147374962627996
3760938000.0 -0.07994688701795695 -0.24019968570071187 0.022049706656953008 -0.0707886833616647 0.02202614956300515 -0.07118118667731997 -0.12007900604370991 -0.21278739847853292
3762500000.0 -0.08232185826482338 -0.24021539777414697 0.018841094436619913 -0.0716447337269464 0.018673902184767444 -0.07196038148320995 -0.11789319610843296 -0.21273266752573733
3764062000.0 -0.08463425144587494 -0.24009169279936815 0.0156449940092468 -0.07221910964708746 0.015580725108459538 -0.07258586005288631 -0.11645161574613225 -0.21079246938603216
3765625000.0 -0.08668006602321784 -0.23929136430834394 0.012523106512632153 -0.07277446517732858 0.012350857628560969 -0.07288224043469775 -0.1146697175104511 -0.20759800438012213
3767188000.0 -0.08894234363527694 -0.2386809080911952 0.009428471652517164 -0.07303463367953948 0.0092151886430095 -0.07304838163122555 -0.11434966762939903 -0.20409892751815067
3768750000.0 -0.09159346442857078 -0.23744131538631646 0.006229285967003635 -0.07314007163514295 0.006056576727750175 -0.07315217464493982 -0.11558868214989436 -0.19951128102755897
3770312000.0 -0.09392964085836024 -0.23660530102250246 0.003142353268304595 -0.07314991626906615 0.0030087144011201887 -0.07315601582481743 -0.11856715862273143 -0.19560503547366218
3771875000.0 -0.09638463956936301 -0.23557784881595487 0.00012390846087934442 -0.07283122405746333 2.2881585136952438e-05 -0.07286509135490647 -0.12252584878689463 -0.1928658046045719
3773438000.0 -0.09903631456810943 -0.23467139780701443 -0.002986045137187796 -0.07237114197286691 -0.002965040479607825 -0.07256980910708397 -0.12822624212374523 -0.1911579487853322
3775000000.0 -0.1016560343075799 -0.23373796039618994 -0.006003106016856378 -0.07182445865529224 -0.006012892034684731 -0.07223851588296454 -0.13308258111886 -0.191113200500043
3776562000.0 -0.1044652100400579 -0.23294590584683172 -0.008979433226496188 -0.07118489228132802 -0.008932440328288688 -0.0716005175082539 -0.13614211956674743 -0.19234788903131755
3778125000.0 -0.10690349192193667 -0.232183650907083 -0.011755672569225705 -0.07044517361515948 -0.01206335649127127 -0.0707504889528128 -0.13825857453848706 -0.19407080297634774
3779688000.0 -0.10950938416527368 -0.23118168572631 -0.014697169477236026 -0.06964659976069074 -0.015066442680777939 -0.06988782939480918 -0.1388759472556177 -0.19456704332533936
3781250000.0 -0.11157769073633457 -0.23047828542684995 -0.017586928734269737 -0.06867452477254338 -0.01793702079196387 -0.06888255760578178 -0.13755524831904 -0.19530879988330074
3782812000.0 -0.11362076696361774 -0.22996239615166136 -0.020457827360364424 -0.06777188318557481 -0.020963755253480314 -0.06769818372248435 -0.13754936923404837 -0.1925851214958312
3784375000.0 -0.11556645925484667 -0.22893996616832987 -0.023371271617942467 -0.06664737140082719 -0.023770537182781378 -0.06655628202735915 -0.1374554812079835 -0.18994265224692108
3785938000.0 -0.11726056108846368 -0.228084146361958 -0.026104538198160197 -0.06541281323625607 -0.026335417000365156 -0.06541587693601857 -0.13776059330444637 -0.18550353001260034
3787500000.0 -0.11870696062075006 -0.2270861015645525 -0.02880773301193569 -0.06411798746696484 -0.02895663549097159 -0.06408395809969987 -0.13877811279926627 -0.18041058401235574
3789062000.0 -0.12002379580804089 -0.22578164682318544 -0.0314170424178911 -0.06254379436207386 -0.03141308573047301 -0.06260101065330699 -0.1409232498123698 -0.1745530482608211
3790625000.0 -0.12172695476301124 -0.22471018581002922 -0.03394873041058227 -0.06090741519302521 -0.033837836245477204 -0.06117164417097833 -0.14464227534934365 -0.16961207972796688
3792188000.0 -0.12260713847157287 -0.22343174143693426 -0.03627789071183707 -0.05927128648175317 -0.03620898619932544 -0.059563887891382845 -0.1517204294419223 -0.16329747004400033
3793750000.0 -0.12369912353337033 -0.22193797841417978 -0.03838402465937156 -0.05755087300277277 -0.03855513599699638 -0.05785441675568915 -0.15750087083151112 -0.16012061062860966
3795312000.0 -0.12456345907396786 -0.22007925201219244 -0.04035784597551222 -0.055818622303732524 -0.04072889486242071 -0.05612387930857181 -0.16620147068255342 -0.15754590208461208
3796875000.0 -0.1255318444058937 -0.21831911390416892 -0.04226813414527189 -0.054130606813822556 -0.04275824566272827 -0.054314825195580396 -0.1745856229577362 -0.15769982556423523
3798438000.0 -0.12678209067494034 -0.21626577262784216 -0.04393548276939608 -0.052197852618335476 -0.0445903997762928 -0.052142483875708336 -0.1795626921924894 -0.15986089969599726
3800000000.0 -0.12809629401291062 -0.21442611349902638 -0.04561340051785555 -0.05023141725429476 -0.046231646781294766 -0.050109553901162646 -0.18438344151188013 -0.1623929490971891
3801562000.0 -0.1293698058346568 -0.2123997456059329 -0.04729899162589428 -0.04809721851299905 -0.04783613706848028 -0.04791452770527624 -0.1862143685025548 -0.1644118805615652
3803125000.0 -0.13043032743141275 -0.21030674830562746 -0.04908499793062697 -0.04593248543569159 -0.04941834304940921 -0.045636775137456544 -0.18817140561471676 -0.16655209774804877
3804688000.0 -0.1319980837080798 -0.2083234143422708 -0.05082006863032311 -0.043684311085406304 -0.050993346204149644 -0.04342392507467088 -0.18926890949490152 -0.16704585429510857
3806250000.0 -0.13341511342292908 -0.20660701947457463 -0.052357807711199696 -0.041382234616742314 -0.05241245987297731 -0.04119875627804493 -0.18928696003122636 -0.16763029245408648
3807812000.0 -0.134808425458633 -0.20506725911964555 -0.053757797464341305 -0.0391150961991053 -0.05374136405626144 -0.03897199543427845 -0.18918554672649812 -0.16704726572492046
3809375000.0 -0.13598390234913293 -0.20330592152317412 -0.05503408876554563 -0.03666390083256405 -0.05512718872234221 -0.03663898593608706 -0.1890902956452784 -0.16540980758027
3810938000.0 -0.1375824165959171 -0.2019505601748044 -0.05612662717283036 -0.034296832708024576 -0.05627650676441727 -0.03434020509026486 -0.19033792794430127 -0.16275371399934838
3812500000.0 -0.13863618158660507 -0.2007799162686142 -0.05708634154570645 -0.03184566386570667 -0.05739832003302877 -0.0318065402789927 -0.1913367317155996 -0.16064241385264624
3814062000.0 -0.1398516897797597 -0.19908494763907733 -0.05805007270223888 -0.02936000568616995 -0.058410497981137295 -0.029358126856095935 -0.19421798115280098 -0.15836962042216157
3815625000.0 -0.14049552276725719 -0.19806119340925765 -0.05884926265153128 -0.027049243157272234 -0.05929078839423666 -0.027023573905953252 -0.19678444629498576 -0.1569469383589996
3817188000.0 -0.14105691501303763 -0.1962972720961346 -0.059674263494768696 -0.024714468142657837 -0.05996215147976781 -0.024556188854052734 -0.20048067933669023 -0.1561278554312938
3818750000.0 -0.14176508741945784 -0.19499301029704744 -0.06033244110080913 -0.022444602593510214 -0.06065434671502637 -0.022139030484088735 -0.20268871561509277 -0.15685295494331802
3820312000.0 -0.14235999925656453 -0.19343943234173572 -0.060860300483944196 -0.02017364176375848 -0.061207097442514374 -0.019859013940909644 -0.2046220432630672 -0.15818039903879985
3821875000.0 -0.14306790635134098 -0.1919897478612125 -0.061365325557478693 -0.017799031418090857 -0.06165365226220394 -0.01737036301776215 -0.2058604408141314 -0.15920687418676685
3823438000.0 -0.14378901487492654 -0.190142979213861 -0.0618046305312781 -0.015317758675771408 -0.06202460926872455 -0.015052892270217482 -0.20638004536183296 -0.1601655515042301
3825000000.0 -0.14461078991740514 -0.18852024782515253 -0.06219639207102832 -0.012897617708081387 -0.062441360505636 -0.012741534784586351 -0.20571215876627544 -0.1621659710473671
3826562000.0 -0.14565629247021514 -0.18707300682277017 -0.06256984637295317 -0.010416351419282125 -0.06274625573802382 -0.010310270717559475 -0.20386573035645553 -0.16256397494615726
3828125000.0 -0.1463285451355075 -0.18529702286946892 -0.06278109839793791 -0.008034600212889625 -0.06298245590759731 -0.007922076196976857 -0.201773337353462 -0.16251260677923135
3829688000.0 -0.1473154060209966 -0.1838516642481328 -0.0629288797709231 -0.005592225984671402 -0.06294264497420375 -0.0055219279277760975 -0.19819138887474938 -0.16120366508335593
3831250000.0 -0.14844570742308208 -0.18238301504889742 -0.06289431261014884 -0.003185169795846545 -0.06312145588512356 -0.0030933190985563083 -0.1961079134267014 -0.15857857487733232
3832812000.0 -0.1498177035293075 -0.18092087591484043 -0.06286064684370339 -0.0008345809815202889 -0.06297123310286863 -0.0006319408725946323 -0.19396897861837567 -0.15452428681978825
3834375000.0 -0.1511800200645134 -0.1794731106506617 -0.06267558998695046 0.0015297251631976574 -0.06282658790583853 0.0018491758999074036 -0.1925992711939998 -0.15047451358764777
3835938000.0 -0.15277901655071854 -0.17840740178631845 -0.06245469372132673 0.003921672077447058 -0.06269156514743637 0.004165897294206409 -0.1925221484128258 -0.1456434051948629
3837500000.0 -0.1539662591810074 -0.17740513238582678 -0.062210138818883765 0.0062490893703135665 -0.06238567678157651 0.0065087516549912575 -0.19333193434058943 -0.1408947206337884
3839062000.0 -0.15534631420103104 -0.1766608556440903 -0.06189575210801327 0.008636577992004072 -0.06204818145314423 0.008648013790470734 -0.19466973115565117 -0.13674354209925835
3840625000.0 -0.15686723000291092 -0.17588280351987948 -0.06145549418377697 0.010962573535771477 -0.06170182065823882 0.010942692654095759 -0.19643329265468898 -0.1329109016485144
3842188000.0 -0.15811776538073802 -0.17523577135257648 -0.06094933719419919 0.013246106738362063 -0.06120011773952696 0.013267774317066102 -0.1989348273221828 -0.12815031405722827
3843750000.0 -0.15933912016145604 -0.1746439755494413 -0.060476608673774745 0.01539002832260532 -0.06061290311608106 0.015663729142250282 -0.2023735518090894 -0.12552622242680717
3845312000.0 -0.16068609008375287 -0.1743874268696272 -0.05986018968521937 0.017724565052886002 -0.059955021138534216 0.018045238070551278 -0.20520150736956616 -0.12221288987320791
3846875000.0 -0.16171488660139163 -0.1735942664774217 -0.059078919374805014 0.01987728474793005 -0.059320937935894644 0.020274660404695586 -0.2087354508081271 -0.12076377074267385
3848438000.0 -0.16267137260045214 -0.17298517839222882 -0.05820365487949677 0.02212170183586472 -0.058503171958688545 0.02239123775233646 -0.211496622919271 -0.11905667930136934
3850000000.0 -0.16416937325213848 -0.17247474027803367 -0.05732278875605346 0.024210471530889375 -0.05743402849843926 0.024711339535451272 -0.21325670582728862 -0.11911332392147489
3851562000.0 -0.1654405420100495 -0.171763090243409 -0.056270409123252575 0.026460908318880143 -0.05647662477018738 0.026790178549560444 -0.2143936004198179 -0.11839864856280156
3853125000.0 -0.16680231799520082 -0.17093662679462984 -0.05526532044763263 0.028661684091254445 -0.05528664714854665 0.028891187376298175 -0.21513875033047786 -0.11680428995596252
3854688000.0 -0.1683658514385805 -0.1699859898995302 -0.054224357835290185 0.03079818090879926 -0.054035988453981436 0.031110299765642727 -0.21580380663961854 -0.11409985255180793
3856250000.0 -0.16993083357059774 -0.1692732718329004 -0.05309088747603767 0.03291891738805086 -0.05283915266036766 0.03308605960721124 -0.2174276425516993 -0.11123631920731154
3857812000.0 -0.171617141428341 -0.16839205387765926 -0.051827967229083796 0.03490344434356169 -0.05177099437518495 0.03511582465646188 -0.21963039622372624 -0.10741880604452789
3859375000.0 -0.17333936598662572 -0.1679111368910679 -0.050474935072853694 0.03682293643280098 -0.05037318604910218 0.03707957453579172 -0.2220843616360183 -0.10467396016732654
3860938000.0 -0.17530253677184052 -0.16693430596456404 -0.04887892920305103 0.03870716100009591 -0.04899356314001108 0.03895720999066793 -0.22515510050521878 -0.10130141812357077
3862500000.0 -0.1768077060306438 -0.16645335297777397 -0.04727236597345259 0.04060472878754379 -0.04754954847745035 0.04082525064521052 -0.23018974758196262 -0.09835300647045046
3864062000.0 -0.17912023613621542 -0.16585800142508156 -0.0456468256861377 0.042487215130737194 -0.04588118546088077 0.042666822738280236 -0.23543290904712738 -0.096267399825585
3865625000.0 -0.18108764102059405 -0.16551896885060624 -0.04404005353376524 0.04434521671848206 -0.04429660671531215 0.04458474200069607 -0.2422282794608065 -0.0948833304051601
3867188000.0 -0.18298890625952374 -0.16505862763848017 -0.042470019728398006 0.04599347978065031 -0.04251504202377691 0.04626662001019833 -0.24850421479175724 -0.09656921560934367
3868750000.0 -0.18502412352476375 -0.16478135747451222 -0.04076958133428563 0.04759171469257063 -0.04069692558035091 0.047910681303975175 -0.2534574260749095 -0.09886506513228407
3870312000.0 -0.18696238080858313 -0.16464119425852627 -0.039061828915988986 0.04896733974883314 -0.0388409866935183 0.04942799582223853 -0.2569042901373364 -0.10365245340038151
3871875000.0 -0.188521467965343 -0.16443986042452055 -0.03714700923767472 0.05042581439252293 -0.03686954373389511 0.05093685413176529 -0.2592269107804168 -0.10862786459155616
3873438000.0 -0.1899874927154103 -0.16386157156751407 -0.03509281934689022 0.05190078797474167 -0.03491043805626046 0.052341392176433126 -0.2593753785484885 -0.11304389698352225
3875000000.0 -0.191464220950815 -0.16400139743071154 -0.03308151296787208 0.05341144027325294 -0.03292750776156926 0.05364063445622836 -0.25822632372697313 -0.1173267890397416
3876562000.0 -0.19280206381262105 -0.163103214016507 -0.030917434748470488 0.05484857300693273 -0.030814201025985234 0.054825834224956405 -0.25436967589884646 -0.12010424707057538
3878125000.0 -0.19415000172207705 -0.16234297168395803 -0.028739774496368695 0.056143346295396475 -0.028664131708805343 0.05603949992648906 -0.2503037555175077 -0.12106186617020107
3879688000.0 -0.19584680715011973 -0.1612925859815174 -0.026539522959778922 0.05723917115370735 -0.02641457215939585 0.05719836398790007 -0.24552576229635983 -0.12083166812278345
3881250000.0 -0.1970597187120893 -0.1601253208621841 -0.024133444515267406 0.05816642890147018 -0.024095701652515403 0.05832020065154345 -0.24172680391047602 -0.11732898186832773
3882812000.0 -0.1986304332034857 -0.15873587112463994 -0.021788923997333363 0.05905332363771657 -0.021683083657498395 0.05927274584752477 -0.23931960579839173 -0.11361993370934967
3884375000.0 -0.20006888396121467 -0.1575768388035723 -0.019426190006597566 0.059846659968013804 -0.01934208029041039 0.06013776079010055 -0.2384938542817974 -0.10865632668540712
3885938000.0 -0.20175926799835112 -0.1558767294307072 -0.01702117747100495 0.06065524810185788 -0.016954253960744622 0.06096465030685225 -0.23910528595102032 -0.10388132026031363
3887500000.0 -0.20395473577949175 -0.15462793194325408 -0.014611138791022061 0.06128762923462323 -0.014603743694629988 0.061609296128862324 -0.24125764678353068 -0.10098972765294077
3889062000.0 -0.20551543804718092 -0.1528825090770523 -0.012181157749562709 0.06193995226104631 -0.012157931878539491 0.06205854750731303 -0.24274163238688065 -0.09856603537810577
3890625000.0 -0.20772073583077164 -0.15132281766164815 -0.009798164650774984 0.06244599887724738 -0.009629600362088419 0.0624668860423597 -0.24447979844030407 -0.09708621898750884
3892188000.0 -0.20969750440605633 -0.14996374156787734 -0.007304549063304395 0.06275556752103409 -0.007124006197079138 0.06291499830217005 -0.24547267745994555 -0.0964825385909418
3893750000.0 -0.21143934102199727 -0.14839610761074268 -0.004788171880355138 0.06298703582484927 -0.004575610874365712 0.06316206660432092 -0.2454266824208253 -0.09605562572955459
3895312000.0 -0.21340877589280077 -0.14694839766246573 -0.002129279221800171 0.06321139187392252 -0.0019104117519090902 0.0633927794588189 -0.24377376006909762 -0.0953621454469147
3896875000.0 -0.2155175267300336 -0.14526398241840766 0.0005914199668282751 0.06329018306767066 0.0007672886672717206 0.06350660519559116 -0.2411546227859416 -0.09367388676037917
3898438000.0 -0.2173714729745329 -0.1443397994109424 0.0032100769364910024 0.06338971958444234 0.003348709261227199 0.0635496723708201 -0.23736542508993594 -0.09084043618349062
3900000000.0 -0.2191312780576116 -0.14273993463641182 0.00596207045377282 0.06333243891589965 0.005997293863811591 0.06347448703386828 -0.2331232396681167 -0.08561665968596763
3901562000.0 -0.22096848100541153 -0.14126530344195623 0.0085992225620781 0.06326634187825937 0.008696297401319577 0.06327894587782182 -0.22997882798532518 -0.07703658283597803
3903125000.0 -0.22228324846557743 -0.13964726819435747 0.011273437651820102 0.0631803812279953 0.011299170991744318 0.0631179820068732 -0.22866636771011742 -0.06886544360988267
3904688000.0 -0.22358542182907135 -0.13774263742979223 0.013786169260915282 0.06281042216295003 0.014029381547981548 0.06279203079284515 -0.22936271872888966 -0.056860718809764565
3906250000.0 -0.22518793108796706 -0.13597844517772445 0.016417438056181802 0.06246702836133792 0.01656058063877951 0.06252560745579007 -0.23321525391600126 -0.04620196618384876
3907812000.0 -0.2264004423991632 -0.13405630535662405 0.018884801705068545 0.06188054480116204 0.01901964552355819 0.06204116086735788 -0.24041732423778717 -0.036697142689058104
3909375000.0 -0.22746113785398975 -0.1314766754985345 0.02131786062349543 0.061235654501159996 0.021502645330083645 0.06138994922854995 -0.24888090511188266 -0.028420926322756366
3910938000.0 -0.22876947445624207 -0.12895992294876862 0.023604700837152007 0.0603670643935909 0.023809905331539448 0.06066665932456477 -0.2586946773086111 -0.02418190610881778
3912500000.0 -0.2302532003726014 -0.1260808360481725 0.025914453854684792 0.05946940743011396 0.026033464027299752 0.05968364691244489 -0.26682399993517614 -0.022646530459652515
3914062000.0 -0.23160783532404974 -0.12361403038037047 0.02815503324900825 0.05835718087986427 0.02830962382974082 0.05856478135677621 -0.2726325393458649 -0.02169893228759896
3915625000.0 -0.23334264990730705 -0.1205240600144138 0.03032732671849572 0.05714540620901016 0.030510006362201598 0.057247071973406005 -0.2772322549747403 -0.022527546588190735
3917188000.0 -0.2349128845789776 -0.11745965513176264 0.032639803518666466 0.05598170273934445 0.03280736699947434 0.055972056872490385 -0.2828763233532206 -0.023400011480050973
3918750000.0 -0.23691637116874498 -0.11452971763399324 0.03491615351621714 0.05464298968217981 0.035161046709258285 0.05451816279574023 -0.2842662005292805 -0.02330824486079764
3920312000.0 -0.23876426954744023 -0.11169332470255335 0.03711749876854621 0.05334179301882715 0.03734022380064653 0.05321860288222951 -0.28693432252399814 -0.024633326880628748
3921875000.0 -0.2409963273853127 -0.10862951196831622 0.039318133457504595 0.05165016152586726 0.039524232418467566 0.05159914893099584 -0.28617035348145786 -0.024446702412933712
3923438000.0 -0.2430537224079429 -0.10607878686319645 0.04158438140718992 0.04983988143425699 0.04174739036267792 0.0498450918097212 -0.28532303008842685 -0.02226266584861923
3925000000.0 -0.24466968328707095 -0.10343348010041362 0.043696016432398316 0.047921194322430964 0.043789171039643034 0.04795316990675651 -0.2848716034355091 -0.019046757369144324
3926562000.0 -0.2466763333927888 -0.10046178361654033 0.045904376987523504 0.04581787211492253 0.045902265514459646 0.04587333381515441 -0.28474803393670495 -0.013674354118564758
3928125000.0 -0.24847043071937455 -0.09804012592701891 0.04790540892638626 0.04379538799095176 0.04786302220913723 0.043957973646206586 -0.28695868449915624 -0.008629783637167567
3929688000.0 -0.24998585422993824 -0.09539891151402126 0.04955377376526101 0.04177163304639438 0.04972827332333948 0.041895283733612336 -0.2920212426412571 -0.003970434274993531
3931250000.0 -0.25148491493522823 -0.092842635118456 0.05124431169726051 0.039916494030571265 0.051407752533988674 0.04002120534671555 -0.2998769058681444 -0.0015359038662679375
3932812000.0 -0.2529646499211873 -0.09005044159641772 0.052634376857242024 0.03802864974999322 0.05310354418477599 0.037962875998209515 -0.3058073460645334 -0.0002764470976788433
3934375000.0 -0.2539940662694466 -0.08729167126102581 0.05396401708608959 0.03605185295865178 0.05431054045373307 0.035923867255116336 -0.31023513046083134 -0.003467660843150278
3935938000.0 -0.25538815465951914 -0.08454199706498043 0.05524516637077699 0.03399655238633573 0.05566671842983578 0.03383955983099031 -0.3134653174007457 -0.007913221530161978
3937500000.0 -0.2562004863503949 -0.08163268035959112 0.0565846060148986 0.03184931364194615 0.05695183825179551 0.031708876449345454 -0.3143856905968823 -0.011684485230167577
3939062000.0 -0.25717718563129366 -0.07878773892986403 0.0579065423934793 0.029689622141150625 0.05814503418004787 0.029406408460563527 -0.3128708755590317 -0.016335723149750195
3940625000.0 -0.25806952114593434 -0.07572485669867454 0.05931876947398401 0.02730506363950247 0.059299325161323545 0.027113550862400786 -0.311137121888312 -0.019443293702152958
3942188000.0 -0.2590459469613564 -0.07242874879930995 0.06036575224902246 0.02479053532906112 0.06027648567517037 0.02457363850982802 -0.30634139640845 -0.021798372881071768
3943750000.0 -0.2598817025174398 -0.06924711765270668 0.06127245576894028 0.022045264330392732 0.06122657432622811 0.021965439649525277 -0.3002428138477352 -0.02318990245662466
3945312000.0 -0.2608521597422001 -0.06617444330745752 0.061930199209667164 0.019323400938309178 0.061999300216941555 0.01919239433192566 -0.29330778602322394 -0.02316845226046943
3946875000.0 -0.26227691162750294 -0.06317526290029088 0.06246077007995202 0.01650104150156665 0.06258488385914417 0.016382797009027124 -0.2856873465716734 -0.020444665659523745
3948438000.0 -0.2632325842573255 -0.06008193687500112 0.06277155368650478 0.013658137723762445 0.06300936465338061 0.013650023461685782 -0.27892405000933496 -0.01572792871524505
3950000000.0 -0.26414056341643827 -0.057108874562856196 0.06307302886860758 0.011008799350610004 0.06340333774430616 0.010980817117383381 -0.27300219155860594 -0.009447932125202145
3951562000.0 -0.26534687509859817 -0.05431696355606808 0.06330149979937408 0.008336096296150943 0.06362270727607973 0.008351077359885953 -0.2686020361644523 -0.0026839346858388655
3953125000.0 -0.2663544599347052 -0.05188130686432184 0.06349737437730694 0.005853498469426621 0.0638229458831499 0.005801146251254158 -0.26615823339932676 0.005031859849741929
3954688000.0 -0.2673477128735125 -0.04950762230004667 0.06372937868624115 0.0033893437274896765 0.06389112002925923 0.003162364457704922 -0.26492519136175813 0.01181531673877407
3956250000.0 -0.26832129578412445 -0.04741579982431375 0.06380109627267962 0.0008236781342729708 0.06406218297285358 0.0006078321203725718 -0.26461478943706795 0.0181886063224139
3957812000.0 -0.2689834247114814 -0.045139997615589844 0.0639594138441615 -0.0018217487942079977 0.06417799359345512 -0.002208283534283366 -0.26533788852876855 0.023883566695035992
3959375000.0 -0.26935075623261834 -0.042799092336249324 0.06384281401272365 -0.004533563172663052 0.06406348088282478 -0.004908701289288803 -0.2656897637019435 0.02904973337494435
3960938000.0 -0.26987536730716327 -0.040398111453921096 0.06362542127859575 -0.0072111363965718525 0.06383196855896275 -0.00765677770606625 -0.26668755724204574 0.033156012283558044
3962500000.0 -0.27010567241483613 -0.03811023674382976 0.06327187816386563 -0.00989728696840855 0.0633701564029946 -0.010233751016646501 -0.2676536642198978 0.03685690170836421
3964062000.0 -0.27042513495388 -0.035957535001836016 0.06276020934471417 -0.012551534605408966 0.0627483399093463 -0.012858345656368321 -0.2679820993130905 0.040054228722637676
3965625000.0 -0.27051560540609704 -0.03368930676421734 0.06214019497412881 -0.01509105165320652 0.06195328750615405 -0.015377138123725553 -0.2673582988801193 0.04278150778165648
3967188000.0 -0.2704678921900115 -0.03142116698364833 0.06137353005152242 -0.017714024887835342 0.061129013742401345 -0.01774445785924185 -0.26629954964145086 0.04661970394615349
3968750000.0 -0.2706398034525269 -0.0292589232196083 0.06062202047874186 -0.02015310039741479 0.06036328707040746 -0.02008865672375408 -0.2650768397813378 0.05102422635995684
3970312000.0 -0.270722833761063 -0.026782896796761765 0.05964721466660287 -0.02251635512203327 0.05966700613107491 -0.022416829091865313 -0.2650042889016493 0.055504076262552604
3971875000.0 -0.2705361880484873 -0.024281124066897943 0.058562912532494155 -0.02477837106842475 0.05884422745888081 -0.024742913552866327 -0.2649534086057458 0.060531027364072405
3973438000.0 -0.27068526978640006 -0.021862694160551404 0.057440329517114024 -0.027093443638556942 0.05796404184481405 -0.027191336138122076 -0.26650958550456805 0.06562372721489301
3975000000.0 -0.27073095375105294 -0.01933258172835015 0.05624872211286719 -0.029353150538299067 0.05680974071337687 -0.029556195647412346 -0.26757129704383514 0.0707831331759812
3976562000.0 -0.27090472569155977 -0.01697587717612479 0.05502001596500273 -0.03163700804908341 0.05547643626419691 -0.031889523620477915 -0.2697040826159383 0.07515297456088198
3978125000.0 -0.2713382831666041 -0.014388980946626181 0.05379049550346893 -0.03385722398183245 0.05408254368214906 -0.03434936490714372 -0.27289080986916614 0.08071254361920506
3979688000.0 -0.2716021566963892 -0.012365751705750131 0.052561249391059085 -0.03586168091527258 0.05256685392985562 -0.03653659664917752 -0.27821039580852025 0.08439549534748046
3981250000.0 -0.2720832952422569 -0.010376582450528167 0.05124880237977346 -0.03793295750031208 0.05109561983636784 -0.03853095590024585 -0.2841072044740942 0.08766893349381778
3982812000.0 -0.2722539511118762 -0.008393018997834813 0.0499758141844675 -0.03986673611868811 0.04963584140343722 -0.040488779791665784 -0.2916073469146103 0.08800053973628708
3984375000.0 -0.2722341310474344 -0.006639070100666854 0.04848275677707674 -0.041746364639842166 0.04808230093271876 -0.04220328562130891 -0.2978094263969151 0.08518655967513936
3985938000.0 -0.27203866786557884 -0.004283094433577728 0.046914103022681765 -0.04367540043624298 0.04644560224188522 -0.04396227379879188 -0.3023236800166922 0.08047494143680556
3987500000.0 -0.27218511499068593 -0.0025238390644977305 0.04515568160888567 -0.04569492726290339 0.044863411220528907 -0.04561257867530148 -0.30384139513934383 0.07620291285457458
3989062000.0 -0.27168083557096445 1.916839703613639e-05 0.0433593993654974 -0.04774560060060589 0.04318481392532257 -0.047359737388801414 -0.3045621822259196 0.07034342890198363
3990625000.0 -0.27159282982379374 0.0023277490391863304 0.041497039489315476 -0.049512959696219126 0.04139031115788989 -0.04908894601770097 -0.30233942788729246 0.06448989703937032
3992188000.0 -0.2710877835451889 0.00474059031457636 0.039462445042963486 -0.05102249042379703 0.039565612762026 -0.050839568150018125 -0.2989349527458969 0.05922397892637471
3993750000.0 -0.27081851455347805 0.0069780706772238675 0.03733599415886376 -0.05237216230995927 0.03745446234292134 -0.052462645841707026 -0.2929974611321175 0.05731750114492154
3995312000.0 -0.27052083409897815 0.009542426675971662 0.03508467046895894 -0.0536097810387258 0.035351810948542506 -0.05391783608874618 -0.2873404541248342 0.05597852267249474
3996875000.0 -0.2701828842780546 0.012161570546472723 0.032769746851166286 -0.05464276344040058 0.0329683544433699 -0.05531993972129904 -0.2803002053898756 0.056167467738383076
3998438000.0 -0.27003693323983585 0.015039273316068523 0.030426311621668364 -0.05576360669454051 0.03060087816650576 -0.05649236323726109 -0.27401850975954206 0.05826440460114334
4000000000.0 -0.26951029932556253 0.01779236434741383 0.028161360948590782 -0.056961909710317116 0.02819435596589496 -0.05752235522181021 -0.26958890747672504 0.061973055733029456
4001562000.0 -0.26982136242071186 0.021036822374437807 0.026077610301476675 -0.0581067253109332 0.025745934509164778 -0.058563289083298276 -0.26607411632595734 0.06645889546773583
4003125000.0 -0.26934884777642765 0.02406301362412925 0.02382184575740717 -0.059220500224849044 0.0233919575306767 -0.05935161298077681 -0.2642221058546272 0.07084642151547037
4004688000.0 -0.2696481163481373 0.02740522665309981 0.021522764105516134 -0.06020932830159208 0.021021382445185973 -0.06031198027700127 -0.2639307208585407 0.07442017213691195
4006250000.0 -0.2696197765457881 0.03042341503673511 0.019092327613046373 -0.061021212504348936 0.018613857072610852 -0.061092614245883886 -0.2641124343718842 0.0761959788486363
4007812000.0 -0.270037412165057 0.03360570028123131 0.0165262629874032 -0.06196839566042763 0.016036609688538737 -0.061878377107041777 -0.264625706486879 0.07716088529201155
4009375000.0 -0.27038355736959935 0.03645902818728808 0.013861165902754375 -0.06273112047736062 0.013616567560159209 -0.06266438118880864 -0.2623807080091824 0.07550595695069011
4010938000.0 -0.2704766120627351 0.039435977456864675 0.01097895017097979 -0.06331557809568868 0.01110983257882712 -0.0631951511428606 -0.2600782777814149 0.07504399347480269
4012500000.0 -0.2707178272931271 0.04243801096945126 0.008302158063926826 -0.06381460449064784 0.008522390215634848 -0.06375529044144412 -0.25558735574634445 0.07458888076051941
4014062000.0 -0.27101993173566286 0.04522249437785355 0.005716837019786716 -0.06399682313472103 0.006008343674253153 -0.06399022013624953 -0.24978364273531625 0.07544766106199874
4015625000.0 -0.27101198419615263 0.048020614084178175 0.003245176623341768 -0.0640241870645027 0.0033851480601389877 -0.06419448810245888 -0.24286131750255946 0.07799339251028074
4017188000.0 -0.27064648193190266 0.050963180851666394 0.0007425524194908935 -0.06388872766717933 0.0007762785428758783 -0.06421954314542425 -0.2352306138565423 0.08300589771433217
4018750000.0 -0.2702982969392325 0.053890890962196604 -0.0017042871091131585 -0.06375483849302091 -0.0019435360626326066 -0.06414023168254018 -0.22858977645271855 0.09040785522303398
4020312000.0 -0.2699389886363657 0.05694490022629195 -0.004243166085312345 -0.06365074501401012 -0.004513893475140369 -0.06410571807061775 -0.22463194630580763 0.09964350671399275
4021875000.0 -0.26939017878957977 0.06064099048267462 -0.0068542525262793716 -0.06342050356581257 -0.007189805679119395 -0.06389916261877063 -0.22171848279135098 0.10998811654784142
4023438000.0 -0.2687583974291767 0.06414809700773311 -0.00941518749022627 -0.06323531036547965 -0.009808247088680128 -0.0635056726809795 -0.22274983495682432 0.12045320176537784
4025000000.0 -0.26825045895533606 0.06754244588374556 -0.01203710267117253 -0.06292997686005845 -0.012362996567922316 -0.06305630837343879 -0.22553976847001228 0.13014298307425273
4026562000.0 -0.268049267804582 0.07089949555895529 -0.01461833885782891 -0.06251290593790958 -0.01491964648267692 -0.06244414022364642 -0.2300106868978383 0.1380963800372978
4028125000.0 -0.2672666740532442 0.0748392468065382 -0.01723090312148416 -0.06177372320081961 -0.01744623349042093 -0.06171448558313021 -0.23554974254634117 0.14373255723573883
4029688000.0 -0.2666195749614564 0.07842938774956182 -0.01975189855931215 -0.061083314960439825 -0.019932618716091085 -0.06096182546375382 -0.24147272850706464 0.14667618417290684
4031250000.0 -0.26611290139877736 0.08248102335496722 -0.022228748829116237 -0.060169500827797734 -0.022369809557799155 -0.06012695241871643 -0.24703386675204042 0.148671752623532
4032812000.0 -0.2659728306567066 0.08621123454045934 -0.024624119309400345 -0.05914014083477567 -0.024731092642123077 -0.059292257893267024 -0.25117135966018056 0.14785527502203163
4034375000.0 -0.26589088626867413 0.08994513377485604 -0.027015843280786152 -0.05805505054387488 -0.02712064808272309 -0.05831266316041362 -0.2534648834885595 0.1469872367402183
4035938000.0 -0.26531585704109906 0.09368994855225254 -0.029319866905362927 -0.05677940831915906 -0.029485622931733294 -0.05710575825982807 -0.253283749953517 0.14609335617900096
4037500000.0 -0.26522242143835545 0.09738089983074404 -0.03169167903522544 -0.05552960591305978 -0.03187218222708229 -0.05576095527694146 -0.25145173073203114 0.14648756200368124
4039062000.0 -0.26479652160173867 0.10064136116531341 -0.03403698610966501 -0.054263005008779557 -0.03424634406950406 -0.0543389391745382 -0.24846279372769114 0.149831947851931
4040625000.0 -0.2649248229673718 0.1042134833863368 -0.03622716981712111 -0.05275781226267118 -0.03655521601510865 -0.05287320232872046 -0.2463814574264413 0.15415353965636233
4042188000.0 -0.264363545927375 0.10731456997959139 -0.038344323943143514 -0.05143228191728991 -0.038797517895584784 -0.051328265260198715 -0.24688956846507895 0.15968157192267046
4043750000.0 -0.26376303547628865 0.11033556931947348 -0.04049772072543283 -0.04984240288164196 -0.04087750669682844 -0.04982013274101367 -0.24765109773338645 0.16594270576013911
4045312000.0 -0.263212360779056 0.11298982503458127 -0.04241211705025914 -0.04833468005251869 -0.042790919913484764 -0.04828804885196277 -0.25162831927409973 0.17099660453397025
4046875000.0 -0.2619601662507993 0.11614604886987995 -0.04440393416070405 -0.04659278935276885 -0.04470349798256348 -0.04657933455943772 -0.25606576328714425 0.1758344414861545
4048438000.0 -0.26070631649018183 0.11883442285946526 -0.04631593587318471 -0.044872652155571284 -0.04652829988106906 -0.044845691034337484 -0.2612974986091439 0.17811078686378004
4050000000.0 -0.2593364054984768 0.12192325544898468 -0.04820804275120761 -0.04307188530815713 -0.04836016220443022 -0.04298523257080877 -0.2659987031616067 0.17904792561580093
4051562000.0 -0.25808771909853573 0.12452831708379726 -0.050106595015283216 -0.04124299030872403 -0.050208227650517474 -0.04116476773268668 -0.271271089458392 0.1788960037147702
4053125000.0 -0.2561488752705843 0.12758229741763039 -0.05174992033048591 -0.03917899504957527 -0.05196038832148865 -0.039192703899402034 -0.27424734005505363 0.176754559212118
4054688000.0 -0.25465260379131116 0.13045995640128016 -0.053454509127534085 -0.037198894075761865 -0.053603412075414886 -0.037144428060610336 -0.27816633280766867 0.1721168839611449
4056250000.0 -0.2530877115931501 0.13386089460929543 -0.05487863623088623 -0.03505022682597889 -0.05511694856239552 -0.03503676205884752 -0.27881086839729324 0.165736731706605
4057812000.0 -0.25168665229872006 0.13675869035825775 -0.05607782041112395 -0.03279594497755109 -0.056349245216953794 -0.03280019099555209 -0.27457392016021404 0.15966798149300698
4059375000.0 -0.24977907310179223 0.1396242409548492 -0.05722762701374329 -0.030415154828641353 -0.057547210506505436 -0.030343275759452098 -0.2690873703428083 0.15657151061346902
4060938000.0 -0.2480042822476703 0.14267479687461534 -0.05824710326469518 -0.028061811505896646 -0.05858200099479605 -0.027989588518080612 -0.2610809616901049 0.1537474518640604
4062500000.0 -0.24638903363068665 0.145535621714982 -0.059218833178559076 -0.025687595251044124 -0.059561830347490186 -0.025621752034619184 -0.2526671729808031 0.15477295448431225
4064062000.0 -0.24483880010438602 0.14822384774237934 -0.060207410988097704 -0.023360112897290515 -0.06039604697302417 -0.023335793843487457 -0.24457467231069124 0.15676765395210882
4065625000.0 -0.24270661995999343 0.15098206860190164 -0.06106181507879417 -0.020913494109574562 -0.06124537796028328 -0.020711877472984988 -0.23787928686215293 0.16235105586629894
4067188000.0 -0.2410011883723246 0.15391989300733847 -0.061901614120293914 -0.018477030893872235 -0.06200782298049925 -0.01831829080565505 -0.23211319264959926 0.1674085609315038
4068750000.0 -0.23921765529145173 0.15597559925270083 -0.06256942555308484 -0.015998864086463133 -0.06266996434954354 -0.015704048468830056 -0.22695771863729444 0.1721392546491763
4070312000.0 -0.23735476711322676 0.1585753692657164 -0.0632674019267522 -0.013315532568959251 -0.06336085215884261 -0.013041135093729693 -0.22391883903436638 0.17732228310318393
4071875000.0 -0.23549056937793073 0.16097530243567604 -0.06385209892010735 -0.010556749417718581 -0.06392638123582509 -0.010344500061131674 -0.22113677775791415 0.18305420810094092
4073438000.0 -0.23357981166758343 0.16330435750161634 -0.06436968111704144 -0.0077765164693402306 -0.06449784698187429 -0.007709257481867855 -0.2195021521036187 0.1876438218442083
4075000000.0 -0.23156626623605558 0.1652414328527275 -0.06475205866226649 -0.00515395271897994 -0.064731336781656 -0.00512307126731088 -0.21778001530950455 0.19071097498051146
4076562000.0 -0.22928796580268576 0.16711571085209895 -0.06486079844579404 -0.0024362065975986366 -0.06493324431125923 -0.0024985563750930364 -0.2164012673974523 0.19359202417613672
4078125000.0 -0.22685773495351716 0.16898642022228377 -0.06475016162973994 0.00010116557170109479 -0.0648256370515768 -2.2906206333939637e-05 -0.21392791329457148 0.1942528766953372
4079688000.0 -0.2243771452707006 0.1709346641673595 -0.06468119143908133 0.0027091917975182456 -0.06476677909865244 0.002656967093198776 -0.21066272989790027 0.19532075206372326
4081250000.0 -0.22144392231751175 0.1730787063105825 -0.06439738563302508 0.005247614806003074 -0.06462181312055006 0.005279803472381254 -0.20628354149296654 0.19800097525483004
4082812000.0 -0.2184930549477797 0.17532537670466872 -0.06422410755058962 0.007695381963874266 -0.06447520612575401 0.007930001336448831 -0.20073999582962457 0.1986806192472705
4084375000.0 -0.21586963914100152 0.17741411695756332 -0.06386149531388592 0.0101775321579873 -0.06426643508874767 0.01049031760998045 -0.19541267845397003 0.20236713400691064
4085938000.0 -0.2131125600886351 0.17977769656190806 -0.06355207173266145 0.012727268289562468 -0.06386411640579354 0.013037088535582947 -0.1890701373702054 0.2063462958892101
4087500000.0 -0.21062149578745115 0.18193344356738356 -0.06312619304657008 0.015259048404488674 -0.06331201157519961 0.015660106549054455 -0.1849352926987981 0.21131880105261475
4089062000.0 -0.2081769751444342 0.1842062474107375 -0.0624680574596339 0.017934303858026232 -0.06254754719033057 0.018227881483197515 -0.18057589520976797 0.21735428379604463
4090625000.0 -0.20526471261727108 0.1866488387225241 -0.061813388489048576 0.020505937506800416 -0.06169913417452646 0.02074460221293694 -0.17753499613575993 0.2230726246738581
4092188000.0 -0.2028411826652728 0.18867385684930194 -0.060981248350179665 0.023119480749623583 -0.0607562478062855 0.02331841087360159 -0.17635385367707015 0.23029060310454275
4093750000.0 -0.20009810233862135 0.1906457349898352 -0.06000582222260697 0.025560434390845887 -0.05985243951448209 0.025669137733873144 -0.1762462038444549 0.2356648038002025
4095312000.0 -0.1971103221685014 0.19247583359197495 -0.058877439934375685 0.02793877908757808 -0.05877015773742185 0.02804526729109226 -0.17762209777821364 0.24124454970680625
4096875000.0 -0.19452567436129387 0.19426851263717226 -0.057650562448821996 0.03026709790145467 -0.057766080279406766 0.030380580779014288 -0.17979650396334376 0.2443610394498607
4098438000.0 -0.19151547278564604 0.19612574385515386 -0.056298186859807364 0.032555164753434486 -0.05660731412604991 0.03265410259591923 -0.18247372009964413 0.2460527261828524
4100000000.0 -0.1888945217208534 0.19808087457534154 -0.054977550048069077 0.034976957303695974 -0.05539393361126869 0.03484747836053649 -0.18394504445987403 0.24585897458456102
4101562000.0 -0.18590617221699962 0.19960185310570028 -0.053590237646642724 0.037155738258467574 -0.05399520921757801 0.037287963913772156 -0.18492682123159304 0.24509327339385137
4103125000.0 -0.18293662510758144 0.20147882401164613 -0.0522752350172849 0.03949753579301909 -0.05243598300270668 0.0396573869499692 -0.1852261856139526 0.24337944766861633
4104688000.0 -0.18014393799213924 0.20319557256257098 -0.05075735328369267 0.04154784960371773 -0.050848538543175684 0.04201351917843434 -0.18430339842093202 0.2411568902717208
4106250000.0 -0.17711733090217996 0.20476095899539012 -0.049192092786309025 0.04354381228875418 -0.049137800950048285 0.04414113116044296 -0.1817952428521272 0.23776325041851715
4107812000.0 -0.1742488326279118 0.20614893048518332 -0.04739312649864526 0.0454979232319317 -0.04734192582865671 0.04610196092753003 -0.17789210161932267 0.23524092193975107
4109375000.0 -0.17094583315438291 0.20770627334257716 -0.045458194987096606 0.04741580783528427 -0.04536526556650243 0.04787792629831126 -0.17219858793241066 0.23350243875821144
4110938000.0 -0.16762050500848544 0.20929127079166732 -0.04343720742817389 0.04924199787603679 -0.04329395575561895 0.04959856859949424 -0.16581006002067214 0.2337962652836231
4112500000.0 -0.16429897469584887 0.21104046079737487 -0.04137321229221275 0.05112512278980467 -0.04120091855581398 0.05128034267539599 -0.15986137607805528 0.23484308150060487
4114062000.0 -0.1617197285685704 0.21268775324613473 -0.039288080343981666 0.052894279213023476 -0.03908465638419819 0.05292330266971751 -0.1555892727569725 0.23881525226414524
4115625000.0 -0.15897278770829198 0.2146365644949321 -0.03724843424966086 0.05452076547760135 -0.03700770147599841 0.05451564613046779 -0.15245078030706977 0.24256715286227973
4117188000.0 -0.15588474297410237 0.21617818284696544 -0.03497717666523281 0.05601723842803697 -0.03491573305647754 0.05609373410129033 -0.15192095454722399 0.24514763684252727
4118750000.0 -0.15316319214885826 0.2181875933566733 -0.032651573603582035 0.05742722532419819 -0.032531779352506215 0.05763229042719211 -0.15155552379059084 0.24750535440522264
4120312000.0 -0.15066445405343581 0.21953640434812927 -0.030254843849677707 0.05880878629389426 -0.03021771609305884 0.05901442574249858 -0.15201576166708597 0.24706638395900343
4121875000.0 -0.1484665766019597 0.22078134858720885 -0.027822072050528193 0.06014555967456477 -0.027853058366977976 0.06036035945468226 -0.1523785008704948 0.24550561073968355
4123438000.0 -0.14605981251391553 0.22192016626657746 -0.02524047513880296 0.061394817611537596 -0.025454368587432073 0.0615953544302203 -0.15142718991980486 0.24308286120972447
4125000000.0 -0.14348920091621642 0.22263183706855552 -0.022786921421726208 0.06253000217086728 -0.022904310202021057 0.06264860334143196 -0.14990861544396672 0.2393349051723361
4126562000.0 -0.14118009343071133 0.22345189914384844 -0.020402749522797973 0.06344301756263371 -0.02044833975107663 0.0635372811092715 -0.14576088622251027 0.2343901832029609
4128125000.0 -0.13839884629983826 0.22402869388219215 -0.017904005437908564 0.064167331528556 -0.017896307266325094 0.0643614215496088 -0.13919706594668735 0.23023940354749545
4129688000.0 -0.13559689970207273 0.22495021975436175 -0.015365400368698094 0.06483539991434514 -0.015285946186542932 0.06501309446791165 -0.13160860387467005 0.22573512975148788
4131250000.0 -0.13321786695202148 0.22551047773985886 -0.012806243379761925 0.06531942366505211 -0.012554163055055611 0.06568455527835451 -0.12268465485722536 0.2245655173835381
4132812000.0 -0.1305599675355758 0.22613435729529624 -0.010144250736590454 0.0657130302139081 -0.009848482972478841 0.06613366787178894 -0.11243620826205925 0.22565234962136094
4134375000.0 -0.12777557668869347 0.22696971206487387 -0.0075129777881822206 0.06610246675721465 -0.007248134593390483 0.0665406294291149 -0.10165646259481777 0.22907299937583153
4135938000.0 -0.12530818285846756 0.2276560013938394 -0.004811977056559507 0.06649945454112186 -0.00456102790037795 0.06677989853249441 -0.09421037585152325 0.23495855773026586
4137500000.0 -0.12267026255987218 0.22804821963949182 -0.0021226900668547353 0.06677261511820874 -0.0019490338895855521 0.06683180047940886 -0.08861505903682047 0.24253295874891037
4139062000.0 -0.12026640299751554 0.22868859739018196 0.0005983646595585761 0.06682175466149227 0.0008073372713902493 0.06677742772302292 -0.08600219378446898 0.24984247923747163
4140625000.0 -0.11757231417194769 0.22942112962338676 0.003406386386816076 0.06677669841068543 0.0035779717437544947 0.06666484019246029 -0.08580964407503124 0.2557375627497207
4142188000.0 -0.11530711519852394 0.22990866494220044 0.006197230900395795 0.06653823903941987 0.00634787561653626 0.06641024060107614 -0.08721430787315082 0.2609840512217046
4143750000.0 -0.11269033966688756 0.2307830482815547 0.009059967272515412 0.06626546939808353 0.009122957064353288 0.06618808244416415 -0.08962866460448272 0.263619464315287
4145312000.0 -0.11053300416239582 0.231626091130995 0.011753707273530915 0.06575217402748876 0.011807519292644786 0.0659756480723829 -0.0919708686398449 0.26380631336941385
4146875000.0 -0.1086452820874376 0.23235038591033244 0.01452203543478287 0.0652330658117511 0.014464970940943225 0.06551756419823705 -0.0938350765107598 0.2615742969438386
4148438000.0 -0.10628322055865795 0.23310755061374547 0.01718620054272635 0.06461923692854925 0.017076381172454375 0.06498527192271446 -0.09285433256717486 0.25811523518629
4150000000.0 -0.10443890109882312 0.23365293680460753 0.019806603831192756 0.06393136622961113 0.0197971745198409 0.06434075934150758 -0.09024360416068761 0.25473905255315976
4151562000.0 -0.10275103960179165 0.2343799403240327 0.022452810613980235 0.06330521090265805 0.02254036724307995 0.06353331629048635 -0.08542517882184857 0.25234385528932785
4153125000.0 -0.10095136494107271 0.2348230957030345 0.02491536866426378 0.062471044448274456 0.025327272707548965 0.06276311993646073 -0.07935453319160914 0.25127303186425387
4154688000.0 -0.099003727019844 0.23516489579613375 0.02749366506709408 0.06165348153354072 0.0280480791532199 0.06181380460389792 -0.0729317228031872 0.25291341018800007
4156250000.0 -0.09750234228358144 0.2350349963917372 0.030095500692657803 0.06071468978973122 0.030648750565764542 0.060722798445069254 -0.06692348932497894 0.25573774030778745
4157812000.0 -0.09543984721415465 0.23491034940148992 0.0326401866965218 0.05955299149390221 0.03313923433124382 0.05953872218668566 -0.06262749108146934 0.2613097664755887
4159375000.0 -0.09321682226180288 0.23494470044032917 0.03521807072628117 0.05831646593447313 0.03559074221150108 0.05828155468593293 -0.06023399872605815 0.266348411450881
4160938000.0 -0.09071015700744298 0.23505203656008758 0.03780897538396242 0.056948082300012456 0.03793976720538495 0.05671216599917209 -0.05995905296675501 0.2719372691305759
4162500000.0 -0.08840082332210616 0.23499979366001128 0.040173947853256585 0.0554503715407101 0.040370229550206936 0.05530259032804828 -0.06201772588732106 0.2770015302491201
4164062000.0 -0.0861546338693132 0.23493291392392046 0.04259142221685307 0.0537537630655266 0.04262873704431289 0.0536619981599314 -0.06508696552057075 0.27972552923036015
4165625000.0 -0.08352313819788518 0.23505318199119862 0.04488374306339156 0.05210818377285482 0.045036352182620976 0.05209779850988673 -0.07009632534489095 0.28099386094935047
4167188000.0 -0.08066992421696047 0.23546566018060847 0.04715070899756968 0.05030674349592841 0.04727366589579165 0.05034480449368872 -0.07468243891951157 0.2791112399249808
4168750000.0 -0.07818192557209655 0.23531721205136374 0.04911011104168442 0.04853696906893065 0.049378024622159025 0.048623849792520456 -0.07843438882985794 0.2739318892548468
4170312000.0 -0.07531845915606133 0.23555712045540325 0.0511470647553838 0.0463936530600784 0.05139391787001449 0.04658336244636991 -0.07847312718215536 0.2671433391775128
4171875000.0 -0.07258860513499124 0.23582287084918838 0.053051785351828924 0.044253378443187004 0.053383949725500666 0.04430633821046447 -0.07534954898472457 0.26005329238661623
4173438000.0 -0.06976317926957906 0.23581013910221735 0.054920977584258145 0.041800837924313994 0.05515773887235154 0.04188666851267716 -0.06926078928272314 0.25347315240817647
4175000000.0 -0.06721634187931996 0.23621274161752964 0.05668909362442978 0.039429192607864136 0.05699471675145305 0.03944430469352011 -0.06082924556127191 0.24931771455523613
4176562000.0 -0.0644896500602293 0.23593247665872408 0.05845040261510746 0.03699010889726971 0.05858564791800885 0.036789170546492896 -0.05321157629992967 0.24845495170903556
4178125000.0 -0.06196706785840705 0.2363352846009876 0.059930764767778054 0.034408533602896176 0.06004716422740509 0.0342151811545533 -0.0449806892145065 0.24812580623835254
4179688000.0 -0.059463362694312585 0.23633741322186289 0.06120454555512546 0.03174465784838954 0.06151786925965665 0.031620023445975795 -0.037712015130755554 0.24976027557466884
4181250000.0 -0.057139932226387614 0.23642867625979525 0.06248787529976978 0.02907987446758422 0.06273984996583185 0.028932441128730734 -0.030882163935612255 0.2522005577394005
4182812000.0 -0.05463240148177111 0.2364037131045608 0.06369664236430278 0.026275611855582835 0.06396412142972344 0.026254583349249894 -0.026317224600955782 0.2562440362659573
4184375000.0 -0.05204109659853967 0.23605575212970648 0.06476575391023374 0.023638426994303248 0.065031817826419 0.02341438377011772 -0.023020195993533544 0.26020345980274584
4185938000.0 -0.04980163469796854 0.2353275621903598 0.06581572827121408 0.02091079611135934 0.06603607690390911 0.02059651831972818 -0.02052924688098916 0.2642948599641841
4187500000.0 -0.04683052979899554 0.23462870673251554 0.0667559388285302 0.018022389514801954 0.06696497256226445 0.017806544480561144 -0.021200951180948894 0.26734065368658655
4189062000.0 -0.04437598860179872 0.23364400567710092 0.06752970566915244 0.015277157974655163 0.06774811347623579 0.014962267178317909 -0.021705632195752604 0.26840128971618077
4190625000.0 -0.04167379907194028 0.2325612598006408 0.06817700128584221 0.012442392257103295 0.06829740405283037 0.012136273132768481 -0.023325557044407905 0.2677578641774415
4192188000.0 -0.038969649368667564 0.2318143866241599 0.06871923884359724 0.009560394048027806 0.06868748737593575 0.009293416286209673 -0.023073516784996397 0.2635914163245816
4193750000.0 -0.036089673378838685 0.23112124840457152 0.06903863718705461 0.006578392181430731 0.06896814567760938 0.0064397259711574915 -0.021042330769692575 0.2599018477694779
4195312000.0 -0.03296722594048006 0.22997947401515406 0.06918564301542414 0.0036510839837488158 0.06916507688233203 0.0035606345412938245 -0.016399136675392792 0.256125112174775
4196875000.0 -0.030160819348142187 0.22935729031956284 0.06924720090165405 0.0008318478730396706 0.06930638549557411 0.0007759411318693587 -0.010715722229837958 0.25406888452172915
4198438000.0 -0.02755694189033585 0.22856878756156387 0.0690614201062069 -0.002032128800329669 0.06928873319839723 -0.0019871734700301173 -0.004420326270219117 0.2533784547899883
4200000000.0 -0.02489738361024081 0.22792566206581874 0.06891144547237842 -0.0047457540428522725 0.0691435335169009 -0.004733580077788731 0.0010204176899821739 0.25358455248478257
4201562000.0 -0.022168940843262437 0.22723403885575894 0.0684478820453989 -0.007489834460217811 0.06887982992518082 -0.0074984660249643705 0.00739877197386903 0.25408627547397383
4203125000.0 -0.020277774359957236 0.22650709523381732 0.06796887295663993 -0.010189681634979906 0.06841234483441894 -0.010388214869295262 0.01257463458211207 0.25608740823440945
4204688000.0 -0.017837460681252193 0.22578752951004527 0.06756320580442159 -0.012929898945683497 0.06792043366554902 -0.013267453742462661 0.01672762220085678 0.2589517358952494
4206250000.0 -0.01593338244538334 0.2250376985149476 0.06708266794947448 -0.01564799503990563 0.06719932384361009 -0.016243910087282792 0.019349130941198757 0.2630778632467019
4207812000.0 -0.013896196102063307 0.22436571808450284 0.06646159359979083 -0.018409843136850443 0.06648475650856575 -0.01893536430493376 0.02128415208925636 0.26626153729087115
4209375000.0 -0.011718751814043095 0.22377813674512792 0.06568650475300303 -0.021219774774369662 0.06551741274995662 -0.021681585585663087 0.02093569448697531 0.2684569772383204
4210938000.0 -0.009847891076799719 0.22285903287289333 0.06473760323981392 -0.023993833375361664 0.06455612871162114 -0.0243465515157406 0.01929850928814163 0.2703213156404374
4212500000.0 -0.008395365977405728 0.22223231433934673 0.06363351040694573 -0.026790830718353573 0.0635683386879979 -0.026934813837342905 0.0177197250343628 0.26964468105042666
4214062000.0 -0.006737795866917667 0.22152654088796456 0.06248265715409434 -0.02956775630539685 0.062495232817603094 -0.029548100888415068 0.01630515742155018 0.26815492108064215
4215625000.0 -0.005244285760810422 0.220479213793032 0.06123081437222108 -0.03213086344128503 0.06142329932043848 -0.03218448314041758 0.015959843510057595 0.2650288422494988
4217188000.0 -0.003632509864563884 0.21947966692379922 0.05989662702821968 -0.03458684406966689 0.06015717131762745 -0.034719758952562754 0.01626105202540621 0.26097464043459884
4218750000.0 -0.00197829438331651 0.21848071395288246 0.05850852604786752 -0.036944031126407845 0.05881717130675396 -0.037255274312583006 0.017754691534589095 0.2564860930653624
4220312000.0 -0.0004195499263365757 0.2178520341865752 0.05700603933062994 -0.039228170156210204 0.05726664138702817 -0.0397512038264465 0.020645511545078318 0.2520254856981592
4221875000.0 0.0015615648466602453 0.2166610543098215 0.05534332933064872 -0.04154844061675775 0.05550893853380712 -0.04209486395627679 0.024798985009284773 0.2472762554849618
4223438000.0 0.0033149621839749757 0.21612658075971952 0.05365399658321183 -0.04390907532379703 0.053610584713066116 -0.04443814646629017 0.030389886316274907 0.24344742745125358
4225000000.0 0.005158794449756968 0.21567626776364515 0.05188808148525777 -0.04622239144398462 0.051743725762691144 -0.04666882833092118 0.03719224105392044 0.2418982748629888
4226562000.0 0.007006503088535113 0.2152375858253539 0.05001344219489621 -0.048358527774212 0.049818890610043944 -0.048799064603562446 0.04311325807414072 0.24229477362990834
4228125000.0 0.008361497329090754 0.2148202404341443 0.04806804076227666 -0.050483718545510425 0.04785984488335403 -0.050789589616127825 0.04838575124222262 0.24437069839237732
4229688000.0 0.009963583084775 0.21451985239369328 0.04590272374560369 -0.05253871406596766 0.045794244292437225 -0.05275357403082173 0.05117846477366385 0.24676699324123755
4231250000.0 0.011654511854409777 0.21416356827898997 0.04367087966464862 -0.054497601450276247 0.043649866428904005 -0.05465081011938446 0.05241912504404965 0.24927481399194726
4232812000.0 0.012830593350217613 0.21383627175037337 0.04138048345200141 -0.05639154025946394 0.04136717421690297 -0.05659041613814561 0.05275863838261057 0.25055973929006203
4234375000.0 0.01418965898661394 0.21349353083786818 0.03897785249793015 -0.05826421255326635 0.0389654521506786 -0.05851347598658721 0.051970360067847596 0.2509311107550693
4235938000.0 0.015226543528471082 0.2129004829182733 0.036525016939301845 -0.05991149146566144 0.036351545801591875 -0.06028621090070725 0.04976463005364307 0.2508401741641894
4237500000.0 0.016612220364408986 0.21239601052432944 0.03401313592013495 -0.061591729395638346 0.03389910122089466 -0.061930897987378504 0.04792887942958611 0.2493065764340868
4239062000.0 0.01778637899812564 0.21167961782097433 0.03144976347220817 -0.06309713165880006 0.031178625317275905 -0.0634045180412983 0.04459725839110614 0.24567175452730067
4240625000.0 0.019044183681267944 0.21077580524299933 0.02878170578963813 -0.06448743740967021 0.028539937530769076 -0.06463709725517226 0.04333271855193245 0.23911312640500812
4242188000.0 0.02005125894814665 0.20974221572784407 0.02602354725741849 -0.06566342667931853 0.025833945047419465 -0.06573263875575328 0.04367576503541251 0.23167825973875847
4243750000.0 0.021244671546308554 0.20874538935423861 0.023197921155757657 -0.06660430899322325 0.02310350292476706 -0.06681617351532786 0.04618829877001242 0.22340166354239166
4245312000.0 0.02267156302644428 0.2076336786911687 0.02036731203142847 -0.0674771080627721 0.020338075840512466 -0.06766092135781991 0.05187319936816934 0.21745536521418268
4246875000.0 0.02386504043500899 0.2062485493868563 0.017548565937692554 -0.06811462065975442 0.01752518145875701 -0.06839966605895723 0.05933478830844687 0.21221101019289068
4248438000.0 0.025150865477331266 0.20487549532303953 0.014701357359741898 -0.06868728061605887 0.014803911736313407 -0.06895638066175892 0.06682132665231556 0.21045603424883066
4250000000.0 0.02663765647119781 0.20348646689310967 0.012078555077787352 -0.06907373929056071 0.011818060696978473 -0.06942841377438773 0.07281909606213026 0.2113273620191174
4251562000.0 0.02768218681239316 0.20239279404742813 0.009238100353665379 -0.06941362503398503 0.008923770702071652 -0.06973061929426198 0.07735263529132311 0.21398569862482472
4253125000.0 0.029335936712337113 0.20096999273167235 0.006120442161790881 -0.06957947592936407 0.00580889382912924 -0.0698726176682262 0.07883727366711572 0.21739091448336903
4254688000.0 0.030488853355525234 0.19956984239978404 0.0030853207581343777 -0.0698971617448943 0.0027805549865154763 -0.06994066138311718 0.07902669045770971 0.21922979586137406
4256250000.0 0.03175343648719718 0.19834952961560623 -0.00013081948793082623 -0.07001876561525876 -0.0004370438907107668 -0.06990712863031202 0.07694653031201278 0.2210011362486661
4257812000.0 0.03287238565608206 0.19721529470708038 -0.0033671802090050056 -0.07011075506647654 -0.0034907215770363827 -0.06992775966040812 0.07401480223445099 0.22111872677136743
4259375000.0 0.034061851781456425 0.19636195281101862 -0.006583342628405927 -0.07005950650587678 -0.006514128508875056 -0.06987576991977497 0.06886249890502805 0.2196821382774585
4260938000.0 0.0347454521447244 0.1953772133915753 -0.009658689148398942 -0.06975225228035394 -0.009538686524522678 -0.06968353582543059 0.06364708609756456 0.2146294550985237
4262500000.0 0.03532652675950144 0.19416963730745088 -0.01267093299902291 -0.06924821364660061 -0.012517438854750195 -0.06945361356807588 0.05874332050175879 0.20858617739053534
4264062000.0 0.03564135732237579 0.19343707380586203 -0.01555317683525407 -0.06866124942447521 -0.015475358701631343 -0.06917910739304116 0.05842131780694491 0.19902973123384174
4265625000.0 0.036060692263558174 0.1921843667330675 -0.01826068840358391 -0.06810946557053424 -0.018408608709307675 -0.06859151146409644 0.05798380183345418 0.18763467287682026
4267188000.0 0.03626192234398119 0.19102165590703085 -0.02090198840332791 -0.06750398485855365 -0.021333363438008214 -0.06799808112452138 0.06253795678103152 0.17881649296297697
4268750000.0 0.03640550367127353 0.1898808437060815 -0.023477942646924543 -0.06683393600883257 -0.024016002620312817 -0.06720488436911927 0.07026166773509272 0.17095720266515246
4270312000.0 0.036820446824390694 0.18845817834361772 -0.025907658344211017 -0.06617691747071493 -0.026611728321966004 -0.06625304104849179 0.07907511890108562 0.16765542375486228
4271875000.0 0.03677288391602025 0.18725140170934348 -0.028368651515274363 -0.06527122079668443 -0.029057334378035045 -0.06506617540010783 0.08751267776497387 0.16747934737446613
4273438000.0 0.03710205818611075 0.18578483346965083 -0.03088537349153178 -0.0641341681405178 -0.03142955516461541 -0.06374070567199581 0.0925776058304066 0.16987435277789592
4275000000.0 0.037458592310271786 0.1846906599971408 -0.033621408356637336 -0.062827695688696 -0.03392133053202491 -0.06229119794301359 0.09687680388111637 0.1732080410761833
4276562000.0 0.0379367005450356 0.18361575859453813 -0.03635490473503312 -0.061091141074280486 -0.036333768043236736 -0.060801682202450774 0.09693038712716026 0.1777461088354042
4278125000.0 0.0381674965601805 0.18247006011673692 -0.03908851816243544 -0.05932557954898819 -0.03893128171762641 -0.05915586374321871 0.09471645264411545 0.18099944677513247
4279688000.0 0.038838882922228285 0.18158149831781617 -0.041769341640400116 -0.05733950355385462 -0.041431253971435746 -0.05754294307681672 0.09175672696497539 0.1829331665033203
4281250000.0 0.03968670210633437 0.1807342167778217 -0.04425041229684893 -0.05532011399511206 -0.0439969066208 -0.055730684286619855 0.08535687506784881 0.18242779727344924
4282812000.0 0.04031647778034339 0.18010844479863847 -0.046439558641766174 -0.05315629428746767 -0.04647890019541696 -0.05378508609751165 0.08106121381886514 0.17889799347138263
4284375000.0 0.04151599218899009 0.17965568544755903 -0.04854468253787695 -0.05101168635883892 -0.04893603937263639 -0.051578943966699965 0.07575019664753373 0.17509932564690375
4285938000.0 0.04237260754928499 0.17915614873969193 -0.05054828015860834 -0.04894644297437226 -0.05121889630078446 -0.04928037841893444 0.07365734602835028 0.16787083522772958
4287500000.0 0.043363236984205744 0.1793408631592308 -0.052505648234618695 -0.046766027186791 -0.053425742508140445 -0.046892253769597575 0.07356989721333498 0.1610523478083565
4289062000.0 0.04446719226816555 0.17917443345483886 -0.05458896440103186 -0.04463837159504583 -0.05541217314549711 -0.044603572514051754 0.0759292616960349 0.15411267081793498
4290625000.0 0.04526805744431788 0.17936776054246784 -0.05651564845711366 -0.04269395012740806 -0.05734572270648061 -0.04220578748871496 0.08114934595294794 0.14831121926508734
4292188000.0 0.046248932000943516 0.1795297221992349 -0.058497862401287536 -0.04050372697220215 -0.05883959756081311 -0.039939252176046325 0.08720207217747052 0.14554880991937716
4293750000.0 0.04700562927765982 0.17977413849510898 -0.060304583954175865 -0.03815746298516283 -0.06040890716220053 -0.037652760700232636 0.09336503912481843 0.14634139716711897
4295312000.0 0.04763545298881489 0.17980441020895788 -0.061769666713199674 -0.035655405567449484 -0.06177979359356326 -0.03523470217473649 0.09788709279619218 0.1493583470682205
4296875000.0 0.04878240083321213 0.17994752442851258 -0.06325229104359059 -0.0328769121646661 -0.06312197412061984 -0.0326631037905923 0.10042092792701325 0.15295253947297557
4298438000.0 0.049551550746972706 0.1798381554388468 -0.06451540250063706 -0.02997100164598875 -0.06439020546512912 -0.029971330155711105 0.09996906635951484 0.1579457424403945
4300000000.0 0.05061367479769783 0.17943596998636369 -0.06558827735010883 -0.02708683189013655 -0.06550499126758295 -0.027185568929044668 0.0973053958666242 0.16223546023944355
4301562000.0 0.051868951647158164 0.17934676868037963 -0.0664002523917835 -0.024129129444398323 -0.06658646993873345 -0.024327778809411966 0.09228913104806276 0.16549097307998514
4303125000.0 0.052862877504109625 0.17857057116466077 -0.06718243850345466 -0.02129776931288402 -0.06748254687877091 -0.021421294434758632 0.08650227623895872 0.1664061813718243
4304688000.0 0.05440607391854412 0.17795920421592326 -0.06778019029677267 -0.018279865005956426 -0.06818037676158221 -0.018402416545612598 0.07952770068053018 0.16400419986655623
4306250000.0 0.055652986849022784 0.17746501880746424 -0.06852552296287233 -0.015316804195500059 -0.06885213183590962 -0.015418208998674828 0.07382908262938451 0.16034564507844812
4307812000.0 0.057190895308196626 0.1765520216859604 -0.06911714125189845 -0.012368303822101542 -0.06954418588273396 -0.012374700473207174 0.06971020502865426 0.15383771260762075
4309375000.0 0.05856627018347113 0.17578007366997575 -0.06970458634053958 -0.009462445549718302 -0.0700942042426175 -0.00933170541909274 0.06851577092815266 0.1461982315560077
4310938000.0 0.06024092998064109 0.17521449459802746 -0.07012007242456249 -0.00662980901494049 -0.07059461599995007 -0.006375779389276278 0.06921970498533803 0.13889192582959625
4312500000.0 0.0618821760032608 0.17425154451575126 -0.07043887792584759 -0.003693555274109445 -0.07090782241606793 -0.0033981034437033635 0.07202523118093655 0.13302823897450258
4314062000.0 0.06349446084553373 0.1737204726139389 -0.07067945277637427 -0.0008515711573410115 -0.07099381110819941 -0.00043053700644988174 0.07688960369045926 0.1282200213958251
4315625000.0 0.06497923417449629 0.17262185581759867 -0.07060553256646945 0.002026725371975958 -0.07086037941237833 0.002544111466829141 0.08199993710443886 0.12487831212674276
4317188000.0 0.06663873792525307 0.17195718857776068 -0.07052826302496525 0.004980594320191667 -0.07052688793694727 0.005444893483754819 0.08579763252321747 0.12558254226668378
4318750000.0 0.06776102783359868 0.1711896964746269 -0.07019670798129264 0.007845567140680125 -0.07004238050360166 0.008348666760773357 0.08876290446973253 0.12479681600959876
4320312000.0 0.06878881884811833 0.17057309014907304 -0.06981934137510527 0.010834695387017831 -0.06947780627750165 0.011010280666262771 0.092769284428633 0.12555710835361011
4321875000.0 0.06975109031079073 0.16959857492739852 -0.06928181674020804 0.013668660047095845 -0.06887619411070955 0.013758365654336104 0.09482767424747847 0.12779817617246966
4323438000.0 0.07045237851860121 0.16873597027409123 -0.06842780936661373 0.01668904950634244 -0.06831587815717836 0.016473303018334086 0.09438106574836186 0.12947042500823236
4325000000.0 0.07108544809246474 0.1677712259516085 -0.06752832304521737 0.01949229860755096 -0.06766400342911974 0.019183116516237757 0.09247156992976492 0.1305484287935261
4326562000.0 0.07148255332446701 0.1668905689683759 -0.06641525727743698 0.022257046389295165 -0.06688985653588389 0.02203394975040368 0.0899212732893215 0.12947676353103055
4328125000.0 0.0717237614745454 0.1656613374726752 -0.06523677958365202 0.025023645141152684 -0.06584091063974691 0.02485612918706133 0.08766350223072664 0.12550803183538758
4329688000.0 0.07199265050188572 0.16434221435569193 -0.06401573048861872 0.02767814267491187 -0.0646602601149066 0.02779604821991458 0.08473262048115524 0.12023565249346467
4331250000.0 0.07217638189689819 0.162676966634728 -0.06265044113169568 0.030339617815093988 -0.06323744963818254 0.0307293969236588 0.08633400881563008 0.11380993803209107
4332812000.0 0.07218450307098635 0.16152281496726484 -0.06132073428047512 0.03292669490829938 -0.061711197809687326 0.03361556621241195 0.08917168808218234 0.10722369833352798
4334375000.0 0.07235485390962919 0.16028876878978066 -0.06005183318520357 0.03555041486231967 -0.06019759103814346 0.03632377387040067 0.09582882094490339 0.10095920158889313
4335938000.0 0.07239959012176045 0.15930742011111854 -0.05878715295654952 0.038136569196732126 -0.058627175511983896 0.038772713635909395 0.10239870527689468 0.09700134486659295
4337500000.0 0.07248988956982896 0.1579856891548792 -0.05742222610779009 0.04064287220649861 -0.05716015363363592 0.04111710239440071 0.11065284173124029 0.0948283118315627
4339062000.0 0.0727474091440134 0.15688161518167384 -0.05609857402531924 0.04305612036443758 -0.05550644872011383 0.043257583494182815 0.12069041360252762 0.09333685339105349
4340625000.0 0.07265476419265242 0.1557796078892844 -0.0544058123605425 0.0455433167266112 -0.05403392922608335 0.04547522657415329 0.13078309968288873 0.09572282103369449
4342188000.0 0.07287616224171908 0.1550414377513575 -0.0527576119234049 0.047791935664041045 -0.0526509739009022 0.04772790545721898 0.13976526042328985 0.09844253751383757
4343750000.0 0.0730238440835253 0.1541151118691776 -0.05082369070619699 0.050117809683211244 -0.05076721512249033 0.04996193303013661 0.14973670354959212 0.1052363821674176
4345312000.0 0.07300433889250603 0.15334483571368468 -0.04876509272527565 0.05204547750226062 -0.04893493836839681 0.05206986928285352 0.15639491765540894 0.1144426935242345
4346875000.0 0.07311435463415601 0.15274410965971644 -0.04687298817165237 0.05383831003637823 -0.04706753427031458 0.054082954028195206 0.1585828825466536 0.12450251501151392
4348438000.0 0.07308855134756012 0.15228618034926997 -0.04462106910673075 0.05555375557767029 -0.0449298002889282 0.05600956947113233 0.1581633290391377 0.13466125364649809
4350000000.0 0.07331493790827477 0.15195870502993106 -0.04237947720104952 0.05713763597257076 -0.042517190953381474 0.057556873097814085 0.15296011785675243 0.14332035639168472
4351562000.0 0.07312934720703002 0.15147776840218835 -0.04007063803978057 0.058520722999248376 -0.04005858647243023 0.0590577480462765 0.14606583110757249 0.14763751739247316
4353125000.0 0.07335483905901434 0.15118771090149233 -0.03756315142311701 0.05990016942896525 -0.037451292143699286 0.06026834143470945 0.13850610240260686 0.1492622533335563
4354688000.0 0.0731591350312635 0.15090466136329783 -0.035028170621303485 0.06118447662515742 -0.03470020819279599 0.061434091695045503 0.13160600966930114 0.1464638884658842
4356250000.0 0.07332389490581993 0.15041507630933357 -0.03229443932231387 0.06234463735327079 -0.032008103605439674 0.06255652069903739 0.12720646966855637 0.14232549697358174
4357812000.0 0.07319673493366058 0.15000018478292343 -0.02957760700324653 0.06351860327647615 -0.02937453251390438 0.06342588989797623 0.1242529617782944 0.1361230279519062
4359375000.0 0.07344404067911602 0.14966600811596217 -0.026675186980401236 0.06455444546480309 -0.02657077331062455 0.06461867143258838 0.12462038939855888 0.1305231622995356
4360938000.0 0.07328724185589705 0.14903899716196994 -0.024034823747769395 0.0656791997645814 -0.023921825591451715 0.06576751434206317 0.12632915496401237 0.12817790413781294
4362500000.0 0.0735086381949648 0.14832616420386083 -0.021086950571237655 0.06653080346834477 -0.02104760519689154 0.06678699787300175 0.1296258792453928 0.12611178798905875
4364062000.0 0.07398286182991744 0.1481226023676242 -0.018274325622328065 0.06733929269674042 -0.018139567228584456 0.067696766101853 0.13390344429089177 0.1258728331544054
4365625000.0 0.07461333993228284 0.14735796056800884 -0.01550680320620324 0.06805991210858055 -0.015245935800460408 0.06840539820254371 0.13928182701672287 0.12776155780419884
4367188000.0 0.07509944355617663 0.1468474606495957 -0.012558975961601437 0.06870449883514435 -0.012312164779845222 0.06899588879068232 0.1428823816704483 0.13213062013858648
4368750000.0 0.07571830446359772 0.14624123232960487 -0.009718097086426174 0.06930311352313723 -0.009331715846060126 0.06956165942672696 0.14477697588659383 0.14039270608016854
4370312000.0 0.07653018999942719 0.14585915337324679 -0.006805115049110385 0.06976840988810447 -0.006640158382244553 0.06992565772438085 0.14328565624317313 0.14901401024101132
4371875000.0 0.0771826399031616 0.14529431728344946 -0.004099581283669738 0.07023693614781977 -0.0037519461222154968 0.07018002457286704 0.13677224373196162 0.15777159935671922
4373438000.0 0.07785358540648549 0.1447643458269384 -0.0015066183462309067 0.07047733861509028 -0.0012917002459692706 0.07053090546044795 0.12734654892775776 0.16441100241819642
4375000000.0 0.07849082998106595 0.1443278865345618 0.0012627566094966904 0.07053068012404964 0.0013262218738361489 0.07058456335907773 0.11673716437201156 0.16514418113081544
4376562000.0 0.0792708386767637 0.14377746495400523 0.0038997072676372345 0.0703155196985002 0.003978373627337622 0.07041137502433496 0.10482578185476189 0.16286810781699107
4378125000.0 0.08012908314957796 0.1437883112070224 0.006645657101483849 0.07001126871457099 0.0068132186466641495 0.07027455089318353 0.09492543560286566 0.15475610067180565
4379688000.0 0.0808663598178687 0.1432494153809872 0.0095872681614935 0.06956176749238417 0.009666414449008443 0.06985262465322459 0.08868873242542528 0.1455880304576308
4381250000.0 0.08130931633490665 0.1427507135896173 0.012480379776245082 0.06906187492392227 0.012644372028110648 0.0692959551699847 0.08625029933967496 0.1348780666966413
4382812000.0 0.08190194681974891 0.1425154514277334 0.015312395788566 0.06852074828661946 0.015503212438328995 0.0687373484417047 0.08678154956106447 0.12456990189750829
4384375000.0 0.08230360979915768 0.14183894851753978 0.01801350316459286 0.06781609207597265 0.0183599397911473 0.06790815315151714 0.09077516448153787 0.11644328154459894
4385938000.0 0.08257292734302116 0.14148728416455209 0.02070569982133732 0.06690538823133292 0.021072902635232406 0.06697256029434849 0.09672489629666543 0.11007606111224473
4387500000.0 0.08282284295940776 0.14081145193222924 0.023469069549598733 0.06576206949706526 0.023799914831902115 0.06588003953113329 0.10377044081068743 0.1064543806041463
4389062000.0 0.08342268227808378 0.14022709877239858 0.02620942326846438 0.06457315006586452 0.026508219603014402 0.06467748114094667 0.11073512428327559 0.10669464158491643
4390625000.0 0.08343178173632604 0.13963825821031767 0.028971906769582233 0.06345145917451271 0.029180958133612635 0.06349076320505603 0.11624650623733941 0.11067631894433991
4392188000.0 0.08390491849044485 0.13909342164671362 0.03169039101212597 0.062178668834326295 0.03183290100455195 0.0623629906424425 0.1183242619902574 0.11597271492188949
4393750000.0 0.08436678642770337 0.1384287450639834 0.03426991702846272 0.060903025577322197 0.034539578283559295 0.061110283370718915 0.11703471300693956 0.1221689951302608
4395312000.0 0.08473528347223158 0.13791352852940905 0.03674671469453325 0.059577023693109854 0.03706339022304721 0.05964624320574655 0.11249909301194826 0.12575424775206265
4396875000.0 0.08528269073270452 0.13756303740782935 0.03915469451406247 0.058062515473122224 0.03945309825032076 0.05802197620126915 0.10615936058764752 0.12733555251955594
4398438000.0 0.08567231039920264 0.13715105414853862 0.041563661477583544 0.05638116948489619 0.04199231457521813 0.056388549408550835 0.1004289176812179 0.12523890013540356
4400000000.0 0.08609622992195833 0.13699514927541553 0.04401138534405069 0.0545072063403233 0.04430232199924578 0.05461318310280736 0.09542488263729962 0.11987609995451065
4401562000.0 0.0865649988991576 0.13691793681045974 0.04626856359848439 0.0526779448798939 0.04650676063394898 0.05265028468787959 0.09301916263219771 0.1133139064067174
4403125000.0 0.08683582448260858 0.13675200971085033 0.04838715925488367 0.050760998234301614 0.04866751781908054 0.050762335933275754 0.0932966533891443 0.10643385425009562
4404688000.0 0.08723284530505185 0.13709882549772828 0.05040253184721266 0.0487603992483781 0.05059741678618748 0.04890445762111274 0.09691825793065606 0.10032898280424901
4406250000.0 0.0874045676979166 0.13702776977197215 0.05216365260822965 0.0466210084710942 0.052375748203732836 0.04668478841441653 0.10251953578011139 0.0959424953773427
4407812000.0 0.08784583203824732 0.13739935465527459 0.05390081492056922 0.04440831546294607 0.054224439299973226 0.04444950090626616 0.10958985578752235 0.09427634318275495
4409375000.0 0.08818500174960493 0.13753494126755555 0.055635484776855856 0.04208672379237542 0.0560077255751163 0.041961282260806 0.11776408657001908 0.09646541904362066
4410938000.0 0.08838317042432174 0.13774817101403328 0.05732051227466072 0.039638217942708436 0.0577520272431166 0.039610833083291046 0.12420251284587051 0.10254545332437018
4412500000.0 0.08850158919117522 0.13804010574288478 0.05912068931190838 0.037218742568859445 0.05935639631749888 0.0370389304549284 0.12796682444879992 0.11137077851551876
4414062000.0 0.08880477261153254 0.13831732318688592 0.06070890091558018 0.03463264139552658 0.06102908056871752 0.03457117626973975 0.127042700330873 0.12150022298670546
4415625000.0 0.0886931173525625 0.13836974918824546 0.06220553323839917 0.032119841384696125 0.06247722272515853 0.032009102181806255 0.1221671134912815 0.13090827665240967
4417188000.0 0.08903518106297315 0.13864938810914515 0.06362672778625435 0.029439473776424703 0.0637581371077262 0.029337022206977675 0.11440024888313634 0.13807677820402778
4418750000.0 0.08921339558869046 0.1387117353563129 0.0648552548943101 0.026729696411480038 0.06498750292302007 0.026666517321371232 0.10447398801906188 0.1413619532364024
4420312000.0 0.08933471484584121 0.13871742267076015 0.06598677489671328 0.024074133306840637 0.06614908109856027 0.023935617731018724 0.09495200556318047 0.14257470160538444
4421875000.0 0.08956912419985125 0.13905217733406075 0.06705335497034849 0.021359274459848962 0.06736681083285381 0.021290994922374303 0.08671936790375392 0.1392739133207072
4423438000.0 0.090080543356226 0.13904775481032938 0.06791704269686305 0.01868813867597007 0.06824384793235364 0.018584241670023316 0.07938532327242705 0.13524378487292568
4425000000.0 0.09059148458566563 0.13893759950521214 0.06868204514868398 0.015972231900710798 0.06908441185696387 0.015813193820211235 0.0730017414300211 0.1298638513035087
4426562000.0 0.09107012060561119 0.13908010323186845 0.06935483454135259 0.01322248788323107 0.06966678408066883 0.013025739794606665 0.07022210175540006 0.12246478761528411
4428125000.0 0.09171392219564081 0.13941743803582748 0.06992687321759544 0.010376437014557588 0.07019310162779542 0.010108610991543416 0.07011519268525954 0.11717828780512328
4429688000.0 0.09221201018997151 0.13937573063013756 0.07033038416003262 0.0074806950179424755 0.07037718811731836 0.0072081553832278695 0.07267297970874005 0.11265956732653734
4431250000.0 0.09281984240811283 0.1395200583845832 0.07060109752416216 0.004441166705723211 0.07057478472423799 0.004285183859650044 0.07572447118108543 0.11096702611207052
4432812000.0 0.09358379692599517 0.1394552491165333 0.0706733155305069 0.0014292431481444697 0.07060900790295654 0.0013245367340802027 0.07840753221170794 0.11188295608886142
4434375000.0 0.09394501933211606 0.13976637428723582 0.0705715441661587 -0.0016002212110314783 0.0705474012135706 -0.0016356470764666397 0.07944202412114366 0.11570412034780182
4435938000.0 0.09455204185969983 0.1398932930815452 0.07027971257599011 -0.004799349167543979 0.07040946484655411 -0.004683265710036707 0.07581994308119047 0.11918094602287671
4437500000.0 0.09507012492441462 0.1396604053975578 0.06999684735254051 -0.0078031983496048484 0.07016091045547689 -0.00771794842813656 0.07157896676700946 0.12189234127345763
4439062000.0 0.09531762071891269 0.13948023451055652 0.06928852335756057 -0.010797302228171712 0.06968185807139973 -0.010888046525994417 0.06361378875543265 0.12409092538342523
4440625000.0 0.09608410322056678 0.1394229497096235 0.0689927802891757 -0.013926347554764502 0.06934977314317782 -0.01400332816088781 0.05670866820289262 0.12016810138745365
4442188000.0 0.09628766665834643 0.13957566021658335 0.0685772051682383 -0.01688622535490017 0.06886334953752674 -0.017119489260820214 0.05011078783108138 0.11487697914406773
4443750000.0 0.09694427200051285 0.1390112502321318 0.06819016708966255 -0.01986899058871191 0.06832346391544011 -0.020202520751645317 0.045740021819534384 0.1072666298999671
4445312000.0 0.09734112189637345 0.13877422523740396 0.06775405930569064 -0.022821939685147577 0.06781854420272511 -0.02308192091513116 0.04269711817981641 0.09763931236596309
4446875000.0 0.09775779921176246 0.13863592245556983 0.06720710685618815 -0.02570253542976745 0.06717316856136211 -0.025874675823360675 0.041189352034432046 0.0888030468346028
4448438000.0 0.09857248849759037 0.13810568723628686 0.06644970344502038 -0.0284955753438257 0.06632135637770568 -0.028655717171517416 0.043902199181507714 0.07780813707171896
4450000000.0 0.09879242925687766 0.13786635529356014 0.06551637811363821 -0.031461643511862765 0.0654960813438621 -0.03145908561945519 0.04638119957992401 0.06577206571796547
4451562000.0 0.09951703645665924 0.13736603129591324 0.06454369620183789 -0.03417927070278051 0.06454716881045093 -0.03413415756274808 0.05585397804342464 0.055114319543530466
4453125000.0 0.09953243825466843 0.13641605745255028 0.06329928963494762 -0.03675021456813787 0.06336851222288117 -0.03670166050206962 0.06601580806375984 0.04783502648237121
4454688000.0 0.09963756982533106 0.13591329740708696 0.06201997716264749 -0.039293044024894 0.062258904822502986 -0.03938669875260793 0.07584803675461094 0.0414874828050564
4456250000.0 0.10019277339885477 0.13474193565180267 0.06063255537599202 -0.04146069525749928 0.06089492492334397 -0.04169378895866311 0.08966588879093591 0.04274733444019031
4457812000.0 0.10108260813472163 0.1344419709719552 0.05908155483955923 -0.04375539380809837 0.05930050176123465 -0.04400925065553152 0.09945440937180325 0.04403224163406632
4459375000.0 0.10177359067385496 0.13414595147301087 0.057385238875847414 -0.04588614411260131 0.05756798066584502 -0.046156710737026645 0.10772706894837081 0.050479658060274366
4460938000.0 0.10206446576518557 0.13358586473206216 0.05554965721588869 -0.04799185559591557 0.05555970761681044 -0.04842675126831536 0.11421007613546276 0.05593253561644717
4462500000.0 0.10290392950518944 0.13284803428830871 0.05344060802930379 -0.0502253556875396 0.05327692270769828 -0.050585575741926375 0.11606557309400624 0.061476815170667144
4464062000.0 0.10333527956156958 0.13233492473744304 0.051263066542311435 -0.052445819998315456 0.05113892836206432 -0.05257686168634017 0.11558894354393662 0.06442899794128665
4465625000.0 0.10389879210096514 0.13183385068013115 0.049011182405387536 -0.05472628178523579 0.04885815050885354 -0.054725000046941565 0.11816610539435837 0.06867386476051164
4467188000.0 0.10446349139260959 0.1312998704195128 0.04649466772629188 -0.05675741486699207 0.04646072154452513 -0.05675989214152755 0.11675603307762164 0.06994327562604183
4468750000.0 0.10492544134696584 0.13081574613973532 0.04402652207181648 -0.05883371809621485 0.044074553251425744 -0.05879701002166025 0.11909691842922802 0.07409774552589418
4470312000.0 0.10553025377978753 0.13012996119432182 0.04130023860612338 -0.06065835605450701 0.04149741280900626 -0.0606411642267618 0.11822007324873883 0.07491660392093272
4471875000.0 0.1059083265163884 0.1296723936142248 0.03868059670430451 -0.062283719776386394 0.038927474222007256 -0.0624175730342794 0.11969524155305197 0.0757460853520568
4473438000.0 0.10637272647903843 0.1289796853545582 0.0359761384351364 -0.06380000852340471 0.03631502663646155 -0.0640902678415346 0.12091668286099494 0.07488812898343107
4475000000.0 0.10717145582714427 0.12856864042265972 0.03335788845930741 -0.065293239376888 0.033397495674204684 -0.06565169613012561 0.12392897855719584 0.07225797732631134
4476562000.0 0.10774779196132896 0.1279054656222463 0.03077474021933718 -0.06672722795454869 0.03074602762480239 -0.06718268449907434 0.1317414465615369 0.06929490201352151
4478125000.0 0.1081018866142298 0.12733443862174113 0.028241496180007035 -0.0681385304586157 0.028028020626239516 -0.06859881419155461 0.13979219003429327 0.07270737692262567
4479688000.0 0.10875792846171349 0.12674240426152433 0.025664759364597434 -0.06963026188032499 0.025446451466123694 -0.06992588379390997 0.1496094747403395 0.07509100925515148
4481250000.0 0.10936042621388492 0.12601737936572255 0.023136829518994175 -0.07093825340644853 0.022728478485313564 -0.07101814478804103 0.15582598320177687 0.08255693827123618
4482812000.0 0.10983247076536881 0.1254799736533389 0.02038166060095292 -0.07204647970004224 0.020300215623732097 -0.07199454203535251 0.1619389136662943 0.09216844994902638
4484375000.0 0.11047494659701167 0.12477674842818094 0.017576616028683822 -0.07302661045721938 0.017377787049553325 -0.07289580474496896 0.1646310861013312 0.1023210254401817
4485938000.0 0.110684286819674 0.12428734543712273 0.014566143798552192 -0.07364563466674517 0.014640466710516662 -0.07347202162675119 0.16283024530140883 0.1135026646667924
4487500000.0 0.11166315027518418 0.12374640021099528 0.011370271805753535 -0.07392061314955466 0.011532960662104299 -0.07391887246790603 0.15788562282817759 0.12198168225185384
4489062000.0 0.11214803793078928 0.1233542845103961 0.008139614704444768 -0.07397054253413025 0.008295804588030347 -0.07426524987834068 0.15028459023187823 0.12789278440986226
4490625000.0 0.11290990409280646 0.12305661789806004 0.0047566570081088696 -0.07386746727690706 0.005002022087754795 -0.07424599783715034 0.14101934533273036 0.13121381572476992
4492188000.0 0.11354755575815219 0.12269563684015264 0.0014775137803111798 -0.07367206787187011 0.001604759663729738 -0.0741331510750096 0.13039898276897985 0.1329843985517911
4493750000.0 0.11428202750883132 0.12252781845865578 -0.0016711749983216156 -0.07335561716550798 -0.0018088689314709912 -0.07386638201093935 0.11914369084254542 0.1301000353707388
4495312000.0 0.11477853320048718 0.1222135612876618 -0.004958199969725353 -0.07299591261199856 -0.005258853495796433 -0.07334688307048229 0.10980574394651489 0.12351412710373653
4496875000.0 0.11516060789030506 0.12229619198880508 -0.008015673926792661 -0.07266624479320367 -0.008375283636956117 -0.0729303668959429 0.1033954112991714 0.11474272815822219
4498438000.0 0.11577829378118172 0.1221814941883771 -0.01127968055564598 -0.07222955138648451 -0.011774262971796215 -0.07241032072448603 0.10101795827956836 0.10381200980576083
4500000000.0 0.11633669850302528 0.12218764372634779 -0.014510649749876897 -0.07180238293613952 -0.01497742816401449 -0.07183176707930022 0.10356833383486301 0.09353235268640726
4501562000.0 0.11658440598925027 0.12215261995380919 -0.017944848313674048 -0.07120308260632838 -0.018260929099032857 -0.07121325977954658 0.10861959968585716 0.08581029949797701
4503125000.0 0.11701698735566395 0.1222965484757595 -0.021242424256669442 -0.07048838681803503 -0.02148437697585056 -0.07044951779983058 0.11548490388090205 0.08041529968585924
4504688000.0 0.11769895523673608 0.1223220457093274 -0.02450821782124587 -0.06968490543688227 -0.024657797264127892 -0.06971731165903561 0.12278280652706376 0.07952570919018553
4506250000.0 0.11822811365696742 0.12234308913814929 -0.027548741632145216 -0.06870370666523012 -0.027676668734244698 -0.06863536569584125 0.12848363481192904 0.08054529669395148
4507812000.0 0.11871974933393994 0.12288374796222387 -0.03052807895532382 -0.0675622931523963 -0.030537156111808662 -0.0675636496864384 0.13221243558297918 0.08347211178801867
4509375000.0 0.11941854366587386 0.12307461328775476 -0.03329648411676668 -0.0661499378283696 -0.03323323789948299 -0.06617955899443957 0.13330044850082878 0.08660573182610055
4510938000.0 0.12011391966175669 0.12343061993171292 -0.0359487569621995 -0.06447046028670628 -0.03588949578582509 -0.06470713091472094 0.13193639088019318 0.09001381993599837
4512500000.0 0.12064815081601958 0.12400162366462603 -0.03856999209318268 -0.06265276158615006 -0.03872787894279093 -0.0630222258313601 0.12852839063839214 0.09118636768431307
4514062000.0 0.12135363048499562 0.12471711549351948 -0.041206307091895905 -0.06092336553551111 -0.04129325699184324 -0.061207348492841845 0.12305228132877005 0.08991981626470127
4515625000.0 0.12193926563610337 0.12489218366145288 -0.04377691803726964 -0.05892499409487798 -0.04400759537514873 -0.05935791664549798 0.1185096064953553 0.08518235308603576
4517188000.0 0.12252576765477138 0.1255845213286118 -0.04632469665794946 -0.056948109781444815 -0.04665894939722243 -0.057268749140424846 0.11590875099428645 0.07642317394090953
4518750000.0 0.12322748659591876 0.12620187300050598 -0.04879242525806384 -0.05482608830676278 -0.04937514031451896 -0.05502141998978386 0.11734196434191706 0.06686873034863766
4520312000.0 0.1239347320701501 0.1268398744925392 -0.05126712409001958 -0.05277581315978802 -0.051857781535614 -0.05271171374348201 0.12350779565185185 0.057631559986881555
4521875000.0 0.12480916934662391 0.1274138864814275 -0.05379336843838282 -0.0504767022932238 -0.054396786598297914 -0.050349190753103755 0.13373569739628158 0.050391270030009074
4523438000.0 0.1256012630595222 0.12801290778480542 -0.056206149222217935 -0.04831667398100621 -0.056673980606744626 -0.04800972493900622 0.14678793242005445 0.048473929546482365
4525000000.0 0.12659504921194084 0.12887311441861338 -0.05866237462551107 -0.046022374769294994 -0.05896169496287393 -0.04576533120483629 0.1597182841977805 0.04970458430945886
4526562000.0 0.12747250379247066 0.12916520771550444 -0.06079238253073028 -0.043823642239494004 -0.06088690288136911 -0.043487824036963205 0.17255765392162042 0.05659906634614165
4528125000.0 0.12820414998099144 0.12997265338149663 -0.06277322322752403 -0.04148846123535096 -0.06266388102490345 -0.04135026431018497 0.1825167851601204 0.06664993198651986
4529688000.0 0.1295644474542346 0.13039837407144325 -0.06468603625016847 -0.03901281881476429 -0.06444334464804781 -0.039061357843365174 0.18948629322939178 0.07845606536729754
4531250000.0 0.13014407102352188 0.13058642907717305 -0.06604388006438323 -0.036492285404644866 -0.06605871173023127 -0.03657276755025276 0.1914273256310617 0.09429658244863279
4532812000.0 0.1316353811150678 0.13101507190495298 -0.0675193640278415 -0.03371700761831583 -0.06768103099297423 -0.03400397176615241 0.18837337210398097 0.10756472819904205
4534375000.0 0.13255284390308103 0.13164122847914267 -0.06851324890339638 -0.031035524624813567 -0.06893282767460693 -0.0313051667383102 0.1793399494695633 0.12028898059942233
4535938000.0 0.1338043677092434 0.1314284001776338 -0.06934549673418251 -0.028139500730419143 -0.06992124323465304 -0.02833331857400589 0.16705522015809493 0.1283868413671826
4537500000.0 0.1351523100642961 0.13143716230421462 -0.07013051167368907 -0.025094298778068493 -0.07074171948240766 -0.02516595560515926 0.1545767751935566 0.12967076609514677
4539062000.0 0.13643696050977408 0.13170406944254284 -0.07090321206701396 -0.022032309799856528 -0.07129833201487033 -0.021854494283870523 0.14422087138659193 0.12520491642355297
4540625000.0 0.13743264053841836 0.13188774615141846 -0.07134515198131094 -0.018756925920051633 -0.07171923155029748 -0.018500720901296994 0.13646920578524144 0.11746427474315474
4542188000.0 0.13911214196316174 0.13184300093649384 -0.07196347366681227 -0.015563139381451846 -0.07204196352229508 -0.015197379216275184 0.13317270988976065 0.10932937735198055
4543750000.0 0.14037722078763593 0.1318850722956003 -0.07253150856417573 -0.012156519017139676 -0.07245512638525559 -0.011859708164898687 0.13429627688803045 0.1039180159266914
4545312000.0 0.141694957854958 0.13183544249910342 -0.072854529866344 -0.008759795757828918 -0.07270924962508792 -0.008365722410550254 0.1371766897941939 0.09977712789535745
4546875000.0 0.14289235505428283 0.13182827983681147 -0.0732281686080734 -0.005396213933323058 -0.07313273992938592 -0.005343110929373492 0.1419252369768836 0.09806776664582775
4548438000.0 0.14421643825658792 0.13147586243107007 -0.07334826651493813 -0.002141507352618368 -0.07346072896651822 -0.0019970414772724483 0.14535901440378365 0.09947495136195769
4550000000.0 0.14545989073486532 0.13133764912571927 -0.0734416142474761 0.0010052033663813483 -0.07367934612933205 0.001076210074711676 0.1488187659061305 0.10494788257355264
4551562000.0 0.14670443255301976 0.13108767478969657 -0.07330379326625315 0.004246985367934493 -0.07349120496475586 0.004280666697435842 0.1482413635534482 0.11041837402601838
4553125000.0 0.14817634819538023 0.13068808285600195 -0.07301297759585394 0.007376237800751352 -0.07330763535466331 0.007430374527505248 0.14544889126604446 0.11743899963146044
4554688000.0 0.14958248716865793 0.13028644647387444 -0.07253407622983471 0.010480279223471993 -0.07279659037301772 0.01059793294564222 0.1400100472170182 0.12305992606169597
4556250000.0 0.1506861896445883 0.12957680053768006 -0.07191920955556395 0.013341928075532762 -0.0722195180323958 0.013713778940041702 0.13154180715754255 0.12759471859735697
4557812000.0 0.15191117911682486 0.1294961788171303 -0.07125228431704758 0.016299590788037506 -0.07143945835459763 0.016603291229156346 0.12190380706340076 0.12825627309099627
4559375000.0 0.1529299978759623 0.12857674812743036 -0.07037684947993887 0.01918379200523756 -0.07048924084539501 0.01944208926699126 0.11207104693649575 0.12482610360288132
4560938000.0 0.1543660974951095 0.12822597997874874 -0.0694065576082155 0.021958829832043853 -0.06948879719327015 0.02213436949341183 0.10318516950599402 0.11658321056932389
4562500000.0 0.15534849353492253 0.12734520439340163 -0.0681643713642192 0.024670396193959963 -0.06826490821759389 0.024922043261804833 0.09783437793737794 0.10683368546330262
4564062000.0 0.15655094265653333 0.12636356904703305 -0.06685602927031636 0.02752296742263006 -0.0668581100340884 0.027654265517608384 0.09653894303902362 0.09431225351158996
4565625000.0 0.15822051554112973 0.12568172376070474 -0.06544977263287464 0.030339941197636604 -0.06560641178230066 0.030480072774918328 0.09959234989823389 0.08294756871084902
4567188000.0 0.159198859131863 0.12477472149335254 -0.06398206233231195 0.033035010193427417 -0.06417599482740963 0.03321053870389132 0.10489520322054198 0.07290230494632757
4568750000.0 0.16086219771684976 0.1234380854972509 -0.06239196112462205 0.03570113862948466 -0.06248132523509711 0.03591669146547324 0.1131735567196455 0.06609066221244331
4570312000.0 0.16224375205244182 0.12275778150542221 -0.06068677668619065 0.03831125013915409 -0.06071639454804576 0.038506109921147794 0.12305707743203993 0.06236434195391411
4571875000.0 0.16404217118533135 0.12196845193984943 -0.058954444678388236 0.04081025043048831 -0.05887977952494809 0.04104689774598536 0.13062526935607205 0.06159351996860033
4573438000.0 0.16587842087515053 0.12133204803832098 -0.057047499388844194 0.04325442300548188 -0.05693189194888964 0.04344560214997984 0.13913098137086827 0.06154874285428877
4575000000.0 0.1677228321235851 0.12047953702160104 -0.054844577920570334 0.045622088389382504 -0.054953011460946825 0.045831820827798235 0.1449913929982753 0.06317132785027929
4576562000.0 0.16927408228817697 0.12013349401852277 -0.05276112844916164 0.04783346791303406 -0.05288467683950597 0.047929622588144344 0.14973407114955833 0.066318627957837
4578125000.0 0.17099184984707994 0.11908540429513999 -0.05056330537346756 0.04998863626606555 -0.05071430792191576 0.05018842633439894 0.15232846686483534 0.06892326617491877
4579688000.0 0.17246065860972729 0.11826074447981931 -0.04819412481024129 0.051854217623969974 -0.0484926222808905 0.052165103303026344 0.1537906664025542 0.07079688191200802
4581250000.0 0.17427231805520985 0.1177509207786631 -0.0459475010721381 0.053713419031466 -0.0461944869475821 0.053975163776686125 0.15493396263896375 0.07229953801798644
4582812000.0 0.17578422549277287 0.11674029804493705 -0.043590582764423416 0.055397820038097255 -0.043545032866537374 0.05579687157976378 0.15562066437299132 0.07185733373719244
4584375000.0 0.1774839994005028 0.11604371216409207 -0.041191245015793035 0.05706383141892132 -0.041149755674236954 0.05754028367103359 0.15795745335686093 0.0698275053871239
4585938000.0 0.179161564425939 0.11513984853591795 -0.03882794147079453 0.0586410405762478 -0.038666777096954756 0.05910397717777955 0.15896940329048753 0.06730240495880296
4587500000.0 0.18071042388686717 0.11418763696995647 -0.03645522845650285 0.06025501999562216 -0.03611747846223942 0.06056578390378964 0.16383715998232828 0.06309781217567524
4589062000.0 0.18231266550853795 0.11307862631948128 -0.033983621910500146 0.06172098057387341 -0.03368329017861185 0.06190692165880842 0.16968624816161704 0.06051342356973582
4590625000.0 0.1840502184273722 0.11194481527878998 -0.03141738954321938 0.06321497982743716 -0.0312988588196633 0.0631752369933257 0.17633771444950386 0.059204290047811414
4592188000.0 0.18556263009035534 0.11080233840320872 -0.028685780347051427 0.06460837632617727 -0.028797911192747615 0.0644544929624533 0.18528506466257308 0.058229281282686396
4593750000.0 0.18749363769949584 0.10988842843214654 -0.026081359689153275 0.06580844149300527 -0.026250179840908605 0.06573417706218435 0.19346998480136104 0.06171243549991326
4595312000.0 0.18911503418033818 0.10851773766578665 -0.023341814374117704 0.06683794723229229 -0.023687200321889326 0.06701841525546555 0.20074402938894048 0.06605411757615091
4596875000.0 0.19053789211782904 0.10712544332235467 -0.020756290682266053 0.0676490685315524 -0.021025838655741133 0.06798968807986631 0.20754708482789505 0.07200316724237117
4598438000.0 0.19216133853626086 0.10587305475787454 -0.01807284827997662 0.06831701717762215 -0.018235086005311908 0.06874688113804212 0.21084265431420832 0.07950533041891472
4600000000.0 0.19381878266725797 0.10455974713544652 -0.015387180311537015 0.06877611604484646 -0.015233352486482698 0.06936954122759524 0.21342598433471827 0.08576569678274942
4601562000.0 0.19548888492955258 0.10313306260157866 -0.012458357281490716 0.06906540430108628 -0.012287098644436232 0.06974404453896875 0.21151085827336824 0.09067906776817289
4603125000.0 0.19738805267810797 0.10199337195348077 -0.009737660327801117 0.06945120766947968 -0.009341492851698807 0.06996676650080054 0.2098138811993185 0.09569436734420676
4604688000.0 0.19903100458285308 0.10085354675706396 -0.006979023535647984 0.06985628437739824 -0.006506378017443547 0.07009507257324775 0.2066283668018084 0.09948009640450625
4606250000.0 0.20051845759129405 0.09958732091213064 -0.004127583966377923 0.0699452825670725 -0.003610730824141003 0.07009348308082385 0.20162720632595485 0.10181507173465704
4607812000.0 0.20207337973469047 0.09848658749664038 -0.00118305365845013 0.0699178320860602 -0.000871148483753603 0.06989651816556912 0.19393966621064415 0.10167106813280839
4609375000.0 0.20394018771219194 0.09711739051070194 0.001620825234265556 0.06983971228448434 0.0018593037163025837 0.06966261856446823 0.18694878221950081 0.09857739078169997
4610938000.0 0.20467523128263307 0.0960302468765214 0.004599741151614147 0.06947633299879366 0.004660930661899599 0.06929294766380718 0.18233979189282407 0.09055625876174486
4612500000.0 0.2062317661448741 0.09461397978920484 0.007657316136146251 0.06881834281043092 0.0076941809328623465 0.06900233436333744 0.17937071118001183 0.08370624142070682
4614062000.0 0.2073530431588073 0.09364772359752299 0.010707379316255226 0.06822978107011607 0.01053333920959721 0.06835808339337582 0.17969830355319938 0.0764428062910236
4615625000.0 0.2086755381860955 0.09246729052065576 0.013704179028894585 0.06748985361559488 0.013670980277675196 0.06786823170306507 0.18259210175118418 0.06822251757227561
4617188000.0 0.2096479044973672 0.09133168860063252 0.016679695096975526 0.06670725298861761 0.016632192095841325 0.06713777763289507 0.18774232052625675 0.062457840740092065
4618750000.0 0.210711043821008 0.09032511882593934 0.019434795417017894 0.06590966930909112 0.01959871360650551 0.06627666600317692 0.19364702946552065 0.05993569287460161
4620312000.0 0.21129546759744308 0.0888946607207112 0.022112235630793217 0.06500325721311158 0.02239447533149616 0.06532731489622783 0.19731296540842452 0.05836995031866761
4621875000.0 0.2121974571015124 0.08777010322500643 0.02459383320784118 0.06413415419485836 0.02517234976836478 0.06433460971237118 0.2017682323922935 0.05888597165873652
4623438000.0 0.2131543140465666 0.08651465849177933 0.027208144967532766 0.06304473897351469 0.02760748147620089 0.06315206774078165 0.2047155284574107 0.059561650590195234
4625000000.0 0.21399851249131369 0.08544905655162884 0.029804749368879238 0.06189833196655244 0.030128944269686354 0.061879407114698526 0.20568234790819798 0.06124115294556604
4626562000.0 0.21479946860003046 0.08350117936874774 0.03232702186766433 0.06040805355706414 0.032822488191338706 0.060469256923374286 0.20519067338427177 0.06247843278340111
4628125000.0 0.2156501823071562 0.08277803738185802 0.034901037858274524 0.05913468326594827 0.035107723528807096 0.05912348243130012 0.20258359237780513 0.0626933250131746
4629688000.0 0.21651315656136316 0.08128361696523417 0.037327431579644896 0.05752267414201521 0.037540931980113386 0.057533152739207526 0.19671487132637286 0.060492806677307255
4631250000.0 0.21733976022554016 0.07979208407181171 0.0396681892246346 0.05596583625372228 0.039670370273104785 0.05589585498431298 0.19238359852030937 0.055249699028747566
4632812000.0 0.2183652735450486 0.07818544630498261 0.04166087677179356 0.054043602764043984 0.041987264409101235 0.05405385266666013 0.18918757924836038 0.04722175088371116
4634375000.0 0.2195160818753296 0.07677697758834787 0.04379555654255456 0.05197632321825206 0.04390225901605526 0.05209382035882276 0.18839000161676586 0.0370151803578168
4635938000.0 0.2200855709145395 0.07517467322190552 0.0457588113398716 0.0498400551377477 0.045945854270055146 0.04996816905433865 0.19082101298500945 0.026056612696141762
4637500000.0 0.22145938145582256 0.0738475781255731 0.047739490953601894 0.04766382414139954 0.04796307732943274 0.0479244522526712 0.19705725247935044 0.01648481780318186
4639062000.0 0.2220608578658898 0.07273824294866554 0.04962748471429768 0.04556153570510317 0.049854691456139986 0.04578986596958321 0.2064193762315038 0.009867457668836411
4640625000.0 0.2228361112615519 0.07159301973782897 0.051373156062695685 0.043499730076570785 0.05166822266162394 0.04362645786090064 0.21516034705749756 0.006349701856263099
4642188000.0 0.22394939666048366 0.06973051962652795 0.05309169882468463 0.04139573539508872 0.05341670063531668 0.04148008120293933 0.22622391611671297 0.0063182078379777715
4643750000.0 0.22459964644836516 0.06870103854225912 0.054703654507353025 0.039261557246926745 0.05497483281281563 0.039221732765016115 0.23438286653975166 0.009562373047470119
4645312000.0 0.22530264168630465 0.06711102343031795 0.05606561513484244 0.036945461456194394 0.0564180019821974 0.036835975875213575 0.23992843029500663 0.014789706044618666
4646875000.0 0.2259112455739084 0.0653823276492281 0.057591007567733075 0.03450662400066766 0.05780269254973176 0.034422687584025474 0.24298265438563438 0.02211781996095303
4648438000.0 0.22683263744835833 0.06369544578196087 0.058988966324288385 0.032171721459922274 0.05929425715486452 0.0320610856140079 0.24229879011865338 0.028800888370402025
4650000000.0 0.22736003277115763 0.06161417303644484 0.06026463024488843 0.029730492987989496 0.0605391309001379 0.02958954946133747 0.2387745434820952 0.03456511073792731
4651562000.0 0.22844064155286078 0.06046185069437001 0.06142056090006269 0.027301514375878157 0.06154148766814476 0.027309142723006524 0.2327017896271175 0.03740320657860934
4653125000.0 0.22913427989065324 0.05830441976517875 0.06237259879626351 0.024768621907497828 0.06252315912738571 0.02478008054338791 0.22487656782783255 0.036760450222673616
4654688000.0 0.2298944350517311 0.05624764876064801 0.06319393035613963 0.02209806107596889 0.06335853220741033 0.022197792109616192 0.21951492380969237 0.03296035973783817
4656250000.0 0.23045717103393715 0.054158039112427225 0.06386437008609104 0.019419190376929102 0.06421112888548378 0.01945870546775917 0.21611365899759893 0.027254110281995463
4657812000.0 0.2314142949120149 0.05181257902589875 0.06455936828956173 0.01676148395154288 0.06490733384698734 0.016646265979793948 0.21509960077960597 0.02056325923786018
4659375000.0 0.23208945684223686 0.04949095672424888 0.06513214015115464 0.014002178089485425 0.06556420782426349 0.013883184741466919 0.21687005361510894 0.015233310837191193
4660938000.0 0.23279390953535137 0.0473703800642271 0.06557757393533768 0.011231769203282766 0.0660830122391339 0.011134991295389049 0.22140386873697918 0.011311829172918952
4662500000.0 0.23393962828130288 0.044835406932810816 0.06610363916525516 0.008580080882515108 0.06635547962737126 0.008296790267810618 0.22581994383815643 0.010188180245542898
4664062000.0 0.23433246636663715 0.04245339624161322 0.06646310581782035 0.005903586909769791 0.06650989695062286 0.005577394074212886 0.23059141761457125 0.012053421783244752
4665625000.0 0.23562243287694537 0.04000757649873994 0.06661467223324188 0.003158469821949368 0.06670662145651982 0.002886472481135309 0.23384480583267434 0.01605953741810385
4667188000.0 0.2363958809029128 0.037601399173446945 0.06674695087286416 0.00044971649505266 0.06677884270382162 0.0002793420686369032 0.2342055469572014 0.022489573451580792
4668750000.0 0.23728586327881263 0.035239591391267325 0.06682218586231212 -0.002292143308805861 0.06679762375817616 -0.002448097153182916 0.23103489430890273 0.02883804165808363
4670312000.0 0.23792081733629886 0.032621054490195985 0.06669824056926633 -0.005075139483306775 0.06685216042007094 -0.0050511369658159146 0.22407936008290272 0.03508760142109869
4671875000.0 0.23892782506894963 0.030425205846792744 0.06650443123758293 -0.007642988519739581 0.06667848640588685 -0.007634049465888311 0.21432440765907906 0.03773823956152431
4673438000.0 0.23958424437573625 0.02780222715059295 0.06611797239249494 -0.010367119888433505 0.06622106638991504 -0.010278513696082195 0.20241177008006225 0.03657594858317012
4675000000.0 0.24013875229116194 0.025367490198348525 0.06546193525424451 -0.01294747283872625 0.06577740297644102 -0.013161804404416394 0.1912040010870949 0.031326541893012635
4676562000.0 0.24071611169497645 0.02295802147724906 0.06468629038760307 -0.015709405892583378 0.06503772345000106 -0.015836965162801392 0.18168411455811945 0.02224319522755169
4678125000.0 0.24107143962492114 0.020292979496839364 0.06388210765401962 -0.018347576067446993 0.06409763096553996 -0.018608567072620204 0.17550551863387556 0.01116434906013335
4679688000.0 0.24169986017779943 0.01797410848355561 0.06298031999658338 -0.02091839411849709 0.06314486395158751 -0.02121844436840774 0.17274763178544195 -0.0012022573715986242
4681250000.0 0.24232721888090963 0.01534891351325264 0.06197670962754842 -0.02354439724181907 0.06205669221245383 -0.023722375466160392 0.1727660164700179 -0.012568516469785282
4682812000.0 0.24278777257369827 0.012526511514092474 0.06082246128908275 -0.025984105821300653 0.06096903207896991 -0.026243016942838603 0.17625070074864468 -0.021967432016341232
4684375000.0 0.24364058843080783 0.01016648611461275 0.0595840825691815 -0.02848610842263915 0.05963058122624589 -0.02858207704924483 0.1813825858374555 -0.028503780671446852
4685938000.0 0.24423763399375387 0.007410518519957074 0.0582408138320351 -0.03086997430642997 0.058309767853904446 -0.03095905839191263 0.1864435855889588 -0.0322374903137718
4687500000.0 0.24472101703381802 0.0050701568569902445 0.056733767044675455 -0.033280915401517945 0.05686367957823981 -0.033372469197325796 0.19092459469279516 -0.03471423975741461
4689062000.0 0.24507951641156508 0.002425706705610912 0.05513837710000784 -0.03554069982274364 0.05531513999635221 -0.035746449147036626 0.1927909095222622 -0.03472405497115292
4690625000.0 0.24566132337895516 -0.00024870045956131926 0.053599623628017457 -0.03774267324443202 0.05371319193238379 -0.038051820397016614 0.19440117835071838 -0.03455215251957033
4692188000.0 0.24608377155970615 -0.0027523246894584305 0.05198029624503803 -0.03996956656973016 0.052003495150571614 -0.04022398884399216 0.19295405960348322 -0.03400290347404739
4693750000.0 0.24670908894807653 -0.005091097135535976 0.050323152778197856 -0.0419990247784638 0.0502737673405676 -0.04232229001377979 0.18974327752840564 -0.03552251066473082
4695312000.0 0.24712728613596616 -0.0075434745031586125 0.048510960377790346 -0.04396154293126927 0.04840770034095586 -0.04424633914058565 0.18532471648428683 -0.03820932317337823
4696875000.0 0.24771967877619447 -0.00986396465554644 0.046548892004373635 -0.04606021590846 0.04645242428801243 -0.046107006971881984 0.18095591364248603 -0.04423716359823497
4698438000.0 0.24848642788772465 -0.012230120109404304 0.044685013672074614 -0.048076913854508775 0.0445499848008924 -0.04807120645981672 0.17829154975811104 -0.0540662078281107
4700000000.0 0.24878865808793021 -0.014985801187306745 0.04261801215263942 -0.05011879969537738 0.0427809161198321 -0.05001796839625346 0.17912104078870922 -0.06366536309666218
4701562000.0 0.24915025659631818 -0.016697514361430847 0.04070363681711246 -0.0518568912140952 0.04099482696788097 -0.05184524927135819 0.18316707533801532 -0.07336956362715553
4703125000.0 0.24962994384037596 -0.019330582094876043 0.03864793330784086 -0.053439454085856895 0.03898503519345647 -0.05361924484001175 0.1912370334505244 -0.08212907190279695
4704688000.0 0.24951272355504495 -0.021353578798904527 0.03641386889114702 -0.054897109459961214 0.03688795125075012 -0.055190011130554203 0.19874334547531436 -0.08975883858719476
4706250000.0 0.24967475976273376 -0.023639270930049017 0.03432028106131254 -0.056294591568011504 0.03469377308445638 -0.0567344480435252 0.20832585081120197 -0.09280185217499784
4707812000.0 0.24974539513086177 -0.025849580023228364 0.032149185334633776 -0.05748739895926738 0.03233324699721319 -0.0580352823945535 0.21821414397392422 -0.09434731421233963
4709375000.0 0.24975622751366663 -0.028290815182221023 0.030099663271391332 -0.058732594098031096 0.029898220557953818 -0.05947807537396479 0.22668013872217307 -0.09453080903470402
4710938000.0 0.2494650575661231 -0.03073536258968923 0.02803310351697331 -0.05993483658160885 0.02757437508994968 -0.060510998182436194 0.2337675129090979 -0.09300731195129745
4712500000.0 0.24933286110262232 -0.03291957538999459 0.025690303833434062 -0.06115697018544807 0.025180414777131867 -0.06144262977377172 0.2404735065448361 -0.08933048806094794
4714062000.0 0.2490042485828299 -0.03560301110873468 0.023347442172946264 -0.06210829271830714 0.022748814353574683 -0.062296706910262956 0.24240133386236237 -0.08243747802232217
4715625000.0 0.24901556423405408 -0.038138735547755986 0.020651976038890886 -0.06317054409116293 0.02015652709541304 -0.06300894409252149 0.2415714481949494 -0.07891110716644228
4717188000.0 0.24854596790486955 -0.04073164929275762 0.017931994734808932 -0.06395597985867722 0.01775014550006714 -0.06361440956343352 0.2390202186092825 -0.07211352278049823
4718750000.0 0.24799586174899596 -0.042947466493132705 0.015121064690955905 -0.06456122454896501 0.015245118231644796 -0.06412557964397231 0.2341517925037076 -0.06855168129448168
4720312000.0 0.2476467649387973 -0.04567637891554715 0.012106018772810388 -0.06489510316868766 0.012394829729562278 -0.06471496392949914 0.22654557301779074 -0.06739869038402624
4721875000.0 0.24711807951507228 -0.047769183742787824 0.009055399519071134 -0.06499964604047571 0.009537059432573151 -0.06498024002654208 0.2178102618693006 -0.07062965289182672
4723438000.0 0.2466481130034303 -0.050343861682330314 0.005959303388315213 -0.06483101264913751 0.0065102716038293856 -0.06521514289648873 0.21034827965643887 -0.07541862219192008
4725000000.0 0.24580891060895008 -0.05254823930175266 0.003194449366704437 -0.0647259370789297 0.0035193301619044323 -0.06534736625609962 0.20565026947445184 -0.08319281267419885
4726562000.0 0.24526011792387648 -0.054863141137544744 0.0005864418376553271 -0.06448022933472959 0.0005709971967533178 -0.06530773054644037 0.20427316426487915 -0.08819560677686575
4728125000.0 0.24494373501307806 -0.0566949830771587 -0.0020573313052645002 -0.0643854617582394 -0.002314849097405008 -0.06520441947498545 0.20597249004204884 -0.09537387058151728
4729688000.0 0.24366902440594593 -0.058691727961474205 -0.004559858933989544 -0.06430256645438885 -0.005123337739975361 -0.06491923475023108 0.20607551107441954 -0.1002072395529872
4731250000.0 0.2427522162764976 -0.06047713252891496 -0.0070077296504555174 -0.06431215662033814 -0.0077463611443089305 -0.06460053052127032 0.20694103413973122 -0.10489391049626974
4732812000.0 0.24140862082786543 -0.06252327780361017 -0.009598926428758548 -0.06424849678697553 -0.010286609083381361 -0.06413911805878988 0.21128376962550344 -0.1080650643528975
4734375000.0 0.23997967425953923 -0.0645557977918959 -0.01236816068132409 -0.06400489393162873 -0.012896913138959088 -0.06367498163306484 0.21264826181069668 -0.11193424198113625
4735938000.0 0.2384643204053894 -0.0665891653905935 -0.015217295244881164 -0.06368386749928215 -0.015588537811610037 -0.06317495401044011 0.21808279019925003 -0.1138493516408501
4737500000.0 0.2370886951897688 -0.06853413748107356 -0.018106909827244094 -0.06313084673337971 -0.01822980205024454 -0.06267670357377322 0.22248387493101207 -0.11334825627020817
4739062000.0 0.23583828291143422 -0.07091544997994943 -0.021035600983723396 -0.062425071930015785 -0.02078370268180074 -0.062039179262901104 0.2255132567133288 -0.11098305783299726
4740625000.0 0.23410061504976637 -0.07256278659554398 -0.023568434690063842 -0.061281034488546014 -0.0231466969957577 -0.06121307512939278 0.22460768390180566 -0.10464013163881766
4742188000.0 0.2327004284364673 -0.07472939102129629 -0.026007231208898085 -0.06002018758127092 -0.025475047631736556 -0.0601613074257499 0.21911317819067644 -0.10055438883189496
4743750000.0 0.231006236842379 -0.07686648024037401 -0.028221315678795725 -0.058414923960782676 -0.027831448200991305 -0.058852203774477065 0.2116797626084289 -0.09978976135310201
4745312000.0 0.22945782877678395 -0.07900361173102365 -0.029999100288531737 -0.056877580673726405 -0.029960411152310108 -0.057352267892137716 0.2017613154376537 -0.10122128868547088
4746875000.0 0.2282962338900993 -0.08069560964687957 -0.03176556503048135 -0.055133214294889134 -0.03195972646219179 -0.055743329076287255 0.19011151333572476 -0.10486272470145083
4748438000.0 0.2266729364747713 -0.08329962736159374 -0.03361677359475431 -0.0535565523186527 -0.034140469067903266 -0.053991317192577604 0.18338987275731913 -0.11168431042642205
4750000000.0 0.22509795823284243 -0.08530435908921138 -0.03550766244842196 -0.051885125729491735 -0.03603731487069918 -0.05222438105642238 0.1776602421940782 -0.11869193980778456
4751562000.0 0.223491973126581 -0.08696611375575308 -0.03757982381604871 -0.05030134159630888 -0.03814290279177641 -0.05051363085484054 0.17517859084534054 -0.1272754899019903
4753125000.0 0.22254636813440934 -0.08920808668760574 -0.039626778124597105 -0.04880162737776205 -0.04016663117233767 -0.04865462893090541 0.17386193604014125 -0.13524784577577648
4754688000.0 0.22096758704171945 -0.09120477596225976 -0.04182528529021386 -0.04712417449121434 -0.0421344519599017 -0.046834256379659496 0.17504413804127078 -0.14277138441765655
4756250000.0 0.21998372539080005 -0.09278795468579196 -0.043851920152923544 -0.045460104335386414 -0.04399562360213265 -0.04508578686472858 0.17975329323079237 -0.14812121190262828
4757812000.0 0.2186503318252875 -0.09449764775200765 -0.04580265582158725 -0.04361783776533119 -0.0458110581735604 -0.04320697290911046 0.1862129093047665 -0.15092981069942701
4759375000.0 0.217335693208882 -0.09641611221247337 -0.047608978849963624 -0.0416321164148234 -0.04758547295245592 -0.04135414631017023 0.1923677411093684 -0.14967571702307358
4760938000.0 0.21554870165856985 -0.09829682872787034 -0.0492962618568429 -0.039555585238051395 -0.04928267871776436 -0.03952968665200892 0.19713451823971054 -0.1451386563839319
4762500000.0 0.21413604110512552 -0.1001885995991084 -0.05084707093839669 -0.03752036073745917 -0.050820631602424275 -0.03773639655152479 0.19804476904766885 -0.13888501836367856
4764062000.0 0.21261899036895243 -0.10131718513997724 -0.05221386051838972 -0.03562117978712205 -0.05224489482026464 -0.035906601093325885 0.19584908449907332 -0.131731451354531
4765625000.0 0.2113499783248119 -0.10356817536932922 -0.05338489326762137 -0.033719290732040594 -0.05357750846711528 -0.034024564808140145 0.190200063380377 -0.1257302457732681
4767188000.0 0.20998454092511123 -0.10572916483269193 -0.05440039444604428 -0.03176494554379428 -0.05468782900389511 -0.03201912151443809 0.18154530718621628 -0.1222549086201867
4768750000.0 0.20817151854581298 -0.10766891140977375 -0.05536390574912155 -0.029640857678522373 -0.05580694375640384 -0.029772512816285082 0.1731592400017199 -0.1216016324248011
4770312000.0 0.2059232975620887 -0.10971832023524361 -0.056313044373003676 -0.02743634472660309 -0.05682554073662583 -0.027440542630042294 0.16402741333044518 -0.12403307038210004
4771875000.0 0.20448457975617684 -0.1109837008072143 -0.057237062443329226 -0.025123744144742288 -0.0577516538003471 -0.025036086148799493 0.15734006381778678 -0.1288895251632494
4773438000.0 0.20338643115568622 -0.11390840043361021 -0.058137137335310424 -0.022666976124496377 -0.058656745653101354 -0.022536169427843897 0.15186733749979936 -0.1366847032263184
4775000000.0 0.20091975319209357 -0.11590795172917549 -0.05917277978347396 -0.020315136851067665 -0.059393659107990465 -0.020131567162272105 0.15042519288252273 -0.14405733619500816
4776562000.0 0.19934436707094783 -0.11852170377813943 -0.05996798300048491 -0.01778087888491745 -0.06012748888003779 -0.017620649193991627 0.15224318920950272 -0.15048546113328587
4778125000.0 0.1976238742551816 -0.12037370389625239 -0.060785073605129365 -0.01529825772394163 -0.060807589734919766 -0.01508965783311494 0.15739312076673487 -0.1550975772572976
4779688000.0 0.19639665335626896 -0.12284357418611659 -0.06155173798419334 -0.012761091974512088 -0.061670000318358446 -0.01270560824520984 0.16353740024129884 -0.1561489275529303
4781250000.0 0.1941867754083034 -0.12488999154564892 -0.06231305234276523 -0.01022804679417124 -0.06246703944409471 -0.010126276941906417 0.16986728806648868 -0.15314761458261644
4782812000.0 0.192936462336889 -0.12695802738918519 -0.06295855867148269 -0.007861777948206295 -0.06312826658974163 -0.007813995890363815 0.17267109654172683 -0.1464697979892897
4784375000.0 0.1912558691861757 -0.1288381963200092 -0.06353447408288276 -0.005477277472602282 -0.06378302452074824 -0.0054267435579015465 0.17310783087745135 -0.1384508108397828
4785938000.0 0.18959155256171703 -0.1305986511290741 -0.0638053719748238 -0.0031744325749539157 -0.06405957775138077 -0.0030511107206538227 0.16803416388327821 -0.1308604553262553
4787500000.0 0.18802885012350357 -0.1321339264878047 -0.06398314278292722 -0.0008558875040271338 -0.06417324631699155 -0.0006437087617925538 0.15972172771126575 -0.12661692475643418
4789062000.0 0.18616730471680196 -0.13378834163177022 -0.0639091834349184 0.001476299454655836 -0.06409484416684647 0.0017590175617082234 0.15029799535201968 -0.12243976757683052
4790625000.0 0.18421705961028864 -0.1352250772269088 -0.06363146465350489 0.0038581791578689685 -0.0637883427646792 0.004101726460073495 0.13960876125789384 -0.12070939752346196
4792188000.0 0.18195481238961672 -0.13643517706309072 -0.06327725711747642 0.0062309156761898524 -0.06327947924620518 0.0065123726926444876 0.12857602810412566 -0.12331473224250525
4793750000.0 0.17991973432419134 -0.13755915968860027 -0.06269466154814728 0.008834210901017487 -0.06273535639254918 0.009000851174677808 0.1198978461045309 -0.12996297624700118
4795312000.0 0.1777060203995026 -0.13888341973560125 -0.062112170082835656 0.011492430479962073 -0.062124123403629584 0.011405745486795219 0.11290412015221966 -0.13888163523403602
4796875000.0 0.17535211039558798 -0.1399041071039494 -0.06124423150185374 0.014120269700915664 -0.06133003029351995 0.013961900195856872 0.10924392907320331 -0.1483575886313407
4798438000.0 0.1731959471185707 -0.1405575123160576 -0.06043290844467579 0.016639224815573405 -0.06058329845291473 0.01658568249173282 0.11076118835915799 -0.15683586209392153
4800000000.0 0.17050607773454154 -0.14137079212468037 -0.05949647209282206 0.019363377963604933 -0.05970078079940891 0.01931560654418858 0.11555355901661842 -0.16378616347503255
4801562000.0 0.16861999081328677 -0.14265855941228786 -0.05860547248836539 0.02206727801226119 -0.05889302471296036 0.02204811756474902 0.12150110264057579 -0.16646672133631027
4803125000.0 0.1666259482218713 -0.14356714148386698 -0.057776735329025795 0.02472026124432917 -0.058085879911375635 0.024783389260157534 0.12879073442954755 -0.1630629545020727
4804688000.0 0.16381811914257596 -0.14433921403887373 -0.056987247248660576 0.02725498993298508 -0.05722730741397958 0.027503267703772965 0.13227101230004382 -0.15831229185818085
4806250000.0 0.1615114803082711 -0.144754760879618 -0.05609347467818293 0.029647805097621244 -0.05641420920616163 0.030077897346024146 0.13416080717634501 -0.1500690220579111
4807812000.0 0.15921750222467937 -0.14571017465768255 -0.05510833586524518 0.03187676418067757 -0.055303800372717954 0.032406445660089926 0.1320019816114566 -0.14123278886117224
4809375000.0 0.15736035937813508 -0.14675815685456325 -0.054088098248567196 0.034070391696945264 -0.054141594827705815 0.03458501866765648 0.12676647777990993 -0.13329233428533693
4810938000.0 0.15531559169449027 -0.14593669874325116 -0.052871425445751914 0.03623650493116618 -0.05276493819055507 0.03659809856782559 0.11874744689208391 -0.12741744934198873
4812500000.0 0.15363174713552893 -0.1456057386954351 -0.051685927900756656 0.03830141986223132 -0.05144442478696258 0.03852326381781745 0.11096049757926073 -0.12539068038198742
4814062000.0 0.1514746491647938 -0.14639349403613822 -0.05030569905379785 0.040351031054480936 -0.04998024366517844 0.040455329065615935 0.10131493153706465 -0.12411250978948053
4815625000.0 0.1497220529609222 -0.14602558804059323 -0.04869173212886509 0.04231778395348845 -0.04854177120986209 0.0423846747989223 0.09388581536774124 -0.1261864219848785
4817188000.0 0.14785647966852855 -0.1465256629703199 -0.046928244411925925 0.044221823145278207 -0.04691520683790882 0.044127999735432064 0.08776554102011963 -0.129824393573318
4818750000.0 0.1460958828700504 -0.14627145091837002 -0.044982916154800844 0.046029163257414775 -0.045129788429157124 0.045962872216830805 0.08300154537708529 -0.13569336979722288
4820312000.0 0.1440666676326065 -0.1451502459712839 -0.04298858142286996 0.04774580533723806 -0.04310643271198415 0.047769477125990424 0.08139971778763169 -0.14016272758682585
4821875000.0 0.14253524284886201 -0.14520921518205396 -0.04072958693493728 0.049383423747093376 -0.04108775074871191 0.049507473366527596 0.08283122167953169 -0.14348977781533717
4823438000.0 0.14067453375541672 -0.14469895570754576 -0.038592267200681485 0.05104840143374534 -0.0388229735172648 0.0512487626370435 0.08658745996476588 -0.14519920925260024
4825000000.0 0.1389408755175277 -0.14418563665186415 -0.03629888561116616 0.05260680608818476 -0.03657257173699976 0.05286747136746894 0.08894608841367685 -0.1430164873028983
4826562000.0 0.13725920811751222 -0.14384261297708564 -0.034126439098247946 0.054146026375358765 -0.03420638691432604 0.054566132749338886 0.09049201403603302 -0.13996336953211472
4828125000.0 0.1354534113604459 -0.1435857642487399 -0.03189893233665499 0.05557109953077219 -0.03189555290086007 0.05601201165023589 0.09006690288631378 -0.13405117006031886
4829688000.0 0.1335574974903876 -0.1431215296255333 -0.029654585639555187 0.056904178386541326 -0.02950651142287264 0.05736011473966499 0.08786844018253144 -0.12879598422394442
4831250000.0 0.13180390019355068 -0.14265402022351353 -0.027332735547769164 0.058116047523038 -0.027198526791899724 0.058583163155626804 0.08294368043804749 -0.12398120783606777
4832812000.0 0.13031685153968428 -0.14259380074609837 -0.024899843737577573 0.05936514437889146 -0.024652561013098262 0.05963127453635832 0.07696106606525675 -0.12110473311490472
4834375000.0 0.12864798806282296 -0.14245449305634367 -0.022479982513743228 0.0605042113862361 -0.022217575438360445 0.060737869056406886 0.0701530359129232 -0.11977038133604306
4835938000.0 0.1270783295256627 -0.14226347019042418 -0.020005668651180357 0.061544944558119846 -0.01977226034333551 0.061695080218911125 0.06346694211337524 -0.12056640860689773
4837500000.0 0.12579355678267445 -0.14227219106014627 -0.01754778542325665 0.06243541451903566 -0.017427917908208856 0.0626083175826313 0.057982045186975334 -0.1237247932861938
4839062000.0 0.12438160681534502 -0.1421124301673471 -0.014931986910463876 0.06317315644726133 -0.014813289030425366 0.06332828683352036 0.054065802500084574 -0.1277318621238299
4840625000.0 0.12287700149886023 -0.14179242110684603 -0.012236256663746815 0.06364556096743994 -0.012214346918933344 0.06386441888944712 0.05112479524310743 -0.13223104824437928
4842188000.0 0.12186553748119947 -0.14218611946429952 -0.009511476391214423 0.06417746504351722 -0.009429896646156522 0.06430823841653978 0.05054446204898526 -0.13736265073848386
4843750000.0 0.12025357912957947 -0.14205691184064095 -0.006638719497384393 0.0645071759228878 -0.006620698216396302 0.06475315654774699 0.0524600990958424 -0.14178923593170373
4845312000.0 0.11863834690827675 -0.14199415000091037 -0.003752199967179561 0.06489234696671352 -0.0037905641491706357 0.0650481573007056 0.055112850948648956 -0.14495504323099806
4846875000.0 0.11798999170099538 -0.14312907744375983 -0.0010114478435280835 0.06504516070472832 -0.0008835674438609228 0.06525096525078283 0.06004965273359367 -0.14593007745465894
4848438000.0 0.11625913451009018 -0.1424383172427681 0.0017560757240033394 0.06505287574700234 0.0018981648043512411 0.06524603225089681 0.06342033272679341 -0.1462069159592904
4850000000.0 0.11577074777799551 -0.1425273143734069 0.004502665702145575 0.06489986078298528 0.004662876000699005 0.06517495882303068 0.06671321062276495 -0.1440376097066567
4851562000.0 0.11488299492294236 -0.1424429454514391 0.007310590993737076 0.06463068693972895 0.0074877900786878325 0.06494234952977458 0.07054926949240199 -0.140723080714201
4853125000.0 0.11323175295764275 -0.14281201164092738 0.010070502416615943 0.06426678862477647 0.010275972038693477 0.06458312656249439 0.07132682003588706 -0.13607706470211894
4854688000.0 0.11211285191468029 -0.143025668950027 0.012846233915871228 0.06386254903290729 0.013081663990664131 0.06407241893339066 0.07072079836715724 -0.13235502131003155
4856250000.0 0.11077151184130014 -0.14334375999147272 0.015571593020215376 0.06327519956776152 0.015777414999622697 0.06348534916652811 0.06869862898176061 -0.12899293868646008
4857812000.0 0.1091700788211979 -0.14325649605583227 0.018188755541321378 0.06262055186475776 0.018415735637732224 0.0627430066308307 0.06561220562078308 -0.12660744157349932
4859375000.0 0.10826316310086918 -0.14370359093287266 0.02072236809420389 0.06174449935456466 0.021088264778585348 0.061822833010798973 0.062114496827021866 -0.12613443190899293
4860938000.0 0.10705149699932381 -0.1441606480127035 0.023419481489052645 0.06054202647327638 0.023679988476396952 0.060763072081891634 0.058874648641306426 -0.12650672798081125
4862500000.0 0.10565907942394079 -0.14495139060362117 0.026073761886241463 0.05941088035408254 0.02624694618441114 0.0595280898467462 0.05659420826771163 -0.1286446188877387
4864062000.0 0.10449962249706302 -0.14550571639646598 0.028596266942566485 0.0581100789893489 0.028751205822362205 0.05825289877508411 0.055792333179107194 -0.1291833768828782
4865625000.0 0.10374830509015358 -0.14593818054886198 0.031155395182474108 0.05673866377875188 0.03127546162429166 0.05690335803874058 0.05518852496055906 -0.13154038055929998
4867188000.0 0.10263225624977604 -0.1465935689290769 0.03345357695191204 0.055288724563091966 0.033523061647015774 0.055370096252623645 0.05761750710758737 -0.13278203293452917
4868750000.0 0.10153161206809115 -0.1474734544063939 0.03566723490561226 0.053671385181430255 0.035870525914818784 0.05382904350269785 0.05968274839133348 -0.13360217600942004
4870312000.0 0.10062102177276167 -0.14806239820478304 0.037885278944105566 0.051969687079992215 0.03804581607309809 0.05214578098886273 0.06271991276713504 -0.13356291812927068
4871875000.0 0.09962038232756901 -0.148652998120617 0.03997600508233028 0.05008322542113862 0.04026364570502121 0.05031304854456398 0.06558253269452478 -0.13179300806978567
4873438000.0 0.09852928501470914 -0.14938873656354573 0.04211136489491792 0.04831049252993416 0.042404900693888165 0.048463393729982936 0.06829953650216547 -0.12749890576867243
4875000000.0 0.09739602314015505 -0.14974770327892806 0.044125058495533144 0.04648747455190973 0.04443767212123364 0.04655453659681422 0.06881771436438962 -0.12138174614671333
4876562000.0 0.0964579089211032 -0.15066770887331196 0.0461944375033852 0.04467875907207615 0.04635205898366648 0.04472949693198474 0.06663931022565789 -0.11452717606981179
4878125000.0 0.09578771385605157 -0.1512683459735555 0.048132729497968 0.04284797284395813 0.0482311888187351 0.042967949185662595 0.0639338913709686 -0.1067334120536582
4879688000.0 0.09460010094818837 -0.1519552259963121 0.04988549027111998 0.040861768263747766 0.04989590405939688 0.040921618615781884 0.05659258767327729 -0.10102990967024937
4881250000.0 0.0936302847822246 -0.15247707752121387 0.05137899041417234 0.038836919047725973 0.051496698911627684 0.0388533746257435 0.04715336864986313 -0.09752883909679431
4882812000.0 0.09259177551200429 -0.15298627760187114 0.0527837485295076 0.036581714766960545 0.052982109106301814 0.03669037846656402 0.03628573804361175 -0.09720105999163292
4884375000.0 0.09139508442835949 -0.15348405835651857 0.054052944114657026 0.034461174718405506 0.054298108711199 0.03446860436255879 0.02769846294171359 -0.09994410716755864
4885938000.0 0.0901563707492719 -0.15373514616225314 0.05516635684292448 0.03202019577189154 0.055615964280499544 0.032281416479470276 0.01898653465327013 -0.10445284034204878
4887500000.0 0.08892958833265588 -0.15433896191750396 0.05618003700695342 0.02984626848595196 0.05660855066921808 0.029889600396416763 0.011461649314252186 -0.11314002977225149
4889062000.0 0.08701501642250607 -0.15481983429945242 0.05714062040990493 0.027555168688966073 0.057471183620009865 0.027493041886156196 0.008748377942587322 -0.11957946837835129
4890625000.0 0.08601106822196271 -0.15575115262092112 0.05785591537743493 0.025234008164882766 0.058240981461768176 0.0249845519786118 0.007216463093414634 -0.12940840530666797
4892188000.0 0.08449572671610805 -0.1560691910635534 0.058633914285878934 0.022799112630571754 0.0587849944932555 0.022460095766827646 0.009135354458814368 -0.13559018316385055
4893750000.0 0.08324154953873963 -0.1570029779306863 0.059346426699797936 0.020192211064392618 0.059555961736751664 0.020075111387962894 0.012956970437560373 -0.14148014686102675
4895312000.0 0.08190499670773962 -0.15705492304017984 0.059868999518804485 0.017653441734833412 0.06009176530065084 0.01750621104172929 0.018430625499071217 -0.144006772549445
4896875000.0 0.08086548983259796 -0.15765708812055035 0.0605433114014086 0.015140077037690847 0.060740677441936904 0.01505359967977155 0.021829568659628082 -0.14385674132925585
4898438000.0 0.07932116298657113 -0.15772163484690305 0.06103735676153802 0.012604312601857695 0.061135821041196955 0.012651302509787807 0.025508263239986617 -0.1412325160705377
4900000000.0 0.07802710375254354 -0.15816950645900282 0.06144586294312718 0.010138450820349346 0.061644470489546334 0.01013507144411678 0.026214847727275083 -0.13729445193060721
4901562000.0 0.07674082532591116 -0.15779839674476667 0.06163417934137952 0.007576504307632777 0.06182663856446553 0.007632509198287265 0.02446340566775545 -0.13241686895810034
4903125000.0 0.07523401358663553 -0.15786150488337852 0.06178807986804468 0.0050745407999942494 0.06194501100802786 0.0050063400058366694 0.019878100489589438 -0.1289970060088347
4904688000.0 0.07356950705042085 -0.1578385132265313 0.06186466842811496 0.002471124376895177 0.06200938139562676 0.0024094852245601633 0.013533330157110206 -0.12650220158525644
4906250000.0 0.07203949840045742 -0.15733291168926558 0.06174796265136107 -7.35871704041207e-05 0.06199489428652286 -0.0002467586225122229 0.007095124765176255 -0.12787859586469605
4907812000.0 0.07069115249829971 -0.15736685498494848 0.06167379881869654 -0.0025129983446994064 0.06202616887045229 -0.0027649487812977766 0.0008542007718554769 -0.13187017901943335
4909375000.0 0.06928847306457063 -0.1567536797686196 0.06138301909479848 -0.0051576855608220255 0.06174919881929927 -0.005157422713054961 -0.0027752924492285 -0.13768601985577686
4910938000.0 0.06757110156448073 -0.15646823482616085 0.06111017048832443 -0.007536169157570865 0.0613454508477909 -0.007655867838431533 -0.0033952422826054917 -0.1443150124802222
4912500000.0 0.06596571181876897 -0.1555871719135055 0.06056091662118136 -0.009944214031280096 0.060837416837552685 -0.01008076128073558 -0.0011336500297262173 -0.1510017112025339
4914062000.0 0.06418017557926393 -0.15496353120098288 0.06006177829310009 -0.012350057185860595 0.060298678420055846 -0.012633651703447178 0.003578761697668349 -0.15554804814828743
4915625000.0 0.06214285093952925 -0.1541788865544089 0.059480954000464346 -0.014833369905265343 0.05968990171192653 -0.015125911036978685 0.009963569734117286 -0.15750074050938115
4917188000.0 0.060478808325484 -0.153593748487081 0.05894574129797568 -0.01713796337719604 0.059094263292350346 -0.01754815139576166 0.01677995632092444 -0.15611034394223156
4918750000.0 0.05852522235121844 -0.15271139653201266 0.05832815724912366 -0.01955207921524269 0.05840943161153485 -0.019874416493758113 0.023897034716061312 -0.15201782169121755
4920312000.0 0.056935665649792036 -0.151696811719201 0.05763918273701427 -0.021841726502473836 0.05761144476974529 -0.0221685319289571 0.029229980028471086 -0.144497386057981
4921875000.0 0.05498153711014331 -0.15101443652254531 0.056847108606564264 -0.024215425257407386 0.05679806708178004 -0.02442981405587784 0.032479853354091974 -0.13543744201593744
4923438000.0 0.05306295936647112 -0.15005325365105165 0.05598190248112203 -0.026584506270344116 0.05591447439442896 -0.026549924648740966 0.0330395645633771 -0.12559204210435315
4925000000.0 0.051040814130014156 -0.14909390295402258 0.054913379878083673 -0.028787976370882352 0.054976118169287214 -0.02874048808367323 0.028993383510947907 -0.1151123199175506
4926562000.0 0.049714550773044965 -0.14869381675019588 0.05384864360324913 -0.030954290377999287 0.053930891239817313 -0.03085271985009585 0.02168047329901018 -0.10774662812624883
4928125000.0 0.048006688357029655 -0.14755769990374556 0.052520734085359386 -0.032873506604393 0.05274288875455776 -0.03285527794440372 0.012117067343933582 -0.10126487655562615
4929688000.0 0.046293239320721796 -0.14631382936333615 0.05114689210386531 -0.034746979883578964 0.05149741799815738 -0.034789290799471635 0.003995410354207956 -0.09930631594593606
4931250000.0 0.04464430652882038 -0.14511837097699576 0.04962915200435001 -0.03656448200566599 0.049991386277813396 -0.03676100980536045 -0.0048984738054349605 -0.1000920935508625
4932812000.0 0.04311851630183679 -0.14389513310965757 0.048045794559589045 -0.03822908117117434 0.04834276028086444 -0.03865357322125041 -0.009891321553809791 -0.10245584801756089
4934375000.0 0.04167924963283332 -0.14250683556731386 0.04633050511178982 -0.04007111824046465 0.04655542430004567 -0.04041598012935785 -0.012795024167607834 -0.10490644736250275
4935938000.0 0.03982767278435368 -0.1412632576142377 0.04458291218154015 -0.04183978092878332 0.04465112103010963 -0.04232773819833623 -0.012956389647628401 -0.10860401605369668
4937500000.0 0.038397897218280276 -0.13988708095760113 0.04293848286282291 -0.04365365694059261 0.04278419202829261 -0.04406697122156232 -0.011365131677128694 -0.10925275063993453
4939062000.0 0.03689912677030907 -0.1385917813242398 0.04116860073499744 -0.04555921374703698 0.04094692044311098 -0.04584340107315202 -0.00934428080330805 -0.10710622067788748
4940625000.0 0.03529485932848953 -0.13709086624262634 0.03941160741434828 -0.04721690913746051 0.039143655241851275 -0.04751921304156023 -0.007630610617843165 -0.1038220705451311
4942188000.0 0.03381403613068963 -0.13584434316842536 0.037548518198095994 -0.04880008933187933 0.03727457271354004 -0.04908573801357385 -0.006483136888599362 -0.09881686479310547
4943750000.0 0.032392812779561235 -0.13451997975693525 0.03550986050580484 -0.050446559405540166 0.03539918849495746 -0.050570043557796485 -0.007804542922081356 -0.0931126684376908
4945312000.0 0.03113470573740162 -0.13322430388675593 0.033483534916562085 -0.05189704671839756 0.033468155769466955 -0.05204946551521141 -0.010864621312569241 -0.08720479442334816
4946875000.0 0.029863400014572196 -0.13185239731263074 0.031325233331692084 -0.05331666533545872 0.03141803292587928 -0.053343011902408026 -0.014937460388534227 -0.08121037518140627
4948438000.0 0.028599646712825263 -0.13055040121324504 0.029281615932461567 -0.0545791072213962 0.02932743023130545 -0.05471208222712834 -0.020799009764482516 -0.07782103912088192
4950000000.0 0.02767557883627708 -0.1289034519904507 0.027051909334035368 -0.055396496302074556 0.02743216971126844 -0.055818526712994476 -0.02832955867691504 -0.0758222724054676
4951562000.0 0.026502172446751203 -0.12775108987961606 0.024904207669453407 -0.05653723743748499 0.02509809926641281 -0.05682560291163138 -0.03508458969159892 -0.07712081976349226
4953125000.0 0.025604810114423393 -0.12682365299215675 0.022727937623014238 -0.05740826149545653 0.022797158902117105 -0.05767458793969962 -0.04069734713826314 -0.07965978966680297
4954688000.0 0.02476840425626546 -0.12571689222080004 0.020462152737265763 -0.058312861855677675 0.020342809559724884 -0.058581536716814125 -0.04336842357553655 -0.08447835705689254
4956250000.0 0.024246547385607185 -0.12469834266356584 0.01823956232983727 -0.059049367964674 0.01791267060949047 -0.059441033446324475 -0.04425298159865388 -0.08901839626430325
4957812000.0 0.023669212434632325 -0.12361762353618037 0.015864695467974733 -0.05965805581861632 0.01546761327308942 -0.06016708332379904 -0.042407362575845466 -0.09399452897687104
4959375000.0 0.023409582210785023 -0.12257957378452594 0.013380936144900626 -0.06029978625634749 0.013043080928771102 -0.0608010423013416 -0.03927618624142475 -0.0975637551575109
4960938000.0 0.02312725820600893 -0.12153214637305629 0.010694434405501609 -0.06091112763900686 0.010592374312983389 -0.06133929848815417 -0.034861989262959255 -0.09973545219096759
4962500000.0 0.022945497302851742 -0.12054354865503121 0.00815490647249165 -0.06147582204791219 0.007989372813845796 -0.06166356296951951 -0.02886964200607882 -0.09981939113012743
4964062000.0 0.02284540167666163 -0.11954174712939304 0.005498242815612548 -0.06183340013321291 0.005382094518444935 -0.06203117787903688 -0.023140881390038212 -0.09840704945559746
4965625000.0 0.02276592284280302 -0.11867185473861874 0.0029440553986931047 -0.0621835201804369 0.00274148198700747 -0.062240442814887206 -0.0184421513195551 -0.09577080037522197
4967188000.0 0.0228034717510704 -0.11770776371084277 0.0003568870787601476 -0.06230910440461221 3.299920306097328e-05 -0.0625336138578092 -0.014430297684058412 -0.09236340908833558
4968750000.0 0.02300384984622198 -0.11676695449003248 -0.002269627147271214 -0.06235580185351661 -0.0026780401072311446 -0.06254283213530246 -0.011811390891364192 -0.08811301996383877
4970312000.0 0.023192944279758123 -0.11594655512466126 -0.004971330739746632 -0.06226868394011649 -0.005179753353020728 -0.06261218867494914 -0.010552641611587326 -0.08518888102799503
4971875000.0 0.02338906039796308 -0.11514894445943705 -0.0076803816891500174 -0.06202227639470784 -0.007876404034041872 -0.06254430826666287 -0.009337830950444284 -0.08251370583210993
4973438000.0 0.02365715903138104 -0.11449053308108217 -0.010338673995906196 -0.06178565529434324 -0.010460430649585569 -0.06220450921189548 -0.008058854562247265 -0.08128683738907574
4975000000.0 0.023847053243654902 -0.1139438841945872 -0.012979330423024663 -0.06136685429968194 -0.012974587621128684 -0.06166232720656302 -0.0060408859008678085 -0.07896519366755825
4976562000.0 0.024225743125215766 -0.11348897246454098 -0.015608107409053077 -0.060882030164426074 -0.015676410657045756 -0.061028876849782525 -0.004821087975241105 -0.07783136253135421
4978125000.0 0.024764014583425503 -0.11330300724440835 -0.018093624631380957 -0.06024328678133601 -0.018356384339305688 -0.06027676210164782 -0.0022663729986178143 -0.07695495987953815
4979688000.0 0.024984618370796897 -0.11308555848372825 -0.020682042775382808 -0.05937821473232587 -0.021036136729434204 -0.05936260159501151 0.00038651018436561046 -0.07695655216530965
4981250000.0 0.025762513205933042 -0.11289848356250749 -0.023221124294313774 -0.05844263666450931 -0.02351479883356413 -0.05854563302555783 0.005364025135019341 -0.07746233596177957
4982812000.0 0.026081828146359048 -0.1130077661897162 -0.02577333872623764 -0.057528370768990214 -0.026067430809360314 -0.057598723482428116 0.010662350220722483 -0.07504437247312233
4984375000.0 0.02697442379095589 -0.112610467904433 -0.02837386077871743 -0.05633635268594369 -0.02852643777778475 -0.05662586553781777 0.017756124725513574 -0.07326894764743368
4985938000.0 0.027471254157033918 -0.11283346532574971 -0.030980736305138708 -0.05520507918269922 -0.031061257046890518 -0.05543688136594366 0.023900311197025813 -0.0689956734343221
4987500000.0 0.028281017983507777 -0.11317213252012918 -0.03355998475802803 -0.053933532998835736 -0.03366318000686463 -0.054270031457894705 0.03088129833059233 -0.06156283401386572
4989062000.0 0.029151648193272886 -0.11330748083147764 -0.03596577244550963 -0.05267848829384166 -0.03603717002985183 -0.05278793190261253 0.034377171662935364 -0.05371302946791542
4990625000.0 0.029908771306834944 -0.11344651710000725 -0.038311415700961665 -0.051205764461303545 -0.03844397532649082 -0.05128069938784067 0.03605657183816141 -0.04475659802593416
4992188000.0 0.030621645395372543 -0.11379425984341948 -0.040626100417623816 -0.049557144835014756 -0.04100836192855974 -0.049627764950206134 0.03517527410630713 -0.03651571888825348
4993750000.0 0.031254870378734104 -0.11423639015785775 -0.04285096879008503 -0.047861547522170464 -0.043371069593102815 -0.047936166979126685 0.03339239853818088 -0.02839846405214113
4995312000.0 0.031811479905685704 -0.1142550619218689 -0.04480118503091363 -0.046106850657502814 -0.045506456012991664 -0.04619931048025143 0.02969984725533563 -0.02143924801208898
4996875000.0 0.03149935725963587 -0.11413191653644034 -0.04683234312048661 -0.04441079163659189 -0.04736084254233247 -0.044390696625365385 0.026269594203086742 -0.014414299158070545
4998438000.0 0.03277646331396511 -0.115250040058716 -0.04862503552889545 -0.042595543698428086 -0.049016776465255756 -0.04262898171154278 0.018629255265106094 -0.01028895028984353
5000000000.0 0.032889600215244494 -0.11520973740264265 -0.05018791153133978 -0.040740045020588825 -0.05038134102618572 -0.04058263614018094 0.009522507360490966 -0.00905164035888076
5001562000.0 0.03267445521217454 -0.11582080060061974 -0.05167837537459277 -0.03859193296639316 -0.05161862061534955 -0.038448626149070964 0.0010706972660083844 -0.009367623964747768
5003125000.0 0.0337271043174493 -0.11564575147165893 -0.053025370961402106 -0.03637405610523407 -0.052981821629224775 -0.03617146391663028 -0.006307823333350816 -0.014216078449570034
5004688000.0 0.03331676305503075 -0.117078041723312 -0.054409214933284496 -0.034032927901496 -0.05443735329072955 -0.03392338691852183 -0.009565751677149117 -0.020648396591621408
5006250000.0 0.03358056861505812 -0.11639497109360267 -0.05557402125896083 -0.03152268238648244 -0.05579349523387544 -0.031627519642082935 -0.010562346490928909 -0.02726682366994225
5007812000.0 0.033528626186776433 -0.1167181595879291 -0.056688412675831856 -0.028967164759180316 -0.057022426762861865 -0.02922249508726254 -0.012651489231697746 -0.03156242003585639
5009375000.0 0.03299703368755636 -0.11709936089187699 -0.05753484812001347 -0.026411231078376382 -0.057989450604533116 -0.026729033012826878 -0.008727689121521075 -0.03745435270420591
5010938000.0 0.03362257937117004 -0.11821152991160422 -0.058454330604811235 -0.02369214614853767 -0.058888915939857685 -0.024141196475808133 -0.007241938314830911 -0.03988110378989942
5012500000.0 0.032482128584912624 -0.11788681616021801 -0.0591742270638245 -0.021201934443178673 -0.059807042243424105 -0.021304107731100756 -0.007454472565673227 -0.03916115839293907
5014062000.0 0.03242843765846779 -0.11861689051520828 -0.05981565349756839 -0.01862688869084549 -0.06027143459707666 -0.018513709956146842 -0.007515155680107865 -0.04184238425815705
5015625000.0 0.03168009722295187 -0.11952522053555481 -0.060525496703414436 -0.016008953883462216 -0.060919384931424285 -0.015744551931219507 -0.007033859743022791 -0.04042695142687268
5017188000.0 0.031140787733665135 -0.11922108264233398 -0.061094092406377934 -0.013362066466195572 -0.06145786176268876 -0.012958969963559322 -0.010080126743098012 -0.040760563160184324
5018750000.0 0.030239180977336324 -0.11911471175065891 -0.06159848497227385 -0.010928210375959825 -0.06186451950131233 -0.010570743736800333 -0.01250528377006236 -0.04205541652764803
5020312000.0 0.030193565359751283 -0.11952118204274191 -0.0618648593322321 -0.008397791356373493 -0.062180185552885174 -0.008024242989093738 -0.017047039174519066 -0.044245516915353084
5021875000.0 0.03000977437093223 -0.11966339165785479 -0.06204241699427025 -0.005933839426041397 -0.06225314607847896 -0.005670984574393214 -0.023080869627421643 -0.04792362058206875
5023438000.0 0.0294640868520592 -0.11984187272144413 -0.062032513546669166 -0.0033751331123988296 -0.06218613840069967 -0.0033515724894306715 -0.02675471909651103 -0.05463513662676132
5025000000.0 0.028583549891032105 -0.11968403796762397 -0.06188555759972872 -0.000828566538241678 -0.06194457957939566 -0.000833919235423031 -0.030075567981440756 -0.06381580137429455
5026562000.0 0.027963658460255992 -0.11967623558726388 -0.06158584524514626 0.001751190300704061 -0.061659909626002374 0.0016949217341200667 -0.029197515481341085 -0.07431537190388192
5028125000.0 0.027169428491445536 -0.11963260709328988 -0.061115712634734864 0.004149883494410696 -0.06127050626739287 0.004298886973139887 -0.025905814640918245 -0.08379865554236107
5029688000.0 0.026363656321056306 -0.11959360878173189 -0.060475482735938675 0.006556358429035735 -0.06074942799017009 0.006772791276382472 -0.019135279027729643 -0.09251556983547676
5031250000.0 0.025431658543196692 -0.11907792792716565 -0.059659268628652375 0.009023485958600346 -0.06021291209994037 0.009219231792304253 -0.010330877719206393 -0.09799203676210595
5032812000.0 0.024651145649410497 -0.11912830478034718 -0.05891589470049509 0.011322352087785358 -0.05933925312049102 0.011732120419084368 -0.0011568947068991888 -0.1003164540621431
5034375000.0 0.02375642869801771 -0.11892869354693374 -0.05802096440912933 0.01382867729437381 -0.05853017051599797 0.014141346265801638 0.007636937782645551 -0.09961972474329653
5035938000.0 0.022852671435761626 -0.11856755202060765 -0.05729014199934692 0.016293690279496995 -0.05771110392163195 0.016621528457909315 0.01621166144898905 -0.09682975893522994
5037500000.0 0.021610495731514225 -0.11848154777623209 -0.05643306618447139 0.018665133234113125 -0.056803346643748934 0.018912920311157835 0.021633555138280875 -0.09115158594415729
5039062000.0 0.02087369204329587 -0.1181930740754265 -0.055675074347575196 0.02085202345875974 -0.05586743084457668 0.021219256604622302 0.026053663709505463 -0.08466021348537454
5040625000.0 0.020045725204904535 -0.11759411338550718 -0.05477018348476022 0.022950792263733994 -0.054920527576773584 0.023349833975555102 0.025999981561958638 -0.0775687038497399
5042188000.0 0.018771888907986443 -0.11753008151094571 -0.053864009166532514 0.025009138653716494 -0.053856331472450926 0.025573010126148443 0.02451883195209305 -0.07110548333537453
5043750000.0 0.01766332585997385 -0.11727351479545023 -0.052812300207019755 0.027013098312944434 -0.05272606006885351 0.02749848759798797 0.020394978388783198 -0.06693563757826444
5045312000.0 0.016518501888611856 -0.11641037962767359 -0.051612781098226396 0.02897115794327136 -0.05157303692857483 0.029453556587382284 0.016312450355004803 -0.0647107366410484
5046875000.0 0.015318125777402734 -0.11658835455194384 -0.05029394211649869 0.03098475845402398 -0.050265367224962706 0.03130625287667831 0.013949549285165657 -0.06515082867420657
5048438000.0 0.014142452529841441 -0.11637604384046799 -0.04908169608386493 0.03291665486971702 -0.04904925853954101 0.03297843709227268 0.012217498811162403 -0.06609279710342386
5050000000.0 0.013187729903605803 -0.1159783920608806 -0.04756321565925818 0.034823033076273845 -0.0476219309894971 0.03473797553267867 0.012538957202908629 -0.06638402594394385
5051562000.0 0.012096996466402965 -0.11571119560578956 -0.04613348253198638 0.03655503422196088 -0.04616420525297307 0.036525993104354885 0.01337540786680587 -0.06593119632793457
5053125000.0 0.010968080354521247 -0.11550791285029602 -0.04436637064857835 0.03817715124350508 -0.044518335038689114 0.038203828698745244 0.014769394083695982 -0.06400317781929817
5054688000.0 0.010054917264004067 -0.1152884407048272 -0.04267045616905959 0.039916412124318 -0.04292731394894261 0.04008945173800042 0.016838683772746804 -0.06108303659077744
5056250000.0 0.00905658716451012 -0.11509681639877252 -0.04100073743945948 0.041551718753653745 -0.04130963454771695 0.04194492382023689 0.019250816914798533 -0.05594192451948287
5057812000.0 0.008236691979351575 -0.11472278756712624 -0.039254490338641514 0.04324935987172165 -0.03969186920005057 0.043712345693401614 0.019767626392447873 -0.048911016433475576
5059375000.0 0.007258584279690919 -0.11441003556462405 -0.03769554939410886 0.044728746712710266 -0.03804508100388794 0.045368525813225064 0.018387053594779046 -0.039841656670094476
5060938000.0 0.00663037582748161 -0.11406767163165454 -0.03617829937554123 0.04620030462392233 -0.03653793592767529 0.04670433175302285 0.0125373232090494 -0.029675799518743218
5062500000.0 0.005720317988518025 -0.11385154495428507 -0.03468824861919402 0.047553657224287824 -0.0347188147035758 0.04796004135384195 0.004114480559256925 -0.021462468797248273
5064062000.0 0.0048972130150707225 -0.11369100089483301 -0.033203663470305345 0.048948470865933555 -0.03305252604950305 0.0491691376612654 -0.007790442739310861 -0.017524701405833617
5065625000.0 0.00424166539749067 -0.11327820087097817 -0.03165323893173782 0.05030653242764645 -0.03128752425592789 0.05040925174079143 -0.019367012962232234 -0.016465773860515977
5067188000.0 0.0035703429616872626 -0.11282221577319045 -0.03008234382495252 0.05142519618091956 -0.029653243280922344 0.05150669099408182 -0.029987599859017864 -0.019629272631524294
5068750000.0 0.0030535051727527693 -0.11244247710876458 -0.028346482666003748 0.05258685526677002 -0.028090456001259433 0.052623019508767896 -0.04023226442830885 -0.025066356063176188
5070312000.0 0.0024232633253258497 -0.11197555917656032 -0.02655111707646146 0.05338613016751093 -0.026492984535866126 0.0536459708966473 -0.045761565931575515 -0.03082250206072541
5071875000.0 0.001832777763920771 -0.11175668945835994 -0.024477561819133818 0.05443233710447151 -0.02464727218914634 0.05452589339049971 -0.04967649334344627 -0.038078524858821496
5073438000.0 0.001191762753146787 -0.1112366073309619 -0.022577224981516087 0.05503391286377466 -0.022773762984316156 0.05529925571595456 -0.05097346753700286 -0.0458949330336606
5075000000.0 0.0007635023633323731 -0.11081665765270936 -0.020297747171280942 0.05570592028442836 -0.020667886187590342 0.055987057552619665 -0.0523244122223279 -0.05130330489993839
5076562000.0 0.0002498778392313541 -0.11048589333202702 -0.018167647868204035 0.05635324576808475 -0.018402768413713487 0.056627144162547674 -0.047484642168605595 -0.057272562479301556
5078125000.0 -0.00030323106723173114 -0.1101033848743743 -0.016052340810156007 0.05697236323856161 -0.016044035988710233 0.05726965216852784 -0.04403964261010801 -0.05990579948357633
5079688000.0 -0.0006593534855938539 -0.10946508658487236 -0.013989059449855805 0.05746520448666276 -0.013710589182130424 0.05778958421406467 -0.03977480510726156 -0.0614757677086631
5081250000.0 -0.001075327006272986 -0.10924404240787437 -0.011834961081497312 0.05785748197919884 -0.011489811109849524 0.058304013012238524 -0.03591759678312798 -0.061953293293220406
5082812000.0 -0.0013758201645189111 -0.10880111540362332 -0.009656295015512142 0.05838883338806765 -0.00935411875954863 0.058712725718181 -0.03346689219834136 -0.05881661645224112
5084375000.0 -0.001613969310036711 -0.10827614921243715 -0.007454731830095335 0.05883959739976843 -0.007209490842273785 0.05906463113417424 -0.03229779467530209 -0.057365685043102924
5085938000.0 -0.0018758529748250175 -0.10797012717245584 -0.005149374015513248 0.05923089190201317 -0.005059872477749905 0.05947019765053679 -0.033980616141419895 -0.05621718118308874
5087500000.0 -0.00175902109870348 -0.10757045498358318 -0.002779933292920157 0.05964383027970149 -0.0028284394197340304 0.059769996305819494 -0.03505044474542363 -0.056713668555717626
5089062000.0 -0.0017218164103757802 -0.10727747157678623 -0.0005684838210300948 0.06004823635799956 -0.0005201370857464396 0.05998008470146345 -0.034584755865203584 -0.05937180011979803
5090625000.0 -0.0015802129865932883 -0.10673213524253836 0.0017064398513615038 0.06013820202830146 0.0018362861877262706 0.060240179259743835 -0.033537359976055975 -0.06093121118039754
5092188000.0 -0.0014137537103381084 -0.10643444760762463 0.0040244191740778585 0.06029950602049942 0.004310353273880008 0.060475458415939314 -0.030802735642178013 -0.06336142870327588
5093750000.0 -0.001365899646489716 -0.1059135431246253 0.006376710158242596 0.06013017941942765 0.006726541693894844 0.06040756307916456 -0.026071711326889988 -0.06456579771195341
5095312000.0 -0.000623839193700826 -0.10555660418698178 0.008725685417412924 0.05985312112319477 0.009074756700169832 0.060335666989622554 -0.022303297168367313 -0.06561888631127309
5096875000.0 -0.00020289137127691066 -0.10510557285377502 0.01127429231216155 0.05956027459529598 0.011515403283908593 0.06004233999932512 -0.017612489397904142 -0.06538390411025959
5098438000.0 0.00017607175110208412 -0.10446828873055596 0.013749107843731269 0.05922698673793173 0.01389072353345297 0.0596992085351941 -0.011665491935467035 -0.06431328707153529
5100000000.0 0.0006447392786223516 -0.10397808808549674 0.016289528745944734 0.05887953325549774 0.01637241676141961 0.05912712558820467 -0.005578312939889146 -0.06182338828634231
5101562000.0 0.001324539109118178 -0.10327702148064032 0.01868360858950118 0.058549367008336475 0.018950790790226758 0.05855445804170282 0.0013746514410481153 -0.05730958276851006
5103125000.0 0.001973460988124781 -0.10279413934080925 0.02110852522320647 0.05797253058157275 0.021351119926694587 0.0579739032218813 0.006359706886399198 -0.051277383882580164
5104688000.0 0.002448946299316994 -0.10228580198883402 0.023531667327508842 0.057134013344231786 0.023849973035961338 0.05719336603607301 0.01014119603538093 -0.04384075025036512
5106250000.0 0.0033273734486414944 -0.10189672375002735 0.02600495313683799 0.056271679033356024 0.02645466329294091 0.05654044030896834 0.011787270901118979 -0.03629137138139321
5107812000.0 0.004004358421001751 -0.10139828434572291 0.02866383901671644 0.055467342602428964 0.028887391377671344 0.05569116821015775 0.012077685943711995 -0.028931595761185525
5109375000.0 0.004558134898013883 -0.10080850358641462 0.031123143540984458 0.05445975392240746 0.031455561634342766 0.05474507386105992 0.01110477881907114 -0.021729319903438477
5110938000.0 0.0053072879485815735 -0.10051179594062863 0.03369044198028601 0.05359014550398782 0.03377056638146673 0.05379473984755654 0.0087893812727526 -0.014904856437123085
5112500000.0 0.005566353888541592 -0.09978281465665687 0.03611738617391437 0.05252557736907538 0.03621775231059134 0.05260759248692489 0.004978866415121399 -0.008485564498488427
5114062000.0 0.006506843650605068 -0.09978764379465392 0.038339972838198795 0.05128975803534434 0.038503953013848215 0.0513830708050754 -0.0002657829901438898 -0.004698841471199404
5115625000.0 0.007068235529350211 -0.09974605375334283 0.04059618543741761 0.049943934700623346 0.040887158878886255 0.049986715505319544 -0.0060743522040354525 -0.002732903022562055
5117188000.0 0.0076382643706701175 -0.09962723907874368 0.04277161265410779 0.04837917571559817 0.04332956712634004 0.04849428899207927 -0.012004219748813086 -0.0026340900480111324
5118750000.0 0.008711346359748896 -0.09968224837958085 0.045113041563769475 0.04676388146917921 0.04565380691735916 0.04712025869685773 -0.015661669071543167 -0.00393550305992957
5120312000.0 0.009266320166771716 -0.09978496517103891 0.04713424512073638 0.04520593464675605 0.04776142670582303 0.0453818065040383 -0.019037007879093886 -0.005612632305925642
5121875000.0 0.010217818846869026 -0.099656744297062 0.049241702649112956 0.0434074621443279 0.04960479902436194 0.04356386452714656 -0.02152117156668776 -0.007843615499192437
5123438000.0 0.009985891852320052 -0.09968514944820445 0.05124624340547813 0.04151496941605027 0.05157922964151841 0.041454723941050535 -0.0214435702482258 -0.010723327167138221
5125000000.0 0.011054086054131388 -0.1001948951245614 0.053180108420581566 0.039560277240533244 0.05328924795487557 0.03934202430008657 -0.022223256999422295 -0.012301996777294896
5126562000.0 0.011480814330966411 -0.10042578931748625 0.055078311709664415 0.03730566827645731 0.055153507312785365 0.03698934940525847 -0.023262186446208463 -0.014172546402805656
5128125000.0 0.011897013121087992 -0.1006554712543038 0.05689228261024272 0.034988279891515 0.056872175521979894 0.03477579895295558 -0.023423010163255095 -0.014818728593258931
5129688000.0 0.01253285416951326 -0.10161198776472455 0.05870615017821371 0.03258172653051197 0.05875624946436328 0.03243350854285258 -0.026038922178492588 -0.017661208766373566
5131250000.0 0.012540060843570169 -0.10190129512095858 0.060470689786352824 0.030107222772109848 0.06046631201088345 0.030034104533189516 -0.028046347996017764 -0.01757178811136689
5132812000.0 0.013343019443231501 -0.10204691783749821 0.06207581556868779 0.02746907402284306 0.062390469880926724 0.027666594947942307 -0.030021434176288646 -0.017530622161432332
5134375000.0 0.013626436153816687 -0.10301807976923404 0.06347789077210711 0.024781277567180363 0.0638528143717571 0.025132964860366553 -0.03447139327268685 -0.01860742455972143
5135938000.0 0.0128064295498805 -0.10333301972647793 0.06473891637778131 0.022052799850956054 0.06525347794672955 0.022444680942503358 -0.03912501958445397 -0.02134942126347378
5137500000.0 0.012803727575978115 -0.1045045482137201 0.06594939930772457 0.019263298924101138 0.06650695363490113 0.019421484693438348 -0.045156789425555954 -0.025711795504199657
5139062000.0 0.013305849623852305 -0.10484921213943903 0.0669131053178345 0.016482064692658262 0.06750252623231541 0.016333450744423893 -0.05013932414259131 -0.033702632443862464
5140625000.0 0.012601040120568103 -0.10586209571444728 0.06770184506839051 0.013801542316845914 0.06835968185717088 0.013353647872067897 -0.05355133946344454 -0.04386525256477505
5142188000.0 0.01282675473435691 -0.10673635285614243 0.06839510628122611 0.011040636768237588 0.06896503985027305 0.010500640918875741 -0.05364706038228298 -0.05486778371735251
5143750000.0 0.01220589696979011 -0.1072019644300821 0.06866711532651752 0.008269096283864272 0.06926776138719723 0.0077448055168461965 -0.049678194509849026 -0.0653019550809224
5145312000.0 0.011472419905109563 -0.1084978953361119 0.06900561831381853 0.005484127543926244 0.06924593246157063 0.005002927798076327 -0.043305505530102026 -0.07445694943456412
5146875000.0 0.01104342303794591 -0.10956827008907362 0.06917835265152535 0.002428477676180019 0.0691178238842845 0.002210526890261285 -0.03526511708507757 -0.08070342088510211
5148438000.0 0.01028003643387823 -0.11071868672055388 0.0690635295939555 -0.0006582117114502981 0.06896306338343049 -0.00067483682450237 -0.028290798156042046 -0.08529838468758798
5150000000.0 0.009660132070344444 -0.11163946308585014 0.06883369342850146 -0.003932741580558199 0.06874294434130981 -0.003841464055384769 -0.02047163168734333 -0.08932266822552612
5151562000.0 0.008834387976897772 -0.11276172197074358 0.06840515586539306 -0.007041701199708838 0.06844985361799034 -0.00690162160659492 -0.012779934085076551 -0.08961983299373698
5153125000.0 0.008022866412637572 -0.11397475582023855 0.06798127968296068 -0.010306608192914004 0.0681728529047331 -0.010219778196305323 -0.007942564787512117 -0.09056075801492768
5154688000.0 0.007487033613059048 -0.1146966248347905 0.06728361816493694 -0.013430701195764396 0.06766490042212338 -0.013466242424598117 -2.930022013313002e-05 -0.08465780150861649
5156250000.0 0.006058379965512722 -0.11583947302900396 0.06640338846979497 -0.01645916728587692 0.06702948893436213 -0.016956003542454107 0.0024328994513346126 -0.0807654773258944
5157812000.0 0.004804502832926104 -0.11677115166412608 0.06543551044849286 -0.01962773208529676 0.06605333820793642 -0.020106779866116826 0.0012655371313637267 -0.07640457180936461
5159375000.0 0.0038981534221918437 -0.11766773700980938 0.06434187618813929 -0.022702068078840343 0.0648647637701374 -0.023219192160473585 -0.0023816508229395398 -0.07384873525031665
5160938000.0 0.0028020893813536334 -0.11908738894539417 0.06315933060305688 -0.025735085348782643 0.06358675493001693 -0.02616074425196491 -0.0062511405310430625 -0.07396801613031231
5162500000.0 0.0017228234809090993 -0.11970602470783846 0.061981993062629144 -0.028536405526073106 0.062181680764850686 -0.028976479036794716 -0.00901513768723651 -0.0756021134783875
5164062000.0 0.00038364562304290986 -0.12075291849374968 0.060754242596916974 -0.03123216159372124 0.060729943311441395 -0.03169772725043506 -0.01031639396190155 -0.07923400772692675
5165625000.0 -0.000507873729788451 -0.12117653664430898 0.05933490030297816 -0.03371043413644393 0.059310104013458605 -0.034272518861233864 -0.010627978324033336 -0.08255172879694177
5167188000.0 -0.0026769120988853244 -0.12249445992072294 0.0576171342372124 -0.03618136230814463 0.057592150550880745 -0.03666927835618741 -0.008388004994312496 -0.08519041442481806
5168750000.0 -0.0033564705826772795 -0.1231707194335385 0.055769112633487855 -0.03867284801789142 0.05588044093312864 -0.039074354914711715 -0.00629396435855359 -0.08634810180785016
5170312000.0 -0.004698819104917191 -0.12435994591910071 0.05374621517438666 -0.04105555447568624 0.05415008845952972 -0.04143658692939207 -0.002644167724543977 -0.08541063719900018
5171875000.0 -0.005821505676996542 -0.1251066404504452 0.051741324813401574 -0.043292300485450644 0.052102510450570315 -0.043743555032027474 0.0004975245230693358 -0.08249325332911912
5173438000.0 -0.0069834388211241685 -0.1259318169978401 0.04978267580432184 -0.04554506157205594 0.049940670738807175 -0.045899574870417494 0.002327434106998689 -0.07752413534719169
5175000000.0 -0.00824716838002818 -0.1266508054849241 0.04768489729797751 -0.04776500577275583 0.047701363357938856 -0.04801081842017564 0.001549832806515317 -0.07111451732887013
5176562000.0 -0.009467130169467205 -0.12732998163889162 0.045363162961678596 -0.04973156014188102 0.04536970685820026 -0.04992031283668218 -0.0007887474950244419 -0.06430830521135998
5178125000.0 -0.010462880896023078 -0.1280511827121153 0.043178036653551306 -0.051582772498156494 0.042977341850701824 -0.05196505243402541 -0.006576951651068734 -0.0581462466289642
5179688000.0 -0.011633565291402349 -0.1286742905167409 0.04072499573512433 -0.05330493546890327 0.040686364313942604 -0.0536566061340021 -0.014561705295750104 -0.05405599448681284
5181250000.0 -0.01257957854988614 -0.12905920613343944 0.038227142816004554 -0.05493509349744548 0.038451334869900496 -0.05535363481077668 -0.024427855827729068 -0.05170756671627722
5182812000.0 -0.013510194458996374 -0.12955182075401947 0.03583754403684797 -0.05636480812280233 0.036152431161906536 -0.05694314855067872 -0.033767078477167735 -0.05186554005104759
5184375000.0 -0.014371371970825088 -0.12992161826383403 0.033400660875415454 -0.05768337022923072 0.03376336893628999 -0.0583137415721083 -0.043026070187928624 -0.05478204367914079
5185938000.0 -0.015148857117297883 -0.13035529528521195 0.031041335929551717 -0.058839797468454906 0.031252256057384624 -0.05946190321313568 -0.049633044733688805 -0.059901618989757634
5187500000.0 -0.016203786542880468 -0.13055392046036654 0.028624533558845467 -0.05989124798137073 0.028570149849210923 -0.060456356045554986 -0.05435302123834939 -0.0652122702393557
5189062000.0 -0.016946980067975636 -0.130582151738397 0.02619416874877371 -0.06087676333283492 0.025834064408505154 -0.06128751785300722 -0.0570213177863937 -0.07168058618995639
5190625000.0 -0.017853338929399006 -0.13093076030928114 0.02376416541741886 -0.06176728041713725 0.023207573686706267 -0.06206982623598496 -0.057582027504181295 -0.07595835758488913
5192188000.0 -0.01902259006348943 -0.1310680857489453 0.02110684725397777 -0.0625919217748168 0.020585159488696547 -0.06289364996285064 -0.057179486834419806 -0.08085008620246308
5193750000.0 -0.01967977895568293 -0.13128770460666203 0.01852619512421449 -0.06328801501306938 0.018100960424917857 -0.06352693087353535 -0.05472064068566944 -0.0824966711342901
5195312000.0 -0.02059288048278393 -0.13129820884653334 0.0156926423161901 -0.06386029807755914 0.015683905087570178 -0.06412475566633018 -0.05295760619072193 -0.08317231819469269
5196875000.0 -0.021383301554109446 -0.13135763677616907 0.012974874002333445 -0.06450496768004033 0.01309315663127459 -0.06456787093613979 -0.05336586674465858 -0.08043745611003994
5198438000.0 -0.02206191109907999 -0.13163382097843238 0.010194942965185612 -0.06490058772917581 0.010457237926414687 -0.06508508127259667 -0.05441087513627922 -0.07879773023118869
5200000000.0 -0.02257831538635589 -0.1316822720443855 0.007430803254594735 -0.06524724433486517 0.007621776098126838 -0.06544797303406918 -0.05768312437717221 -0.07685059675395989
5201562000.0 -0.02309119898739927 -0.13160841833944958 0.004832707604313417 -0.06549204828897892 0.004716927622578979 -0.0657966847943129 -0.06245852470539003 -0.07855087128106002
5203125000.0 -0.02373437728890683 -0.13181501124288106 0.0021768409192810642 -0.06545998709194797 0.0018171055771938375 -0.0661289512840442 -0.06562394535711515 -0.07866241913522908
5204688000.0 -0.024540069388730427 -0.13180220827059655 -0.00040020889891797916 -0.06536830380208503 -0.0008788159767782508 -0.06604915717942215 -0.06883742607300279 -0.08146441717063692
5206250000.0 -0.024895190574862558 -0.13179081381084456 -0.002875922134210109 -0.06517291103804368 -0.0035037552922951923 -0.0658610380906648 -0.06992298591493527 -0.08452412615069874
5207812000.0 -0.0253799622137392 -0.13184066324651403 -0.005541925350215616 -0.06488136751172058 -0.006028290507567498 -0.065463272491864 -0.07050229826729613 -0.08752216902945321
5209375000.0 -0.025964109677608496 -0.13150775769269243 -0.008163852238181854 -0.06464571839765815 -0.008400375305056322 -0.06496514173931417 -0.07042142183484457 -0.09160577835630358
5210938000.0 -0.02626268892496611 -0.13137177741475703 -0.01068910196275709 -0.06417275640447168 -0.010949476234430133 -0.06426437123945755 -0.06905989541047754 -0.09458585302606252
5212500000.0 -0.026711367144022388 -0.1311929990262785 -0.013261316649429046 -0.06386878572429669 -0.013518210068255772 -0.06377168493208989 -0.06516858277907561 -0.09699450303375877
5214062000.0 -0.02713889442650282 -0.13084817285769337 -0.015824476662919956 -0.06323564752617371 -0.01608421284532144 -0.0630423975082475 -0.06110428769311104 -0.0973285391600108
5215625000.0 -0.027566716903500803 -0.13057781527936552 -0.018369537717883636 -0.06241636895344358 -0.018618185367358476 -0.06246228932431204 -0.05634360540326391 -0.0970654624339097
5217188000.0 -0.02812136701154857 -0.13012363538947094 -0.020807716256809102 -0.06139592145064341 -0.021106313613607305 -0.061734837612316365 -0.05048986211197105 -0.0941349672806906
5218750000.0 -0.02866121688465082 -0.12971402878561766 -0.023353758099247807 -0.060306572666386525 -0.02366777408553387 -0.0606316161732192 -0.04620049363915596 -0.09000256435316781
5220312000.0 -0.02933718914369943 -0.12957153362221202 -0.02596427701750619 -0.059052668856297 -0.02619058314302135 -0.05955889326705062 -0.044296029234460875 -0.08465817475713637
5221875000.0 -0.02998370318234883 -0.12924899661592298 -0.028450215369802582 -0.057692805453668554 -0.02861790714633529 -0.05818213851868319 -0.042365925988397134 -0.08011915573913476
5223438000.0 -0.030678913313589604 -0.12876598403335934 -0.030734297204988978 -0.05649673597196553 -0.030977035986358755 -0.05674144062388288 -0.0408391981748306 -0.07573733190166397
5225000000.0 -0.0312665781928925 -0.128629238426087 -0.03306879290809968 -0.05527455555542287 -0.03332334984730396 -0.055275210422273624 -0.040022293735055274 -0.0720289058214445
5226562000.0 -0.03201342894167188 -0.1284903405100926 -0.03517368276461303 -0.053873355215143665 -0.03555913420296255 -0.05368413892388283 -0.03931796515024695 -0.06725235288321663
5228125000.0 -0.03295432901484708 -0.12814452100944473 -0.03727784186422148 -0.05230561678379757 -0.037678990322811245 -0.052214539725045014 -0.039933673479834265 -0.06352195016631018
5229688000.0 -0.033257861410376746 -0.1280701187377966 -0.03926856269818931 -0.05059875734612806 -0.03980684752176103 -0.05063009841749444 -0.0400283890108972 -0.058597967163282305
5231250000.0 -0.03410664355863386 -0.1279436963194189 -0.041469686068307414 -0.04874553274186165 -0.04196570246769688 -0.0490457349164777 -0.04086000540465351 -0.05525370319785427
5232812000.0 -0.03516690867035691 -0.12814435812758382 -0.04358207548156825 -0.046997008021479034 -0.04395192436292575 -0.04731172580106434 -0.042934893902711775 -0.05157172478412593
5234375000.0 -0.03554472801355331 -0.12806605608317223 -0.04549479487243999 -0.04526670766374569 -0.04578497691097539 -0.045410441464105306 -0.043701560140213175 -0.049113598674122745
5235938000.0 -0.03651854283677755 -0.12767473625605572 -0.047582984569030345 -0.04338107548197133 -0.04767091096225773 -0.04354307452514798 -0.04559241866875886 -0.04713597561452595
5237500000.0 -0.036464128530235285 -0.12692298361409018 -0.049319196501875995 -0.04152628333133925 -0.049497708025209274 -0.04145552144849763 -0.04757054604680387 -0.044245698843721426
5239062000.0 -0.03744911266870945 -0.12684021242362298 -0.05096640514416844 -0.0395331485649176 -0.05125465387986504 -0.03939134386280519 -0.04913056922531046 -0.04251269471876005
5240625000.0 -0.038169639119868856 -0.1266614778701534 -0.052557495335610514 -0.03727753362655324 -0.05288847756005213 -0.03726658342907755 -0.05143362996412305 -0.04076547074381263
5242188000.0 -0.03933200268798601 -0.12707924373321747 -0.05417299249207379 -0.03499198075558263 -0.054576572937009515 -0.03507808931669015 -0.05298534717072831 -0.0392893901349092
5243750000.0 -0.03978561254889628 -0.12684183788692113 -0.055461566570679285 -0.03263140414983557 -0.05613717009747047 -0.032895794069219914 -0.054560050999362765 -0.0384183665666377
5245312000.0 -0.041389881948770614 -0.1262235795733927 -0.057075678759874 -0.030422457028370722 -0.057491390079944756 -0.030561019660123066 -0.056063754309280144 -0.03647718578575147
5246875000.0 -0.04191108603975388 -0.1263261213653315 -0.05830067890988542 -0.02811010725620556 -0.05862622880732623 -0.02825092041309316 -0.0580562228928281 -0.03440299327675011
5248438000.0 -0.04325046239436747 -0.126901979979472 -0.059603793801617934 -0.02569845962961008 -0.059905641478946406 -0.025682701393048055 -0.062213795552615046 -0.033074654883375874
5250000000.0 -0.04456068082763511 -0.12684810107850125 -0.060590228269732094 -0.02334410303062874 -0.06092342882467847 -0.023052708653077677 -0.06565224053272226 -0.03251211185462882
5251562000.0 -0.04540812890928699 -0.1265212169776449 -0.06158914015335527 -0.020742391464709187 -0.06200063998053281 -0.02042974693891334 -0.07120700875259747 -0.032265548058666785
5253125000.0 -0.04639693373517032 -0.12778181941601824 -0.06251819313532478 -0.018151729524192098 -0.0630035187904169 -0.01790492966081603 -0.07559867977958805 -0.03381620141970095
5254688000.0 -0.04811522836468304 -0.12745995493671244 -0.0634544073988123 -0.015722450899207624 -0.06378496548311034 -0.015456879532433212 -0.08090746076938383 -0.03627958458131253
5256250000.0 -0.048578658861234386 -0.12775454295346053 -0.06410758094700082 -0.013072717116703693 -0.06446644318812637 -0.013053945723510695 -0.08538968194940874 -0.04000047998282319
5257812000.0 -0.05025784592137379 -0.12867225633481033 -0.06468455772132709 -0.010479059165592422 -0.0649075514899156 -0.010479762360460512 -0.08776363949227446 -0.04581994779861433
5259375000.0 -0.05127499661604575 -0.12920108020483592 -0.06495800292463495 -0.007911028622870162 -0.0651947991662163 -0.008085201597669104 -0.08982167442953613 -0.05299890152317006
5260938000.0 -0.05246421818268902 -0.1298968503054974 -0.06523054274498372 -0.005229064835957775 -0.0653266382728787 -0.005397125611969471 -0.09269137296017765 -0.05811256869139835
5262500000.0 -0.0536934814827439 -0.13023407445243956 -0.065444161493804 -0.002644550493336781 -0.06576358892409412 -0.0026135061444611013 -0.09133352454984268 -0.0655648193565231
5264062000.0 -0.05465135723639248 -0.13075141299032103 -0.06535586312932679 -8.86531096710029e-05 -0.065706771148151 6.818563299070457e-05 -0.08925065052940953 -0.07085834126106914
5265625000.0 -0.05585452614245179 -0.13141374253213148 -0.06529373252613216 0.0025842903430183294 -0.06553186789084992 0.002897654722313397 -0.08427447759779945 -0.07601987826161488
5267188000.0 -0.05734023315140866 -0.13190156045814844 -0.06496150358052659 0.005166729409452537 -0.065418517103981 0.005513275278647581 -0.07980356037891564 -0.07744865421723708
5268750000.0 -0.05872317078568794 -0.1319995853241301 -0.06457113833958755 0.007828860359152218 -0.06491736620928955 0.008241066984142053 -0.0750601915850253 -0.0764554751594526
5270312000.0 -0.0598962273454785 -0.13227542175020446 -0.06415281496477099 0.01068399390410174 -0.06441455240974037 0.010884959975478888 -0.07204707317323213 -0.07349195345563353
5271875000.0 -0.06140662812032758 -0.13274992309896108 -0.06358509453664289 0.013434888036668589 -0.06372207278516015 0.01371491173630306 -0.07326088250209838 -0.07111031055424746
5273438000.0 -0.06291232898851075 -0.13289474100131693 -0.06302158635068066 0.016509950854200633 -0.06309065979636759 0.016630327086816513 -0.07475168028402016 -0.06846251472933308
5275000000.0 -0.06475533854282634 -0.133334699848191 -0.06232552503046144 0.019344227557900166 -0.0623136472434544 0.019378388191548822 -0.0781891617153089 -0.0688850307329259
5276562000.0 -0.06617025963857759 -0.13356028118905994 -0.061445603866533804 0.02201394038867474 -0.061537303693940115 0.02218972710732369 -0.080351099987771 -0.06852664219995216
5278125000.0 -0.06786157035558978 -0.1337067508985076 -0.06048199461078827 0.024715222354926483 -0.060731043072981744 0.024880016676026934 -0.08261311095149751 -0.07054701573921861
5279688000.0 -0.06995760130537756 -0.13424793401447932 -0.05937592509303177 0.027193935073919387 -0.05971433253777536 0.027552129915176072 -0.08380699920286075 -0.07306292161709387
5281250000.0 -0.07181652579483358 -0.13441808671776154 -0.05795401961958686 0.029610941745429418 -0.05847248951305932 0.029942479977074343 -0.08478691660001084 -0.07489310753545358
5282812000.0 -0.07375431520002593 -0.1350821413595762 -0.056547799019500494 0.03180862609908453 -0.05697517890209056 0.032277954011032325 -0.08406330248853991 -0.07871117480240185
5284375000.0 -0.07545024772298523 -0.135271219465154 -0.05512931877810205 0.03390584266201086 -0.05542940180298912 0.03440124195805855 -0.08228632523823023 -0.08163032741318314
5285938000.0 -0.07747631762177337 -0.1356048623917994 -0.053539166437071274 0.03618679002816375 -0.05364556004487165 0.03653583213079962 -0.07784413305154074 -0.08338718317365536
5287500000.0 -0.07934506219648334 -0.1361460296666922 -0.05187440974673879 0.03819117661174593 -0.05191196489908267 0.03846734789853526 -0.0742141699479905 -0.08371173031230865
5289062000.0 -0.08106081465015944 -0.1363247826463839 -0.05027245987213311 0.040179067264718864 -0.05009955247180704 0.040380712494324816 -0.06890147976163487 -0.07970016413438803
5290625000.0 -0.08273931913356158 -0.13683827399324977 -0.048367549961148365 0.041932259356077105 -0.048320850735967015 0.042232244237089184 -0.06499439719592613 -0.07476771061549622
5292188000.0 -0.0844273299307879 -0.1366606396347552 -0.046461319896939426 0.04384498126536875 -0.04643357135305077 0.04420017166849268 -0.06603891530989371 -0.0684064447083475
5293750000.0 -0.08587686934252589 -0.13657098658897224 -0.044212347066030395 0.04575308438972884 -0.044532024186091326 0.04609233299234309 -0.06693794119805546 -0.061968968390999024
5295312000.0 -0.0877799198442882 -0.13652770814762658 -0.04212172464476755 0.04755287091903565 -0.04244105114052725 0.04795624573114507 -0.07171763090736402 -0.055054145239675896
5296875000.0 -0.08897218567234641 -0.1360734770177939 -0.03989710895400062 0.04937084354251928 -0.04016141499757146 0.04965216714198936 -0.07846803145724264 -0.0524107953596239
5298438000.0 -0.09070054056388953 -0.13543874757845115 -0.03772575695631706 0.05116038331734853 -0.037838993012216784 0.05145638150515579 -0.08414621472168508 -0.05011686004552356
5300000000.0 -0.09203896556220106 -0.13427353872831102 -0.03567337551416082 0.052657911158527596 -0.035547607783290566 0.052849850196568036 -0.08993406906714156 -0.05117815328696168
5301562000.0 -0.09420623667829298 -0.1331875462361498 -0.03339159275594336 0.053941272247589815 -0.03319611956780022 0.05427647552574763 -0.09482830212622488 -0.05281119696700807
5303125000.0 -0.09576572308882904 -0.13202600084748753 -0.031163228402287916 0.05509796804440263 -0.03085517823182888 0.05556134508148209 -0.09811141573524275 -0.056254616177302534
5304688000.0 -0.09751332568023821 -0.13093218256852296 -0.028815968303487448 0.05623829007057327 -0.028687084683023327 0.05672818122571479 -0.10069695412772062 -0.05914273399741798
5306250000.0 -0.0995616248033203 -0.12976160297284448 -0.026405232562135204 0.05715077149358829 -0.026425475861870346 0.057802284750765515 -0.10107057950221733 -0.061451369818893355
5307812000.0 -0.10137874860886678 -0.1285465645831596 -0.024071192668930517 0.05810951606030235 -0.0241567117560364 0.058764350563274094 -0.1005561240570849 -0.06304134471918396
5309375000.0 -0.10328930126138093 -0.1269524277535051 -0.021741481890841904 0.059049549670803024 -0.021780972681289285 0.05955119855626595 -0.09805844864211191 -0.06267280866441101
5310938000.0 -0.10523150274503522 -0.12559970982973923 -0.01941128195345417 0.05971156591068684 -0.019332419933630742 0.060128041410109447 -0.09718456997959656 -0.06040673982561997
5312500000.0 -0.10675691437164152 -0.12441867371991613 -0.01696146738561109 0.06045283284179607 -0.016728039963087568 0.06067822158566397 -0.09764239243209095 -0.05704053295487332
5314062000.0 -0.10865056038778574 -0.12303338418883866 -0.014526422117020026 0.06102141788513291 -0.014069597932334898 0.061314315460845696 -0.0996098734504524 -0.05303789670339689
5315625000.0 -0.11001431728929416 -0.12159093345331991 -0.012041932136618064 0.06162810717367096 -0.01167657082744608 0.06189722213815297 -0.1034869754195247 -0.05033937595948944
5317188000.0 -0.11155118550260436 -0.12045983057728658 -0.009531392634679926 0.06201375439775974 -0.009272141442021126 0.06239129368112139 -0.10802852090846539 -0.04833158185917351
5318750000.0 -0.11303108420284873 -0.11895188710233845 -0.006905830199516164 0.06230007459898611 -0.006869789062980286 0.06274593031465585 -0.11248550430091862 -0.048519304048036005
5320312000.0 -0.11397883806092957 -0.11736839026761643 -0.0044137520364108075 0.06256157169810651 -0.004519910079905341 0.06296063134248737 -0.11702467661702462 -0.04925716508308593
5321875000.0 -0.11486464803780623 -0.11594617360907049 -0.001890303686293808 0.06269780344771046 -0.00217219987582164 0.06314733392616614 -0.12067386363763476 -0.049987008617435574
5323438000.0 -0.1158340786092223 -0.11412211028486167 0.0006558655057279499 0.06283996785269848 0.0004790038806944161 0.06310846778957149 -0.12224055729688335 -0.05349070131872617
5325000000.0 -0.11649258793185176 -0.11269010651760254 0.0029524493515626724 0.06287808664222418 0.0031643208590590465 0.06314798561125222 -0.12415086808852042 -0.055159600245495155
5326562000.0 -0.1173468114555131 -0.11049265505057668 0.005414907940200496 0.06256408245051215 0.005876668591392604 0.0630117584550215 -0.12252721332704573 -0.05770104665340554
5328125000.0 -0.11811791629075546 -0.10856700756463697 0.0077731401091008685 0.062263577200960755 0.00845775956323909 0.06267705827307134 -0.1196595905824941 -0.057959875835431975
5329688000.0 -0.11915518033709849 -0.10655801193742959 0.01019248124848043 0.061706981076417367 0.010882306074117163 0.062163081855805824 -0.11659205058690414 -0.056575583262663307
5331250000.0 -0.11989646698795797 -0.10455703607302275 0.01263489759570166 0.06109271697767537 0.01337905699341251 0.061534732520491305 -0.11339953493557846 -0.05240513950319669
5332812000.0 -0.12074737848051574 -0.10234807112305783 0.015363673629491547 0.06044075671599912 0.015566251967282542 0.06066784290451153 -0.11095455377939716 -0.04731325138999571
5334375000.0 -0.12173088732625144 -0.10031782241796232 0.01778246751610952 0.05975146644941793 0.01788554450567131 0.05979041431848219 -0.11208087282872435 -0.041552216109260534
5335938000.0 -0.12254147241937825 -0.09822368902183992 0.020258907328332208 0.059145345927819386 0.02027644813043845 0.059031542399101924 -0.11253917023552108 -0.03721089508625396
5337500000.0 -0.1236929648366504 -0.09654244596829938 0.02274256608598117 0.058409840408830044 0.022716995442943696 0.05820238539243341 -0.11552133723187145 -0.03258502618974279
5339062000.0 -0.12491823305110326 -0.09469473893137355 0.02503964385398942 0.057428772666647906 0.025174340631611572 0.057468328858335256 -0.1175466662724661 -0.02839166557698944
5340625000.0 -0.12571750571959492 -0.09359024696062707 0.027215565120063286 0.05626315213898821 0.027467635586682623 0.056555353554049406 -0.11964489130458411 -0.026160980475825987
5342188000.0 -0.12674018159650668 -0.09194127685133713 0.029503511908419208 0.05502073519227778 0.02986023993237018 0.05551413912605114 -0.12202590084090283 -0.02364940880214563
5343750000.0 -0.12745402578438336 -0.09033485469353673 0.031734830688160104 0.053684580222949155 0.032223700694636565 0.05413034334770971 -0.12419735968695991 -0.019838236719637903
5345312000.0 -0.12834627357785 -0.0892275923949657 0.03401122700375082 0.05225580384218627 0.03433916419494092 0.052761669011957876 -0.12506268294294798 -0.01952887101894345
5346875000.0 -0.12919512576366682 -0.08753205970038705 0.03618525876207855 0.05082538876074924 0.03653635265556977 0.05106858568004342 -0.12492761871215859 -0.017669144860842517
5348438000.0 -0.1298893667737122 -0.08628177037006902 0.03819976946297022 0.04944521189229262 0.03861685296929512 0.04945728192003416 -0.12549453874128366 -0.016073777831897687
5350000000.0 -0.13080598647719244 -0.08548577459069831 0.04010361201004314 0.04802607236057963 0.0405829884198048 0.04784533236156993 -0.12542782870594726 -0.01408736514387941
5351562000.0 -0.13072430530904497 -0.08420609982378813 0.042040817343005 0.046325812898321064 0.04251779888359013 0.04604756574617115 -0.1236750106975336 -0.010267871231186896
5353125000.0 -0.13125076813198436 -0.08311172710890684 0.0437228582920301 0.044594322394884284 0.0442868797316637 0.044444433051528065 -0.12339699492987924 -0.006622560662747847
5354688000.0 -0.13172874822261776 -0.08157148686203951 0.04555656182261499 0.042653813182369577 0.046104564970408025 0.04265612204112666 -0.12442639870962206 -0.002762005733257942
5356250000.0 -0.13191937915454682 -0.08061328388012164 0.04733440269948766 0.04080237021384921 0.047671711372568065 0.04085262178630145 -0.12569182450739466 -0.00011208539845965947
5357812000.0 -0.13243369588868628 -0.07907667840242956 0.0491120438819353 0.03878512086542105 0.04942273917898883 0.038891692149932364 -0.1273044123544186 0.0023620820332004677
5359375000.0 -0.13269121171890025 -0.07769517314512948 0.050695820523860104 0.03681234854524536 0.05086055951219709 0.03688771853761756 -0.1278708826744867 0.003218041763417754
5360938000.0 -0.13328104280769507 -0.07630508430807234 0.05222021045029552 0.0348688258113832 0.05240312281028865 0.03491102079659213 -0.12817514100693955 0.0037787880673392366
5362500000.0 -0.13359379105049152 -0.07484569445652603 0.0535919145814442 0.032751748802465924 0.05381460790348358 0.03271456995279572 -0.1274492132018704 0.005961888101256041
5364062000.0 -0.13461583409344613 -0.07395219186139082 0.0547532767477905 0.0306575935828316 0.055239977932155966 0.030583744739671927 -0.1271552172444901 0.0066922953023535415
5365625000.0 -0.13495387257476318 -0.07280747770434283 0.05585542021398307 0.028439225112929827 0.05640614107445477 0.02849768230459627 -0.12650616060958045 0.00859087382834746
5367188000.0 -0.13601348159086712 -0.07130758255709126 0.057045624265113413 0.026169590678168188 0.057826117943500455 0.026278102137907784 -0.12552063585223305 0.010560029901142073
5368750000.0 -0.13710594206467444 -0.07047936494234193 0.058228365871331775 0.023805381774706806 0.058891142082120096 0.02404601997531754 -0.12493873258215067 0.012268845772269742
5370312000.0 -0.13746013637299687 -0.07003513570979178 0.05925852059711958 0.021592986584144686 0.059930319422176 0.02167764280075611 -0.12429007431841184 0.014909192734413728
5371875000.0 -0.1382598624039118 -0.06922143273842386 0.06020710791847323 0.019338504868905412 0.06069159255631425 0.01912438656370934 -0.12497472846153165 0.017434549534103935
5373438000.0 -0.13807932506849482 -0.0685739020501641 0.061032797516218824 0.016953664710759063 0.06146412035598684 0.016452888851339623 -0.12646245505085754 0.020488674648053137
5375000000.0 -0.1383591596490674 -0.06822528151153244 0.06177527206838863 0.014552670587081314 0.06216249772729949 0.013771284219390346 -0.12791597862704074 0.022441211681349726
5376562000.0 -0.13836876381853253 -0.06772796527817043 0.06265523271983027 0.011925653538897072 0.06279979445379326 0.011321932386311587 -0.1301958282613751 0.022862783756166113
5378125000.0 -0.13865042680666792 -0.06709818833391785 0.06329240047206908 0.009345061001614875 0.06348940742670846 0.008928640654123653 -0.13103486272048473 0.022913531402571484
5379688000.0 -0.13860617237903075 -0.06654754072319272 0.06398308592279901 0.006762337276009958 0.06403081278642869 0.0066869165546495045 -0.13095903366971576 0.02080111469012449
5381250000.0 -0.1380980350174137 -0.06570693044718644 0.06437220761502135 0.004034046863800823 0.0643829574073186 0.0043209358468529295 -0.1292515441760425 0.021870725581391307
5382812000.0 -0.13819353714254617 -0.06524771741383693 0.06461135314933689 0.0013465001818319653 0.06478824742062533 0.0017282008053654744 -0.1282944021113307 0.02243356210774
5384375000.0 -0.13820940511489743 -0.06426018490491671 0.06484981083384876 -0.0014595170070435977 0.06515458056983171 -0.0010308760853933174 -0.1293231561639553 0.024707226184098152
5385938000.0 -0.1382211169433756 -0.06306213022893806 0.06484242210295932 -0.00449796738580021 0.06533942071303853 -0.004516636639892405 -0.12992468953749195 0.0304985260862459
5387500000.0 -0.13801674981661236 -0.062076187022784765 0.06476976328627503 -0.007489200543978464 0.06536733802133271 -0.007643975397847534 -0.1333761014126093 0.03135185440883519
5389062000.0 -0.13841397359892565 -0.06097854866889172 0.06445415029954116 -0.010527643174090762 0.0650347050878403 -0.010815753570867599 -0.1349610703124481 0.03528014791711645
5390625000.0 -0.13844511185425906 -0.05972089405800524 0.06404064920728147 -0.01345937271323769 0.06464886570011233 -0.014139754490951362 -0.13849668342960447 0.03956226197912667
5392188000.0 -0.13894829309001888 -0.05883935070807916 0.06356654190468962 -0.016317230572304303 0.0638571090355507 -0.0170935904765898 -0.1444404053497546 0.04332115728023835
5393750000.0 -0.13910385498233285 -0.05772027452527963 0.06286626448740062 -0.01939345200462223 0.06292890285075163 -0.020026691809889457 -0.15087943975124293 0.04536024043399928
5395312000.0 -0.13952746473450037 -0.05695783301121349 0.06227213832406356 -0.02224778216230428 0.06212333431255276 -0.02256298718916139 -0.16118086478281993 0.04379161122330744
5396875000.0 -0.14069584378228592 -0.05613330085634952 0.06154070373949217 -0.025327590524930853 0.06123300275768568 -0.025291254128481728 -0.17101151728826333 0.04147080265082451
5398438000.0 -0.1408076058907755 -0.05525538595584489 0.06100362720710989 -0.02829565972962106 0.06058758778921586 -0.028083224725901874 -0.17490609466625937 0.030991622195185815
5400000000.0 -0.14184718370844607 -0.054971561693082094 0.060054530525436495 -0.031010017302300904 0.0599100901956847 -0.030730346126194928 -0.17818546998239373 0.024286796756885234
5401562000.0 -0.14164796283185446 -0.054215616135952625 0.059047704461187914 -0.03349929084613441 0.05916068823943775 -0.03323191838000449 -0.17704371472182948 0.011966837562362033
5403125000.0 -0.14221182589368003 -0.053925954572743705 0.05771836523884181 -0.03601089142340547 0.05819874924023839 -0.03608918241282165 -0.17412079490690238 0.00934809049725364
5404688000.0 -0.14272523192935338 -0.053025613672420285 0.056310732987082904 -0.03824993364496566 0.05683634075003906 -0.038481667836149466 -0.16720331366751376 0.0019151179879849265
5406250000.0 -0.14293927941652726 -0.0527739267459451 0.054300011745741894 -0.04068665127712146 0.05500502332849411 -0.04120170120626472 -0.1647789442416207 -0.0026113160951841256
5407812000.0 -0.14281486302352156 -0.05214754816872278 0.052658127623534265 -0.042939647277130344 0.05302738401970103 -0.04338224111459796 -0.15994969544141846 -0.0015947526115433145
5409375000.0 -0.14283841194347358 -0.05133938001664903 0.05011453276691844 -0.04531326158904879 0.05027255473129547 -0.04587586554868494 -0.15674536338310893 0.0005482993538649716
5410938000.0 -0.14277614929022964 -0.05044000904650865 0.0481926704368327 -0.0476261552409234 0.04794406158236139 -0.04810166843982761 -0.1611981756371768 -0.0004921261150933789
5412500000.0 -0.14270601733490243 -0.04915405633599324 0.04591771703513609 -0.04967174877491339 0.04544262271732768 -0.04991907912547101 -0.15812242441913352 -0.0013217674107932542
5414062000.0 -0.14299013182736664 -0.04769051066199932 0.04368710902070003 -0.05147731949465846 0.04327558444399183 -0.05164890059915364 -0.16293445475336188 -0.004236597493374333
5415625000.0 -0.14296299615613592 -0.046034213865690496 0.04131985513166298 -0.05338731523238041 0.040958662298517766 -0.05338221590357643 -0.16322932056684103 -0.0021277660266883418
5417188000.0 -0.14345899469024298 -0.044255588810676046 0.03872879076167349 -0.0552108724474157 0.03880542855873011 -0.05513261102918728 -0.16723003884504412 -0.005080327396000509
5418750000.0 -0.1435947025387489 -0.042611969531318156 0.036415965525839866 -0.05703595873037125 0.03661452109597443 -0.05692085698134388 -0.17395296254385054 -0.010926899128453953
5420312000.0 -0.14447870243465163 -0.04039427120646475 0.03369690722905217 -0.058770661386492784 0.03411229992981628 -0.058617598586902755 -0.17226610092767003 -0.017352525473161594
5421875000.0 -0.1450883759956988 -0.0381668472758553 0.031019455041197228 -0.06052670311063398 0.031467754030246285 -0.060403114832757225 -0.17042466001884093 -0.02616137714529628
5423438000.0 -0.14621981769267853 -0.0364843527494398 0.028747436678577935 -0.06203300577083467 0.029267796801779464 -0.06213800328415149 -0.16598687158377862 -0.036727045555289585
5425000000.0 -0.14684602200285718 -0.034612263391868944 0.026426764282925466 -0.06297088500154445 0.026738288727009923 -0.06346353039325418 -0.1544301891266845 -0.041948011328633746
5426562000.0 -0.14851979718875105 -0.03245348681753613 0.02398388014462997 -0.06396029832670656 0.023950823468002085 -0.06452899926353745 -0.14427465039780085 -0.04696545431064214
5428125000.0 -0.149511700794624 -0.030792319933966653 0.02159384282937933 -0.06454630415409028 0.02131378821086106 -0.06523895500598262 -0.13303985931402312 -0.04446447409400154
5429688000.0 -0.1504061108133053 -0.029093358454130476 0.01911994262465835 -0.06504264138667686 0.018669770081734417 -0.06567545468432985 -0.12486237269955498 -0.03963744127397242
5431250000.0 -0.15148500973654994 -0.02795774968304754 0.01622552203490118 -0.06515620141703697 0.015956036961809635 -0.06564414008286926 -0.11661845291385656 -0.03353835436444868
5432812000.0 -0.15214010548878826 -0.02635432197415053 0.013559255682168017 -0.06534928663947781 0.013452548259279782 -0.06568191334937251 -0.11047957489261939 -0.026785224088443867
5434375000.0 -0.15280662395963554 -0.024922417800471032 0.010853927941409275 -0.06555660045630655 0.010726255078941585 -0.06561307968993627 -0.10795039619924668 -0.02145814427614056
5435938000.0 -0.15325173537999656 -0.023558772473894235 0.008235894486039043 -0.06586846669383009 0.008109701654010091 -0.0657400745893836 -0.10627940183027891 -0.01724577151675276
5437500000.0 -0.15341208410484322 -0.022003151788895926 0.005459616444304385 -0.06599817859184078 0.005458040051966413 -0.06581944276964967 -0.1070003997000431 -0.012988987175023566
5439062000.0 -0.1537504691196182 -0.0202423442795114 0.0027664190897375503 -0.06594064358637608 0.0027708108928665466 -0.06593986437837225 -0.10501438010108861 -0.01017127053336772
5440625000.0 -0.15335434063204212 -0.01849397662880615 7.762734600222632e-05 -0.0656722497354225 -1.1344478264405564e-05 -0.06596498011015232 -0.10479022862561596 -0.006747337222685055
5442188000.0 -0.1536579410774388 -0.016520572118522106 -0.002748203796110357 -0.06557686902949465 -0.002773471835255422 -0.06593139357017581 -0.10446194190345154 -0.0058548098035011795
5443750000.0 -0.15355420917219956 -0.014414114987237091 -0.005533272549412495 -0.06525756946467479 -0.005671030450113067 -0.06586832193435194 -0.1027876026253124 -0.005056050718241324
5445312000.0 -0.15328391900471514 -0.012088135038623828 -0.008224214119197337 -0.06489640576586674 -0.008329021955779186 -0.06550133809098364 -0.09870610893977065 -0.00413418262607582
5446875000.0 -0.1534013607206349 -0.00962383415663918 -0.010900295743106057 -0.06450619797860196 -0.010897858105109359 -0.06496651614346548 -0.09459979412062068 -0.001585361551051268
5448438000.0 -0.15345263144052068 -0.007116587938992115 -0.013345305437865822 -0.06394816058867347 -0.01346441249180064 -0.06420385581538027 -0.09074093493810936 0.0028736077466131353
5450000000.0 -0.15360607885486313 -0.0047520480094962745 -0.015620845574911672 -0.06316894186947722 -0.015934929696284943 -0.06328283115238985 -0.08836410451742442 0.009449788641493822
5451562000.0 -0.1541021471007944 -0.0024117624490877527 -0.017960920218938286 -0.06221173474515315 -0.01847820001838133 -0.06241416949686343 -0.08820723581590267 0.01637526914515231
5453125000.0 -0.15428509791433967 2.8868953324666725e-05 -0.020431354817814266 -0.061237663054887946 -0.021026727800971385 -0.06128692288492618 -0.08964028368003406 0.023177443082503166
5454688000.0 -0.15482353025658604 0.002116676277711811 -0.0228303974351788 -0.06006944439452721 -0.023383024152101757 -0.060465157342976104 -0.09125588094920045 0.02751065343505208
5456250000.0 -0.15526726680836012 0.004138522523581361 -0.02533971155099587 -0.058949606224212144 -0.025779181639058197 -0.05931326889016399 -0.0946079713043749 0.03127152076370695
5457812000.0 -0.15572867424789696 0.005887651343769989 -0.027818560704890777 -0.057789474702500884 -0.027916575194495846 -0.058062152126896714 -0.0978117311582186 0.03367664554992106
5459375000.0 -0.1561680324630587 0.007791388304632695 -0.030265266609691366 -0.056595946195217975 -0.030262219478195452 -0.05665535423893123 -0.10073251244483442 0.03522906085855615
5460938000.0 -0.15654800537625002 0.00935692170781552 -0.03252640028741129 -0.055165514069029524 -0.032609685173509394 -0.05530286734095325 -0.10336468192130506 0.03496146074722744
5462500000.0 -0.15643781158891515 0.010852946348568515 -0.034732280349298095 -0.05369751914715473 -0.03487125314573253 -0.05374849926926444 -0.1044954831794087 0.034254815056436315
5464062000.0 -0.15638370376800198 0.012005574747954943 -0.03691003226573624 -0.052174364908608196 -0.03717524523020794 -0.05222124131631273 -0.10425056364772753 0.032636612479092164
5465625000.0 -0.1560152302144575 0.013102141731709625 -0.03888542612399195 -0.05058159124573239 -0.03953472675616982 -0.05087577096534236 -0.10338999366310232 0.032141478623356784
5467188000.0 -0.15534387825546822 0.014218735032805564 -0.04089064218903182 -0.0489384447650972 -0.04146923728039398 -0.049184943916750185 -0.10138220470129465 0.03250347572323544
5468750000.0 -0.15501031050491074 0.015749125472503848 -0.04288501255189309 -0.04705293901838604 -0.043341466134564244 -0.04758928066915406 -0.09876772240346872 0.03520816729759017
5470312000.0 -0.1538725731138862 0.01712700038619139 -0.04479215929101966 -0.04531731202392514 -0.045117376223702675 -0.04565373345824618 -0.0979424112373799 0.03649674912778782
5471875000.0 -0.15300626397198608 0.01867769375651216 -0.046568952738975766 -0.04356609318485094 -0.046915640762041605 -0.04355668558774359 -0.096569604485443 0.03834782819030505
5473438000.0 -0.15166129799168337 0.020300538910271542 -0.04831430054743752 -0.041661652553998826 -0.048670722726919545 -0.04139235099731591 -0.09611802066738061 0.039818207922119084
5475000000.0 -0.15073577698668533 0.02174928018211649 -0.04997206000057203 -0.03966306523969311 -0.050179190932986985 -0.0392556527163077 -0.09477492047716046 0.03993950674348497
5476562000.0 -0.1494399682866922 0.023850393381661644 -0.051444955306588984 -0.037616664863252575 -0.05194655001887927 -0.037389351196500734 -0.09358796509160133 0.0395874605546203
5478125000.0 -0.1484624061843033 0.025569728055752697 -0.05295172497159959 -0.03523688803066348 -0.053366254348782276 -0.035403611575708205 -0.09051340249739215 0.04068538998858254
5479688000.0 -0.14727400298146182 0.027349355473167195 -0.05416400715671402 -0.0330763250802213 -0.05466707749648017 -0.03328244639175933 -0.08756558177018674 0.04066254945153734
5481250000.0 -0.1463855963918099 0.029007608405874487 -0.055589661101014674 -0.0308394672753208 -0.055832276058745085 -0.03111710737578669 -0.08268847499078524 0.04191623789942155
5482812000.0 -0.14563595431596452 0.030590990694439813 -0.05687916828609045 -0.02861209166607699 -0.05716157511666881 -0.028905880409385284 -0.07921910627232494 0.04325040013262698
5484375000.0 -0.144542109318473 0.032232181393939734 -0.05802193678176335 -0.02641651694654586 -0.058262851263978746 -0.026452195959791317 -0.07455343118395112 0.04574496962036123
5485938000.0 -0.14340328722877296 0.03330230404938047 -0.05905028550296513 -0.024153598511853863 -0.05943525508617858 -0.024115479988553318 -0.06942161971349366 0.04897393298874664
5487500000.0 -0.14251068183456067 0.03457732343950655 -0.059998757236858324 -0.021886954605943837 -0.06045771202007775 -0.021691230874244394 -0.06396244623280294 0.053472595022367356
5489062000.0 -0.14123561651968153 0.035450404855291565 -0.060943607726583936 -0.019508509170759167 -0.06136961924671068 -0.019177519783595876 -0.06292472485538977 0.05992237229446847
5490625000.0 -0.14027971938834333 0.036426406617697735 -0.061611446302404387 -0.016893712427693334 -0.062136819672341255 -0.016750939600903566 -0.05668752971614793 0.06564527075316859
5492188000.0 -0.1387413395852047 0.03713176777588063 -0.062116929484283843 -0.01438719466296275 -0.06261880858491584 -0.014223677978724356 -0.05622339838603534 0.07136949511716675
5493750000.0 -0.13755451451236356 0.037761806222316674 -0.06267022489140467 -0.011616159670379093 -0.06297715304565948 -0.01156998896098555 -0.056862614662171816 0.07591858618917709
5495312000.0 -0.13591536433579754 0.03835243483869872 -0.06296257101172541 -0.008949270562579444 -0.06324548515723531 -0.009038103444884829 -0.05669872950937091 0.07896967861065038
5496875000.0 -0.13421231126883895 0.03900941198280687 -0.0630982647251269 -0.00640735333674065 -0.06346843031309832 -0.006276167673042967 -0.05598861861422645 0.08135121927550397
5498438000.0 -0.13248657283347354 0.039720560574954586 -0.06331562287095066 -0.003901081465075431 -0.06369797676970855 -0.0035901947290437938 -0.05518685796576626 0.08360386604562693
5500000000.0 -0.13067799023196536 0.04061473200467822 -0.06338940936168645 -0.0013553567861432792 -0.0637321463039381 -0.0008821159462033569 -0.05231488989231273 0.08602333879046917
5501562000.0 -0.12877455127940307 0.04144203609762471 -0.06337173209665675 0.0011982495158353007 -0.06380504071852296 0.0017355288238077363 -0.04946442063424327 0.08856502124414514
5503125000.0 -0.1269455670193695 0.04208794527029728 -0.06322420921408271 0.0038162776380377193 -0.06365420057834358 0.0041998994128468504 -0.04747399750676216 0.0930696498939364
5504688000.0 -0.12504460449040872 0.04294310770421769 -0.0629790569133554 0.0064811348143841395 -0.06339628252593454 0.006728755402393279 -0.045789241126405734 0.09889242331110841
5506250000.0 -0.12309493781481419 0.04394982138247361 -0.0628550235919609 0.009105652315290966 -0.06300732168490161 0.009348701870676568 -0.044982022019518085 0.10569780446661171
5507812000.0 -0.1214828132692211 0.04511043772037821 -0.06246709377830117 0.011891156144620458 -0.06255354441161087 0.011939447605813688 -0.04698690003066731 0.11157361608864859
5509375000.0 -0.11977346151620423 0.04569967945218882 -0.06188781160874076 0.014526384696273651 -0.06201813992716035 0.014597303898640517 -0.05031693204443398 0.11809514084815298
5510938000.0 -0.11845688912216065 0.04655322602373104 -0.06130669992604176 0.017107810121902167 -0.06144462520925941 0.017279221141022816 -0.055169350229699377 0.12167423788966501
5512500000.0 -0.11736009924557297 0.04724431153184057 -0.060638330631442874 0.01973354530784549 -0.060898180227163666 0.020015443316111017 -0.06211553523711732 0.12495463278479549
5514062000.0 -0.11599021055987246 0.047800796055856215 -0.05959995759488865 0.022094817230298686 -0.060050637281107426 0.02262620938646884 -0.06838284002548896 0.12553219815744485
5515625000.0 -0.1146096600750172 0.048437162753899254 -0.058782599480646895 0.024497164842493147 -0.05908895294453202 0.025112206943811076 -0.0753536577255611 0.12249394021101766
5517188000.0 -0.11369035084205024 0.048428314856110585 -0.0576282769142308 0.02685910147566388 -0.058142329977784804 0.027499437193574824 -0.080036066232893 0.11961298333700722
5518750000.0 -0.1123074348159735 0.04871136030336884 -0.056524687428788974 0.029337894495312475 -0.056762393168036 0.029914674872003933 -0.08367309525130127 0.11469970787007407
5520312000.0 -0.11098782143101743 0.04886413649963547 -0.055399770326142316 0.03161879945363081 -0.055386346329461766 0.032044332337265245 -0.08803210013919444 0.10957197410760612
5521875000.0 -0.10973079437554906 0.04915997781012224 -0.05435894674053948 0.03411314358047091 -0.054194242187954066 0.034291132206382184 -0.08971604691024186 0.10305578637728535
5523438000.0 -0.10840850568324598 0.04923798904782023 -0.053007182013132405 0.0362152556744314 -0.052848155687776 0.03640317511995167 -0.08688318039815802 0.09833810738658601
5525000000.0 -0.10721546408971588 0.04920823727713893 -0.05179026339126174 0.038257775260085176 -0.051384563249495425 0.03844941946949648 -0.08603390846586582 0.0950454556001319
5526562000.0 -0.105802972023618 0.049512290352630585 -0.05002969748200921 0.040418630910407094 -0.05004360087459231 0.040603106147135186 -0.08533217556084839 0.09226517513339634
5528125000.0 -0.10439751142380806 0.04983661028518939 -0.04821502532450536 0.04257592491257006 -0.048389908688047566 0.042843608239439356 -0.08513966748655352 0.09249206006951231
5529688000.0 -0.1033686522773076 0.050261179437659585 -0.04630919350682383 0.044754755102001005 -0.04656171458299447 0.04498474178973847 -0.08653478976387781 0.0915990283604808
5531250000.0 -0.10206152587650659 0.05070542400619436 -0.04423816942444188 0.04703575441872717 -0.04464091798620926 0.04720130400964051 -0.0907857858751729 0.0896657122325884
5532812000.0 -0.10132413196837986 0.05114293261678715 -0.042234212886078246 0.04900087856219766 -0.04256538817990998 0.049227855642955606 -0.09360835935980867 0.08459943279406333
5534375000.0 -0.10073448409629863 0.051633287388414884 -0.04014131478997827 0.05101562696712436 -0.04033698503668949 0.05136250912927192 -0.09781608946795844 0.07834087409449682
5535938000.0 -0.10003996297487891 0.05203190365416772 -0.03804076468436393 0.05292483843495669 -0.03800115615153291 0.05326132203924786 -0.0993470111879273 0.07139396270382822
5537500000.0 -0.0996345251967785 0.05261049347865839 -0.03606733376852738 0.054646764802824994 -0.03583254797509944 0.05514871966830669 -0.10002834199778843 0.06165143393197454
5539062000.0 -0.09961016610484172 0.05278155443676632 -0.03388238391020643 0.05631939229131069 -0.033554381142194036 0.05664871396460762 -0.09583370466641129 0.05311244626552928
5540625000.0 -0.09944809623824974 0.053042392240912443 -0.03168109018259701 0.05770877564594909 -0.031409453651674725 0.05819235573853294 -0.09216702412045642 0.045515781124127255
5542188000.0 -0.09962582107140672 0.05329377789629651 -0.029447658303287133 0.05902684094580674 -0.02931384855352493 0.059333611179089696 -0.08557238077942303 0.036501287398100775
5543750000.0 -0.09981852671930412 0.05334819472195529 -0.027046704936359845 0.06031211479376927 -0.02715837438246218 0.060550161380017634 -0.07685741054165199 0.030282085755096954
5545312000.0 -0.09979868205289845 0.052988943275707835 -0.02469209387969846 0.06137831247535169 -0.024844902053291408 0.06154629921045812 -0.07078794986762929 0.027669647324042417
5546875000.0 -0.09991313222923133 0.05274279261955442 -0.022347044728458398 0.06248274009225994 -0.022570042181356893 0.06265233025023392 -0.060016367994880485 0.026532424174943035
5548438000.0 -0.09995610090800018 0.0523902613670094 -0.019900977103348056 0.0634172328327489 -0.01992558248285682 0.06355567900909626 -0.05389228883492897 0.028449068320441345
5550000000.0 -0.09985400884652984 0.051966260548507295 -0.017380283700838446 0.06394107218845388 -0.017238866230811778 0.06426654565624978 -0.0479282527070032 0.031059429230611082
5551562000.0 -0.09973988504708192 0.051831468380911204 -0.014726548181219552 0.06452715175118008 -0.014612148276113669 0.06483047628319595 -0.0451859918231164 0.03548596528751423
5553125000.0 -0.09945644005349202 0.05131387818762693 -0.01205875702205408 0.06496148330735581 -0.011821550761015497 0.06539088592638116 -0.04388332613268416 0.0367677477873688
5554688000.0 -0.09918320878370275 0.05118564940442608 -0.009178348902844262 0.065297577595654 -0.008879049754176875 0.06578164561704475 -0.043443978691857524 0.03718120126036993
5556250000.0 -0.09891285248553652 0.050919929738646424 -0.006188669200280464 0.06576506457798686 -0.006080312309627108 0.06630914098482561 -0.042797187489225806 0.03814797565102049
5557812000.0 -0.09879355570906749 0.05119922527063523 -0.0032702882661448684 0.06621722767378892 -0.003219037887756023 0.0665398357607484 -0.042572466008111785 0.03613724707631286
5559375000.0 -0.09856565778360515 0.05130564320678222 -0.0006124610542683509 0.06650538198467136 -0.0005181155719515065 0.06660117886282357 -0.03806644648415878 0.034737702729864775
5560938000.0 -0.09826418204929878 0.051541357640204795 0.0022474648222306727 0.06668920533032256 0.0023001639277605975 0.06679470886061609 -0.033272444162837915 0.03557117477576328
5562500000.0 -0.0983611643228994 0.051809656952203575 0.004789187596896783 0.06644228760226263 0.005090772918544575 0.06660300742401741 -0.03043354435455816 0.03875482795619766
5564062000.0 -0.0983288547777377 0.052397036317360875 0.007529783083524108 0.06611451145681702 0.00778591207440853 0.06633705301842187 -0.025307944131388718 0.04142452678638484
5565625000.0 -0.09860800338196361 0.05309374226334694 0.010211777009798547 0.0655527090029469 0.010502951795274003 0.06610184686145588 -0.022649921019845733 0.04826467694984215
5567188000.0 -0.09892096863521722 0.053661975331550496 0.012971416585438888 0.06493513503653878 0.013219453653772145 0.06547129983682862 -0.022153316753335737 0.05373814195921205
5568750000.0 -0.09932275412650521 0.054196560050562545 0.015725332717698184 0.06416670790075754 0.0160028675291649 0.06473799127149829 -0.021512784395208068 0.060590862360432124
5570312000.0 -0.09975224184636175 0.05470446601396467 0.018418496800679106 0.06340097567575194 0.018486070955219713 0.0637464828119706 -0.024266945042388105 0.06703133936506162
5571875000.0 -0.100030975600674 0.054989067519762694 0.020873764369795156 0.06246214576164523 0.021166305184471275 0.06262348310355556 -0.0286121366781876 0.07294536111931749
5573438000.0 -0.10091636382099031 0.05515578289306777 0.02342211345357245 0.061400685171696445 0.02369506570985506 0.06149360369126269 -0.03467388939866968 0.07940267273497142
5575000000.0 -0.10131540833049396 0.05525544777092913 0.025831264363857524 0.060237833775776545 0.02642072131816244 0.06025058725187745 -0.04174698361164748 0.0812343559194802
5576562000.0 -0.10164329454064484 0.055384169196077616 0.028435218934067898 0.058923404242973806 0.02914827017982084 0.05887183622388705 -0.048559749475054426 0.0808818177792484
5578125000.0 -0.10170350699330183 0.05533470528033641 0.031238398818307995 0.057434834815685176 0.031709105698614605 0.057588221869216145 -0.05337027124202788 0.0794501319903733
5579688000.0 -0.1016161746713138 0.05537322921907192 0.033871852585478375 0.055961990596477204 0.03432533491071737 0.056223315841481755 -0.05749717114734396 0.0768487288910274
5581250000.0 -0.1012476240998194 0.05560186957199196 0.0364510318019815 0.054413348579836096 0.036583053412427 0.05473635616730862 -0.0599329582101421 0.07402890654230454
5582812000.0 -0.10083247198032058 0.055517788190080214 0.03880740493957017 0.05273409852894706 0.03888357022501256 0.05299596068362367 -0.06157809823168301 0.07252407735270562
5584375000.0 -0.10010934948786487 0.055859113609048126 0.041122961261115476 0.05096961295520286 0.04116558735695873 0.05113659011813776 -0.06346109633613839 0.07197904341668508
5585938000.0 -0.09938476729278199 0.05653923530772613 0.04320292839504005 0.04909568248413938 0.04351419186385027 0.04923460353263634 -0.06433846827574327 0.07025039329786086
5587500000.0 -0.09839186096979258 0.05690196180352496 0.04515758909059163 0.04717377708611049 0.04579084027319949 0.04726500833894747 -0.06555375134404265 0.06875465770832213
5589062000.0 -0.09756800138677879 0.057774589515164614 0.04712131215378435 0.045093854536776154 0.04794574522736123 0.04540314906212034 -0.06728045154068352 0.06766365669299021
5590625000.0 -0.09662431272218146 0.05870613258941837 0.04900983551708463 0.04304931431809873 0.04978808507874348 0.04326329840798379 -0.06903523095824585 0.06546526458715363
5592188000.0 -0.09571487910359568 0.05980748162459801 0.05098173307739625 0.04080066818626984 0.051612123749160736 0.040999028937675985 -0.07029616213924625 0.06333485934013001
5593750000.0 -0.0946808903738773 0.06077992748579661 0.05277686400184808 0.03848294167323862 0.05331494045751509 0.038550044010864905 -0.07132105817003284 0.05935848434911423
5595312000.0 -0.09401617675373594 0.06208735688210571 0.05471934867633468 0.036171335578463616 0.05490423998632811 0.0360729353454519 -0.07087907921023967 0.054435734538882265
5596875000.0 -0.0929872624499449 0.06330554362419653 0.056297301112708295 0.03386877391563068 0.05650657225479742 0.033372644620759485 -0.06996644768433712 0.047555663020739915
5598438000.0 -0.09222623087560487 0.06448777793772391 0.05793907324426756 0.031406768879965144 0.05798640921157943 0.03099521590506224 -0.06437828463206083 0.041924194091652364
5600000000.0 -0.09133647098906274 0.06561174773455831 0.05940344632084803 0.028985212808590326 0.05937882683655917 0.028630989415701604 -0.059901607208135914 0.03659400812889918
5601562000.0 -0.09056296648231041 0.06636656237755602 0.06043694170795038 0.02646982345604604 0.06059158685983093 0.026407838171804254 -0.051348060920909544 0.033333657182469695
5603125000.0 -0.08967962167650023 0.06720336419419727 0.06153684632649061 0.02385828997352677 0.06173381894869256 0.024274690448451063 -0.04226202169773837 0.032067075226756496
5604688000.0 -0.08886660142833412 0.06816652610103305 0.06234902430858561 0.021478738128276467 0.06272528495280962 0.021838255717454857 -0.03307896614018827 0.0340257415346737
5606250000.0 -0.0880847884742221 0.06867950314129936 0.06339309847281464 0.018936519242769553 0.0635833318002108 0.01936964392252189 -0.024313584306642856 0.03535163366682907
5607812000.0 -0.08711987505410587 0.06890544944827655 0.06409634324345798 0.016545859108401936 0.06455258865157273 0.016861632823080695 -0.018154143600180278 0.03767955936610019
5609375000.0 -0.08576070708332402 0.06980023609751324 0.06501490988304386 0.013892675773766213 0.06539797016901039 0.014004819925245736 -0.012871537478391185 0.042627157345808166
5610938000.0 -0.08445187743421768 0.0701101481976737 0.06556843734360357 0.011359435313231685 0.06603060497386572 0.01109376198586724 -0.00712524951573985 0.045959114232467506
5612500000.0 -0.08287534460274658 0.07064263127743953 0.06587760441287403 0.008653445037809564 0.06657683901398923 0.008208265156083852 -0.0008700946977031202 0.05025001879113617
5614062000.0 -0.08116210939622599 0.07114306563373105 0.06608934350422686 0.005924660171733301 0.06675179620598314 0.00547505209539729 0.0043664716178261394 0.05472854186978335
5615625000.0 -0.07942847630742021 0.0715296103484391 0.06615988333648813 0.0031556714340721702 0.06656999896676066 0.002609657719083604 0.008268935344200182 0.05777167433001651
5617188000.0 -0.07805220305414351 0.07234678766249679 0.06611508210280734 0.00019196383850822002 0.06638562688475949 -0.00020625706044078505 0.013537056257635694 0.06175344632461501
5618750000.0 -0.07647949404796714 0.07298535814970326 0.06609925073357344 -0.0026911128630416705 0.06606786399401575 -0.0028501118358062122 0.01864111315453978 0.06540087735035807
5620312000.0 -0.0750348636310104 0.07380337124144457 0.06594419962554023 -0.005334354368369903 0.06581402956454985 -0.005338192042334966 0.02372454050469711 0.070465899078949
5621875000.0 -0.07367656811379543 0.07472617876247865 0.06567321302147737 -0.00783329700358309 0.0655769910863412 -0.007682662789677276 0.02902687258574736 0.07453115549813447
5623438000.0 -0.07227204384166688 0.07527320809976365 0.06516451770380886 -0.010194972618097828 0.06523245167414524 -0.010197878245811353 0.03479856219632761 0.08330596436579911
5625000000.0 -0.07098943969717661 0.07617220165989672 0.06470757372534205 -0.012430430307548505 0.06507076492236843 -0.012493450987727792 0.03819866140509057 0.09579201890256889
5626562000.0 -0.06990470405541165 0.07648745367017798 0.06400615156890646 -0.01475924851897283 0.06446829941733526 -0.014796918305646709 0.03723401161526439 0.10462244953894474
5628125000.0 -0.06896856830956795 0.07701682827759508 0.06318022230470786 -0.017186657995154165 0.06389591892791098 -0.017417393549489575 0.03462236371387124 0.11335636067113845
5629688000.0 -0.0679921293315114 0.07721988757962102 0.06233752164925751 -0.019873521823739623 0.06288370651658665 -0.020082755776906023 0.030630624372435834 0.11936327686880893
5631250000.0 -0.06703041083808643 0.07772335847632199 0.06139457559669824 -0.0224159064865911 0.06191155713077619 -0.02279383327409988 0.024364700104395242 0.12401835343612277
5632812000.0 -0.06606814762536406 0.07763197652228612 0.06038348136867477 -0.024979210082526904 0.06071514810963239 -0.025350800368593707 0.017487547080475743 0.12597286885093098
5634375000.0 -0.06530204884407131 0.0777003445487292 0.059112923649178174 -0.027592240372120064 0.059355935446889434 -0.027940356882406044 0.013188506916829183 0.12613285380270742
5635938000.0 -0.06456184934334991 0.07762028848420859 0.05787398151933809 -0.02978593939843555 0.057926115243690006 -0.030389925814348892 0.007876120881690112 0.12436250327756528
5637500000.0 -0.0635328398429411 0.07759586509809825 0.056295977492065406 -0.03238857539640175 0.05627284169986943 -0.03273954041387017 0.004841772636840129 0.12164336544241593
5639062000.0 -0.06247777567437884 0.07734567999337501 0.05473666918286814 -0.034561071158735315 0.054732698881616006 -0.034963181343302584 0.0020695758016468684 0.11905829137925955
5640625000.0 -0.061420792555548956 0.07719045823769326 0.05294868186215074 -0.03673676518398292 0.05309346358792698 -0.03730834816561587 0.0003042097654942378 0.11485030290216446
5642188000.0 -0.060483141439113805 0.07698950561991393 0.05125685416992954 -0.038918982144536846 0.05150953302212937 -0.0392213396442946 -0.0017933815275402078 0.1118069585740014
5643750000.0 -0.059294452395517894 0.07693332355772815 0.04952026553886935 -0.04108177214435265 0.04983095301124771 -0.04137536902480291 -0.0021301323259999643 0.10928944087968294
5645312000.0 -0.058517167868040176 0.07676565247787838 0.0478409128085201 -0.04312125682696462 0.04801794620878549 -0.04344465439970612 -0.003532511948531089 0.1066414925856097
5646875000.0 -0.057629425668316386 0.0767641518548247 0.04621701300368872 -0.04513049006997205 0.0461308987477275 -0.04540652816780335 -0.006561883367795761 0.10394034467329591
5648438000.0 -0.0569256732934469 0.07650852458879749 0.04415991773348381 -0.04702257370823144 0.04416087937029743 -0.04729073125806822 -0.010034124563966709 0.10044495749784631
5650000000.0 -0.05635513379723066 0.07651165927861821 0.042122655080553614 -0.04882440698206682 0.042152344263105955 -0.04928612924352289 -0.013404392165904173 0.09432313259988503
5651562000.0 -0.05574488555970078 0.07654250003572488 0.03989813058017638 -0.050647931683018045 0.03996445123856177 -0.05104117219162589 -0.01568879723580971 0.0873999423293113
5653125000.0 -0.05551196782379119 0.07653123407908678 0.03765252225395269 -0.05236645676917282 0.037860394536494583 -0.05279416368767083 -0.017564523689327968 0.07884140261509197
5654688000.0 -0.05507890402548172 0.07601553369209299 0.03529086386893755 -0.05403854781815558 0.03560927684796724 -0.0545327551060728 -0.017559142766103552 0.06887932023091606
5656250000.0 -0.05492965513182861 0.0754645967030157 0.033052978406022504 -0.05564787451270953 0.033311961636761186 -0.056138851062541115 -0.015136603236510443 0.058562983905108945
5657812000.0 -0.0548214460917998 0.07484995085396531 0.03073418402304816 -0.05714585506530941 0.030920864004598925 -0.05764540285890518 -0.011134571652997126 0.04909120779369102
5659375000.0 -0.0545465551472912 0.07390276207487574 0.028564088937619695 -0.058641792941762964 0.028232255250089548 -0.05899224930153393 -0.003673352186057466 0.039298553686943884
5660938000.0 -0.054472868431248926 0.07310817047441118 0.026264915445869126 -0.05984333442850866 0.025771841800559036 -0.060468399703026685 0.0046831588710283326 0.03327415154705609
5662500000.0 -0.05421429621302252 0.07201306922202681 0.02381413210541528 -0.06119263765805816 0.023325953797624404 -0.06145266485138891 0.014250224215675974 0.028909602199941462
5664062000.0 -0.054126311997266134 0.07096778837897742 0.021509784056027333 -0.06217956754750453 0.020994509434218465 -0.06253859563299413 0.022809204002369986 0.028039031422501887
5665625000.0 -0.053548468785022056 0.06987049754358828 0.018844100874877964 -0.06312735895351061 0.01868317119551968 -0.06329393351113963 0.030160278859623663 0.02905304025481891
5667188000.0 -0.05311172477249057 0.06875485857405816 0.016260515356426915 -0.06398395109377558 0.016168030819518092 -0.06424468277214866 0.034460603693807136 0.03130376944732132
5668750000.0 -0.05273424459829226 0.06753886451816557 0.013468984650394098 -0.06487739598144045 0.013715990462320405 -0.06494970790440285 0.03740161267365883 0.03109316362293893
5670312000.0 -0.05212582857364625 0.06624576704790877 0.01080771313861215 -0.06543931735443939 0.01113167133679084 -0.0656218338854819 0.039915744777401896 0.0313384825357202
5671875000.0 -0.051561992758317236 0.06524478493438932 0.007993501800148161 -0.065974419955774 0.008252542904017062 -0.06627625604005706 0.04109571781412389 0.030566202216944564
5673438000.0 -0.05091172477126474 0.06432645199640058 0.005313850904594883 -0.06643280980771084 0.005240058951409018 -0.06677839384366872 0.043502536552838 0.03026670970625513
5675000000.0 -0.05036183479405274 0.06354079519461713 0.002608244269536685 -0.06660326136068603 0.002179379954127821 -0.0672319686873026 0.04519915818500819 0.028790876241158385
5676562000.0 -0.04989327024342259 0.0631133735384743 -0.00023995146090294119 -0.06681488837078768 -0.0009062732964919449 -0.06741226276839841 0.04930751187521952 0.028571020142469927
5678125000.0 -0.04966559155172092 0.06273053027243447 -0.0033033492431136955 -0.06678849007500264 -0.0038075536638328476 -0.06730335444663384 0.05033762740962177 0.02816900721954043
5679688000.0 -0.04925777291038182 0.062321519550363365 -0.006257220866581392 -0.0666887231252702 -0.0067921961140088435 -0.06694734088787785 0.05356375072072614 0.029095803814551385
5681250000.0 -0.04957517545424835 0.06193033426310949 -0.009258636833709654 -0.06650944896248256 -0.00947632902808725 -0.06659101275891595 0.05691558240044862 0.0316790720570082
5682812000.0 -0.04965016575499282 0.061603473161927755 -0.01208668271734681 -0.06624922114214807 -0.01206524339809999 -0.06609610104072995 0.05891083228465104 0.03485163764403307
5684375000.0 -0.04994157288044 0.06105746507081682 -0.01464119587044121 -0.06581466506478835 -0.014537196802374943 -0.06559116443739757 0.060323428295504196 0.0404607638438979
5685938000.0 -0.050496155871380864 0.06071438781080395 -0.017222946383380493 -0.06529205095587642 -0.01716533583486224 -0.06511702259128789 0.06144527860306903 0.04772443812724601
5687500000.0 -0.0510566736649462 0.05994109793869614 -0.0195677958502819 -0.06440180085749984 -0.019642044468405485 -0.06452957961513925 0.05766625525787039 0.053970538704078204
5689062000.0 -0.0517186542345274 0.059207871558618154 -0.02216644762136738 -0.06339195257213981 -0.022328190106054156 -0.06370168496220996 0.049246143552492426 0.06018642956969993
5690625000.0 -0.05227310078079507 0.058428251750803115 -0.024877784136518262 -0.062094841139103754 -0.025073387335692542 -0.06279729946969148 0.04152784308653373 0.06303442382782483
5692188000.0 -0.052608079281749216 0.05777405476050475 -0.027631082077256893 -0.06100257291465205 -0.027988366454215548 -0.061661995409322816 0.03312615199677665 0.06386997713893268
5693750000.0 -0.05287017872613303 0.05688500673399918 -0.030396190061722193 -0.05959531732532093 -0.030674548635046723 -0.060142412747286954 0.025477838099978733 0.0629174489248148
5695312000.0 -0.05300372818893707 0.05605728409373893 -0.03300852318533475 -0.058284413054880704 -0.033437958301068146 -0.058564664837227505 0.018853503565417408 0.060291112663693566
5696875000.0 -0.05306387540877457 0.05541375245144061 -0.03560967256254135 -0.056586430133555604 -0.036023520500594465 -0.056484481525374136 0.01465548203307692 0.05703297399248687
5698438000.0 -0.0529360251780064 0.054652819637162536 -0.03800399756474721 -0.0548957098775699 -0.03852138352207566 -0.054548702310063 0.010120817127579214 0.05539859108305344
5700000000.0 -0.05270626463102046 0.05444743365870017 -0.040405722836226184 -0.0528273186243736 -0.04078896881944233 -0.05266046589178949 0.005336814432873217 0.053145048278071545
5701562000.0 -0.05252369183948457 0.05397058611549313 -0.04257845919161313 -0.050755170999529683 -0.04299246622381239 -0.05064735149617892 0.002517698231790093 0.049553681410396545
5703125000.0 -0.05214827535731097 0.05391873631739065 -0.044768023922411034 -0.04866422503628177 -0.04511531218007927 -0.04878977844171141 0.0005260815715923968 0.047444550994590724
5704688000.0 -0.05172599364138645 0.05419683134473709 -0.046837683058929595 -0.04651384112510146 -0.04699486794924934 -0.046825391498833815 -0.003471826343056609 0.04565252519934826
5706250000.0 -0.051470075215136954 0.054485436489731046 -0.04886044743159178 -0.04447599208106042 -0.04901155969810662 -0.044689792841998 -0.005593768155514148 0.04427220875597963
5707812000.0 -0.051010543448428126 0.05525429357940431 -0.05081917899517875 -0.04235122969966039 -0.05094281101049477 -0.04244401703240557 -0.00941998061077752 0.043513442956763786
5709375000.0 -0.050673198252833694 0.05585319054916635 -0.05264161067136878 -0.040083066429389275 -0.052773111579977876 -0.040012301497653585 -0.013333007977485978 0.041264320346292994
5710938000.0 -0.05054444322677329 0.056773523767479794 -0.05421385232316428 -0.037653809668281635 -0.05460350730058385 -0.03763721153644816 -0.017420485084919713 0.0376443610551051
5712500000.0 -0.05040962523016157 0.057585058051928435 -0.05568268387718827 -0.03501947809466474 -0.05628963595856963 -0.03499279465230994 -0.020291817073896722 0.033115304326574065
5714062000.0 -0.05074717247768781 0.05844746697919292 -0.05706231612608207 -0.03231556070848152 -0.057934132933082305 -0.03245343535506678 -0.021883048931678147 0.028542997064974932
5715625000.0 -0.05102408619326168 0.05942067710741517 -0.05866771255507421 -0.02962633127970694 -0.0592465790449259 -0.02982368060200725 -0.021075841619174387 0.023374879479007935
5717188000.0 -0.051307098903443774 0.06027551899510536 -0.05987845658392507 -0.026934980923034993 -0.06038777591944519 -0.027126385043824263 -0.01857165225121601 0.019660742702711877
5718750000.0 -0.051597346218858316 0.06102152912188475 -0.06102311249518334 -0.024236684787978836 -0.0614998497997763 -0.02431266705203921 -0.015202641508722659 0.016224695524917506
5720312000.0 -0.05201479473321858 0.061636589762516035 -0.062126094885019315 -0.021583958386015022 -0.0625008997125219 -0.02135733390008042 -0.011344118592733855 0.015150113087842705
5721875000.0 -0.052164728068287064 0.06221146734267562 -0.06307962215164203 -0.0187953641063967 -0.06346801638476897 -0.018575785196411773 -0.007160073239422525 0.014547031228244831
5723438000.0 -0.052263717717929856 0.06243334447190325 -0.06380783317367865 -0.016088176577446635 -0.0642581070645723 -0.01563401578643594 -0.0025300357579913055 0.014831045183904533
5725000000.0 -0.05214029415185789 0.06278382838069478 -0.06442927906375884 -0.01328610872205121 -0.06478885142279067 -0.012794547656422498 0.002212842589984767 0.0169624417804832
5726562000.0 -0.05189519865123478 0.06312776462257147 -0.06469748189159207 -0.010323314872272492 -0.06516164043526432 -0.010102853420592077 0.006122392357514568 0.0200250146242799
5728125000.0 -0.051406290717763294 0.06337191225725826 -0.06496809659829388 -0.007466909887115419 -0.06533347226196036 -0.007371731663508518 0.008606059251410354 0.022429210333057226
5729688000.0 -0.05119373483125804 0.06374136230691248 -0.0651357174171861 -0.004516410129854021 -0.06540068098803858 -0.004629557493391501 0.010166786425326136 0.024736228608537036
5731250000.0 -0.050709505551059506 0.06427723712482096 -0.06526748326948802 -0.0017490363208463255 -0.06539830454132162 -0.0019124127597931534 0.0130951951056174 0.027170302749002877
5732812000.0 -0.04993477292175339 0.06467360285855359 -0.06528785835669738 0.0010933768077718534 -0.06542054887267357 0.0010044079584191781 0.01692604895955869 0.028274026893158725
5734375000.0 -0.04933484275694961 0.06537446827784592 -0.06521701499061085 0.003662970770630291 -0.06557165895595193 0.0038339131224382713 0.021630138050988432 0.031119284701582903
5735938000.0 -0.04876588865927641 0.06606852895689877 -0.06506928707128147 0.00633093881367869 -0.06547506354216359 0.006480044487993286 0.027820436770746103 0.03435330181579572
5737500000.0 -0.048071606128617134 0.06691381141133941 -0.06474906084462412 0.008939530283732096 -0.06523186503944448 0.00927769217021674 0.03084660673550996 0.03880653542737245
5739062000.0 -0.047411531498550034 0.06744994818819229 -0.06425949880546906 0.011700446413328899 -0.0649197586126533 0.012028633506442928 0.03585382768890428 0.04647098915147099
5740625000.0 -0.04707913279096529 0.06835530490956271 -0.06367698834634485 0.014413039882418242 -0.06423569247422689 0.014839475256558888 0.03920017870350085 0.053337353799399044
5742188000.0 -0.04683332213153099 0.06902952782282679 -0.06311090991840006 0.017234919562900474 -0.06338181573371696 0.017571249080130167 0.03998379813190096 0.061926483932285135
5743750000.0 -0.046580803685006604 0.06949628894974026 -0.062325069528946425 0.01987503774832061 -0.06244459500362791 0.020272266592891056 0.04081535423214931 0.06790943020855904
5745312000.0 -0.04636599385443402 0.0701463040032025 -0.061299078800699985 0.022460772696251758 -0.06121381079590765 0.02274627627598919 0.04035231508399223 0.07432231918767238
5746875000.0 -0.046243576034168656 0.07059563604919293 -0.060100972144475275 0.024993913886122807 -0.06004253340918676 0.025176979573986784 0.03703981911765693 0.08011612797769127
5748438000.0 -0.04613205234183229 0.07086165165884034 -0.05872998521784724 0.02724711824914478 -0.05872058361369942 0.027355023234116496 0.03394186111306156 0.08472322597334674
5750000000.0 -0.04611269759099197 0.07116327066544537 -0.05706888387176255 0.029387837893464594 -0.05725655293816644 0.029650706146410685 0.03012723045683414 0.08821486980776044
5751562000.0 -0.04602484590969453 0.07109034002359636 -0.05545577320077576 0.031795578946707294 -0.055812037390251215 0.032000555769534283 0.025786204250536692 0.08984175283287874
5753125000.0 -0.04590555345084168 0.0708886404280968 -0.05362220981391989 0.0340430941846866 -0.05404733702967706 0.03419094105173085 0.023829917490211995 0.0867155886538392
5754688000.0 -0.04562995247687924 0.0707678670650575 -0.051977281776955264 0.036334788576072585 -0.052470744152493455 0.03655743955861693 0.023353338211891728 0.0863678336025671
5756250000.0 -0.045520812973358006 0.07053780611250929 -0.05028120569403672 0.03848180952450461 -0.05068947970366426 0.038739547108696655 0.02495036130190265 0.0841234518304659
5757812000.0 -0.045277523862351475 0.07030332651300902 -0.048520938968776794 0.040653917411940396 -0.048754827375394064 0.04107787267109135 0.02691049428649869 0.08527283191895564
5759375000.0 -0.04485550957910996 0.06994729150683526 -0.04685699508248634 0.04223776781295945 -0.04683667891087744 0.04285510641440988 0.028523559709828228 0.08742640868634759
5760938000.0 -0.04436148001955494 0.06969709317903944 -0.04480904474539729 0.04413236240980237 -0.04494811459396784 0.044760792574545814 0.026352533123257714 0.09122977595473421
5762500000.0 -0.044127477047027366 0.06938367554046068 -0.04283207137077519 0.04592221046579551 -0.04261501285070249 0.04635113182271214 0.024689090122578212 0.0943833713671344
5764062000.0 -0.043804261230231345 0.0692136489470586 -0.040675299056434897 0.047560816206803365 -0.0406676174615297 0.047986494793158904 0.02015426056049149 0.09585480581751575
5765625000.0 -0.04355309220833739 0.06887514023998187 -0.03836829124161639 0.0489671507135624 -0.038426055123184935 0.049257409808667364 0.01331913875915998 0.094707708188019
5767188000.0 -0.04350641862472986 0.06857684274269352 -0.03606742696114872 0.05033189115594614 -0.03629007479808902 0.05060379300156281 0.008006542751986461 0.09340736730147554
5768750000.0 -0.04339015659328756 0.06804745601512067 -0.03370759977186364 0.05150084502892805 -0.03389908627503671 0.05181006427749377 0.0018015455801183144 0.08909563689440207
5770312000.0 -0.04339032032593443 0.06780900314490781 -0.03138865087601192 0.05269923757243953 -0.03153808780907078 0.05293372035016387 -0.0007215396958990401 0.0822888305751428
5771875000.0 -0.04328028473147154 0.06732934865509116 -0.028955786255010708 0.053673161626198854 -0.02895547168946495 0.05402262209275616 -0.0016056727328168747 0.07502720892521521
5773438000.0 -0.043458179092035774 0.06669929038525514 -0.026490701926763803 0.05463200815696805 -0.026355526204555193 0.055037320101252216 -0.0027585570554690348 0.06607587167943649
5775000000.0 -0.043593066321621916 0.06617068400716165 -0.023816110593769146 0.05539752150924865 -0.023750193013396523 0.05593914518162501 -0.0016101119303502315 0.05807680263791813
5776562000.0 -0.043954973163812174 0.06528204697537596 -0.02120115619035291 0.056236223947212435 -0.021020333214155834 0.05670784290984563 0.003227836907626554 0.050360506934959436
5778125000.0 -0.0439570507682519 0.06470444531746535 -0.018514712056267056 0.057022155633428905 -0.0184526162900853 0.05734495262821671 0.00979956879219446 0.045846095469145094
5779688000.0 -0.04389510021065836 0.06371120799904063 -0.016044259228979212 0.05760308416071623 -0.015928703523486052 0.0580237023728472 0.015008443569086134 0.04241733161490132
5781250000.0 -0.043890344696501805 0.06271899571848583 -0.013617220732748092 0.05819985847366698 -0.013506421918931312 0.058539888197731954 0.020723149301623448 0.04126229891896418
5782812000.0 -0.04373595321207556 0.06147586658066613 -0.011232448036262029 0.058571222477266295 -0.011178590115008463 0.058869852460726735 0.023212137348713958 0.0424269255788224
5784375000.0 -0.04366569592016335 0.06044152251171202 -0.008798406719790904 0.05877976805125917 -0.00869834342895145 0.05903097494074249 0.02519213546867325 0.042662108963473465
5785938000.0 -0.04350533983673916 0.05958204267144904 -0.006469371689091247 0.058921553864826455 -0.006178156517239204 0.05922302066685324 0.024912973165705603 0.042754757937247354
5787500000.0 -0.0432065910004181 0.05885650930793175 -0.0039125219104607775 0.05890859610468365 -0.003743116495959461 0.059286560267598924 0.024597296064255276 0.04182010301247618
5789062000.0 -0.04281426559692887 0.05846063254302774 -0.0015929299951388466 0.05898793102038458 -0.0012606742146890166 0.059240474277061375 0.023564943700670738 0.03976737993751364
5790625000.0 -0.04261338533620396 0.05769941869992895 0.0008871699270833662 0.058699476427520735 0.001091082752935149 0.05918347441121427 0.02301674274304226 0.03724410313777468
5792188000.0 -0.042626976698729245 0.057562389026794634 0.003343235289896599 0.058472287622888496 0.0034889726691504706 0.05890653453614192 0.02420982204842109 0.03291972617338856
5793750000.0 -0.04259908539485234 0.057177338140589465 0.005696951572590397 0.058146240269809336 0.005873856183318116 0.058521356998222245 0.027111085964479288 0.030231789011272072
5795312000.0 -0.042653293538163606 0.05696439933846556 0.00814871875057995 0.057850602785394174 0.008342358281291996 0.058171315310789895 0.031696419278885404 0.027460058125514167
5796875000.0 -0.04286409743875752 0.05699491757446585 0.01042071083836785 0.057570889053036756 0.010874131282946155 0.05772960205131047 0.03548963174429186 0.02583073002546673
5798438000.0 -0.04330124193960272 0.057019966368480564 0.012898016949923539 0.05705357002028639 0.01317131145312271 0.057369659530779216 0.041440118926756316 0.02727945583142893
5800000000.0 -0.04371628103072882 0.05680437586140574 0.015093722177165843 0.056531301160212315 0.015536969021297116 0.05678476877008523 0.046207550751230335 0.03205387822375748
5801562000.0 -0.04435279383385697 0.05663271667696228 0.01729248429658402 0.05581129160674487 0.01778435390695337 0.0562210986482379 0.04911381533369743 0.03841203176400491
5803125000.0 -0.04490315773461746 0.05645904375833732 0.019560157229244153 0.055088964890837346 0.01992712050964404 0.055366785315330284 0.04828117459372397 0.04627715899179053
5804688000.0 -0.04560876784564202 0.05630116393950764 0.021789246833666103 0.05431197205418127 0.021969161101955608 0.05441273303037177 0.045297913542397455 0.05296649860235861
5806250000.0 -0.04636022474950437 0.05602321296988215 0.023889060996803196 0.053317509563814376 0.024018845550653006 0.05337061659982489 0.04073506801992651 0.05651555571886704
5807812000.0 -0.04698060807174336 0.055471496618540915 0.025797614152207972 0.05226379367283563 0.02584520822294412 0.0522846175948978 0.03472533138308528 0.06204255162079399
5809375000.0 -0.047617368731936546 0.05508013364812866 0.027626148231952717 0.05112241338404162 0.027752610979831276 0.05115913632038759 0.027635073140894046 0.061777279617619765
5810938000.0 -0.048014437827434996 0.05470730024418009 0.02944861574518774 0.04986023097502567 0.029630355914856167 0.04999468073274811 0.02323539771085664 0.06433828760416968
5812500000.0 -0.048342662494341375 0.05444350164527645 0.0312804244960973 0.04848047269173862 0.03164999788401336 0.04885140326773702 0.01696786645027427 0.062258582314377815
5814062000.0 -0.048537375585796384 0.053939209971340836 0.03316297049956128 0.047081062059014855 0.03362452849703362 0.04739102015629808 0.01296104039866069 0.0599002928803767
5815625000.0 -0.04859374268583103 0.053841427012142305 0.03518045156948111 0.0456114724634507 0.03558988224189383 0.04595611613892055 0.010522270026700179 0.057205534059568575
5817188000.0 -0.04847268628661049 0.05378721304752878 0.03717608095963375 0.044054369784647184 0.037601478242224054 0.04438163994080667 0.009771689241967915 0.056272576507290804
5818750000.0 -0.04842270567125894 0.05412707808929137 0.03912843922322542 0.042610982204960214 0.039533512841940774 0.042625476327447 0.009592466037794421 0.05667009113775943
5820312000.0 -0.048244988668626684 0.05466411849254896 0.04114836166552291 0.040879952545801984 0.0414521032639755 0.04077144841654118 0.008747019694432869 0.05734644020455812
5821875000.0 -0.04825359636358592 0.055351191452027756 0.042894755571215706 0.039180143042769955 0.04317229974786928 0.03891428684225906 0.00752022573083835 0.06132130485846225
5823438000.0 -0.04826420088237978 0.05627740073208663 0.044474385807237275 0.037231164486686404 0.044664124125053155 0.03711294714865462 0.0040096638382521015 0.06645868262278394
5825000000.0 -0.04867532667042752 0.05735772863052472 0.04570941920319944 0.03521356954915492 0.0460645523563234 0.03517775322147048 -0.0026171212646966704 0.06898243892514574
5826562000.0 -0.04909251366084422 0.05845686287068248 0.04702638169965714 0.0331029619842253 0.04725864429632133 0.03317786795148557 -0.011054445000417988 0.07050312447456374
5828125000.0 -0.04969089679816668 0.05973388709577706 0.04810651573238426 0.03095706188743121 0.04839849609454174 0.031197092043677134 -0.01899794137991035 0.06860799332087252
5829688000.0 -0.050504042976393486 0.06106228081114406 0.04919585070278849 0.028939035476268332 0.049434687621045255 0.029174307641350438 -0.02595525063043117 0.06568042175073359
5831250000.0 -0.05163929005213104 0.06221588140225339 0.050172690509024 0.026807127587266305 0.05040432488044006 0.02704895949201051 -0.03127651263144891 0.06124163017685219
5832812000.0 -0.052790254955705294 0.06338958663897415 0.051073213215623074 0.02490608305782409 0.0513940209244726 0.024839376068113834 -0.03617734225694494 0.05477661262883721
5834375000.0 -0.053987371233521264 0.06427533999992785 0.05181957002879561 0.02284656232489586 0.0523689350913181 0.022643820914294965 -0.03833983970482144 0.04841888547654961
5835938000.0 -0.055170879936230134 0.065130439101157 0.052652032137263445 0.020596662045883948 0.053115196844362646 0.020287538271756257 -0.03813700812267851 0.04379774648291911
5837500000.0 -0.05633728172712004 0.06573839200313673 0.05338478591844228 0.018170645338785547 0.05393433816282 0.017922077288707275 -0.036541485772916764 0.03957495633550074
5839062000.0 -0.05756355488712836 0.06623880640681962 0.05399568337574395 0.015637968170704723 0.05444867445369464 0.01554869127336811 -0.03414258887010704 0.036639470376095946
5840625000.0 -0.058587048520135826 0.066715186442831 0.054652747152750855 0.013149431618644182 0.05493638435382131 0.013029882570848176 -0.032957742844666606 0.033483679175965946
5842188000.0 -0.05962162493700078 0.0670594376309741 0.05521553899313068 0.010557687310047494 0.05534667338774923 0.0106199358873772 -0.0300720796516754 0.03282392017026494
5843750000.0 -0.060185763595900055 0.06743919913494391 0.05543234036806771 0.008074580149193974 0.05563115415163685 0.00818112913433131 -0.02672907131104448 0.03356844879462461
5845312000.0 -0.06069100251046954 0.06770340365213401 0.055561926268528745 0.005726295140315705 0.0558125217644989 0.005733810303798741 -0.025121020456746593 0.035209593235737635
5846875000.0 -0.0611290552857437 0.06801827400534298 0.05561964693526463 0.0033280882648614248 0.055805972633666004 0.003223996540008334 -0.02402164763324859 0.03661402696692344
5848438000.0 -0.061376214550326096 0.06845608311697082 0.055375923378583276 0.0010402068633672211 0.05586869967198006 0.0007593810991299116 -0.02285862023082699 0.03788180374897382
5850000000.0 -0.06152273616611871 0.06915110180094033 0.05527839078494968 -0.0013577338051996611 0.05578116505326133 -0.0015898256983610149 -0.022558985884914055 0.03884643407914964
5851562000.0 -0.06148642023421326 0.07002497478050629 0.05501682816207936 -0.0037060401033472273 0.05545063898073443 -0.0038885497870801158 -0.021702123834086887 0.0390954363705302
5853125000.0 -0.061062568387038045 0.0709584978770734 0.05469092257286203 -0.0060437577145795295 0.055052687945484 -0.006250857842651123 -0.020393461507559284 0.040219562491569764
5854688000.0 -0.06110038895499183 0.07215732973926899 0.0543739573702744 -0.00829652013604608 0.0545959175698993 -0.008489499726979354 -0.018751525738792435 0.041429400149146665
5856250000.0 -0.06146930488550868 0.07345272466823127 0.05381404317716144 -0.010668524223867623 0.05403251050287966 -0.010794279554551322 -0.017559152565182305 0.04305012190513259
5857812000.0 -0.06156003900371813 0.07499814914004939 0.05323431107196656 -0.012817986598560035 0.053424684319661964 -0.013120121684412064 -0.01622211884705086 0.045119350232226005
5859375000.0 -0.0615137353063492 0.07656792236543783 0.05255055213476326 -0.015060780410293188 0.05271959749208664 -0.015236252257800075 -0.014583316235853941 0.04767531287107816
5860938000.0 -0.0619227516405494 0.07760536945205955 0.05171820646505383 -0.017040478126474454 0.05194507256710633 -0.017512696897138077 -0.013740386755840795 0.04986249424509422
5862500000.0 -0.06254880582821319 0.07916555669996485 0.05069294668611561 -0.01923705174149304 0.05104402683026732 -0.019421778452261614 -0.013397659758259987 0.05284423340974387
5864062000.0 -0.06278109388006975 0.0804067010569687 0.04965665419749034 -0.021200511005975788 0.04994466608062696 -0.021390277850053506 -0.01485122975398008 0.054367517466116407
5865625000.0 -0.06323212191924274 0.08160530232879748 0.04852778635472438 -0.023243238998466306 0.04887926114355393 -0.023505021623882683 -0.014736224618750784 0.05520075058556642
5867188000.0 -0.06364598477071816 0.0822595029386825 0.0473695476398375 -0.025159815753473484 0.04758939563072229 -0.025415134989202497 -0.013529453257349637 0.05565719108487356
5868750000.0 -0.0641971904180986 0.08336254113732881 0.04626997453800848 -0.027038873824063187 0.04631990370583175 -0.02729287291506219 -0.014175627809266173 0.055085004813688
5870312000.0 -0.06466805166224546 0.08422808544117065 0.04510309809227082 -0.02885168064445996 0.04512046698141246 -0.02910123349771309 -0.011786021175785826 0.05439125250150699
5871875000.0 -0.06472759696932115 0.08493666701603995 0.04368461423195959 -0.03048823179388448 0.04376169972823238 -0.030767120092216167 -0.009379724014357322 0.056194540639731144
5873438000.0 -0.06489119962474496 0.08550623890722979 0.04225346661593856 -0.032206006507046116 0.04229408006603342 -0.03255753892238084 -0.006817820745514885 0.059176459296413235
5875000000.0 -0.06467756014773744 0.08590506483293017 0.040675573607373346 -0.033835560889031675 0.040965373385548114 -0.03418728767257809 -0.004361295345716097 0.059793886979496516
5876562000.0 -0.06501558221806339 0.08621165606860935 0.03920070205076393 -0.035419608296826055 0.039446405503993164 -0.03572924683212369 -0.002560034536840372 0.06364650979527549
5878125000.0 -0.06433749219812093 0.08674193780168021 0.037595105906116456 -0.03699840719047484 0.037777277596963664 -0.03721653652129701 -0.0022950051339123696 0.06707683655378338
5879688000.0 -0.063943746329393 0.08706516382147132 0.03600710968638453 -0.03838435535497775 0.03608643415924405 -0.03864137696012695 -0.0020158801586927727 0.07034748464198697
5881250000.0 -0.06342345967653601 0.08793030229336694 0.03434059001050109 -0.03957678268035816 0.03426942960463511 -0.039922765275598356 -0.0029304541685555626 0.07212410501333284
5882812000.0 -0.06258024189826357 0.08812692362145358 0.03255320684173526 -0.04072990188853378 0.03241905160087091 -0.04097809741011485 -0.004612969616042964 0.07368763907930194
5884375000.0 -0.06129763968307216 0.08894012092926454 0.030656702139550622 -0.041625925854342063 0.03046999033960746 -0.041983037348811814 -0.009188395466380306 0.07378594752939023
5885938000.0 -0.060358250682574034 0.09001211854540611 0.02866286482794437 -0.042626388601959685 0.028569917431808395 -0.042951348307067046 -0.010586387088184214 0.0720056791727522
5887500000.0 -0.05997350419393712 0.09036889646896837 0.026784580597503396 -0.04347037505819683 0.026746527554621136 -0.04381698479191617 -0.011313787773660237 0.06789381026124297
5889062000.0 -0.05859195382418654 0.09149310451437706 0.024821948720708267 -0.04440833960980358 0.02483795090054219 -0.044624400415817334 -0.011041462733557356 0.06258575813503754
5890625000.0 -0.05846381252303994 0.09234728107861952 0.022824521348940773 -0.045317782892733874 0.022991886941538767 -0.04555624009958584 -0.008041873466054488 0.05828500905071625
5892188000.0 -0.057902792349250075 0.09297278311606876 0.021049236908328172 -0.04608336958410965 0.021105237980043597 -0.04635676357105692 -0.0035248601920227877 0.05471381283720694
5893750000.0 -0.057308559140672996 0.0934656189458309 0.01918061870509483 -0.04691532005258405 0.019243363621941435 -0.04713368668561125 0.002515771644827805 0.05412292345531723
5895312000.0 -0.0574685558821568 0.09455216736712786 0.017311424205516353 -0.04756237246145918 0.017309873043270436 -0.04788651753974149 0.007076345902919213 0.05522170071318707
5896875000.0 -0.05678784478506303 0.09559169614138806 0.015383255987281895 -0.04809847111524829 0.015292776677488346 -0.048503088023488516 0.01120189728162625 0.05743769133784597
5898438000.0 -0.05604046445901133 0.09573195875240328 0.013359378475665198 -0.04849972338445641 0.013282009827955863 -0.04897006545044891 0.014098817812842761 0.05951954031830638
5900000000.0 -0.05506774519917744 0.09676654974578323 0.011396101351445635 -0.0488928207441517 0.011213519527037112 -0.04932547551114924 0.01510883706264759 0.06368581596378896
5901562000.0 -0.05464288264309358 0.09766216925599736 0.009406276242490186 -0.04918290905315001 0.009229610134537212 -0.04953495026511207 0.014628322299378056 0.06579306582934724
5903125000.0 -0.054358029862843694 0.0984136427256989 0.00744972477097136 -0.049342913886798116 0.007302471460603652 -0.04960244778272647 0.013227528261459563 0.067753157902342
5904688000.0 -0.05371014237680398 0.09921638387410575 0.005529195991840854 -0.04935978725275859 0.005371536979964782 -0.04960495116779191 0.010900693382517129 0.06800445093743429
5906250000.0 -0.05326106239766452 0.10009654350441773 0.00359819365711816 -0.04936338429300032 0.0034122395769854595 -0.04952498062624025 0.008881861496940924 0.06598564247052999
5907812000.0 -0.05301891019064026 0.10069526101763666 0.0017254850429178435 -0.0492504563648593 0.0014285427249991548 -0.04947015823612838 0.008472225594262028 0.06253938306403387
5909375000.0 -0.05259044959984912 0.1017646679102966 -0.0002774016601130413 -0.049180144820215384 -0.0005699880310371773 -0.04940857673351045 0.010132711140636238 0.058815184677801606
5910938000.0 -0.05221759877058409 0.10256722280726406 -0.002230136669077095 -0.049056236470547965 -0.002501478765013324 -0.04931397015813915 0.013950563993447398 0.05582652236506855
5912500000.0 -0.05155698762326933 0.10334905280147985 -0.004178374008073107 -0.048755297228847486 -0.004355475827660664 -0.049111369444875354 0.018931693242729763 0.05436064760838782
5914062000.0 -0.051466879208053665 0.10459530176000226 -0.006158337920493118 -0.048570209978888224 -0.00615878985800983 -0.04883923666837931 0.02481675112356335 0.0550959083108182
5915625000.0 -0.05118088929258895 0.1053433149655356 -0.008013131477528428 -0.048216499773285286 -0.007962596117289101 -0.04850363155902927 0.029261442374816156 0.05835673483546856
5917188000.0 -0.050949851636190466 0.10640209150885493 -0.009731635943666458 -0.04794832409635442 -0.009780689060513104 -0.04821584535593353 0.031972856781010126 0.06307091538379915
5918750000.0 -0.050618955361113445 0.10745468757385652 -0.011493950974315891 -0.04758096091685147 -0.011555022187494622 -0.04781858024157541 0.03433259878372758 0.0672460726093546
5920312000.0 -0.05050459512415153 0.10865438707846486 -0.013127561691032439 -0.04716303594368803 -0.013388839583304531 -0.047452778885616324 0.03415128685661575 0.07268709086718607
5921875000.0 -0.0501711427735929 0.10927872381797124 -0.014663884280255115 -0.046712074548795474 -0.015053129836302699 -0.04704813557791366 0.03246083011612173 0.0777881590960982
5923438000.0 -0.05049211434229767 0.11041817534430261 -0.016401431549872798 -0.04598973538799227 -0.01683329265602966 -0.046324097604891194 0.028012424879947696 0.08066155049641557
5925000000.0 -0.05017198401501889 0.11090200952567242 -0.0181870307400724 -0.04524201205201587 -0.018583001147587902 -0.04557182110547057 0.023234593687463195 0.08015556474232845
5926562000.0 -0.049597689290070565 0.11169375586352259 -0.020113741539999477 -0.04435777770465626 -0.02039300901799389 -0.04462478040026813 0.019936741622268446 0.07790409247089645
5928125000.0 -0.049231954246299614 0.11231297486286736 -0.022025611577179034 -0.043501976433642016 -0.022250120350032692 -0.04350243206999489 0.01790030156129202 0.07218271569839683
5929688000.0 -0.048599228824583285 0.11316278156915104 -0.023891106553062293 -0.042448809955289095 -0.024132369791226946 -0.042409434395695014 0.020152675985755705 0.06604154546469304
5931250000.0 -0.048015515019352716 0.1139386987163166 -0.025738869374673023 -0.041387860754706865 -0.0256976984232889 -0.04122909668305323 0.026725385812977127 0.06008744408037994
5932812000.0 -0.04770710217217667 0.1151271231016391 -0.02740695623284456 -0.04006335938580338 -0.027530891934780154 -0.04006642267361203 0.033367618351935316 0.05725079498064245
5934375000.0 -0.04668827299129564 0.11616333637696091 -0.029092365104143075 -0.03885070054577042 -0.02907235154247495 -0.038806813495869834 0.04001574773910094 0.05827435872404764
5935938000.0 -0.046400814472988626 0.11729605410696256 -0.030607196125246594 -0.037535925270678186 -0.030689535505765808 -0.03778548028041597 0.04950997170618164 0.062137611358869346
5937500000.0 -0.045702781377933384 0.1184984069887381 -0.03216472733073389 -0.036315495002891024 -0.032234143756523774 -0.036632667967932526 0.05532997166919272 0.06755303510517226
5939062000.0 -0.04528554993442741 0.11979886188323696 -0.0336088137245802 -0.03523205597905154 -0.03376816342710068 -0.0355834740550121 0.058241150821640636 0.07377931629202346
5940625000.0 -0.044911885322680936 0.1211355317289383 -0.035095307778441616 -0.03416804346375499 -0.0353963351967735 -0.03446661729407054 0.05935685102603328 0.08224056137845127
5942188000.0 -0.04466003910978785 0.12224679080914172 -0.03643341932107233 -0.033123177429501126 -0.03688985579830204 -0.033243932410482964 0.06028647130765454 0.09001235225453955
5943750000.0 -0.0444224639446673 0.12358517670990618 -0.03767213138009139 -0.031797458499341985 -0.038115315309366515 -0.031839097344123816 0.05690725043847618 0.09475652384911196
5945312000.0 -0.04426187170725258 0.12475198268242887 -0.03915666714396739 -0.03042051045310228 -0.03955844850752608 -0.03020299672311404 0.05473088633766748 0.09903751813201335
5946875000.0 -0.04430766397234072 0.12590496586940417 -0.039955358116445634 -0.028925930599676086 -0.040358057583637766 -0.02865431623600877 0.04976516333517293 0.10226327399651315
5948438000.0 -0.04429113811212385 0.12679176369870554 -0.041043977663796506 -0.027001018185379467 -0.04129650703240215 -0.02680653387905028 0.047029520818042604 0.10201344455644065
5950000000.0 -0.04424616833089133 0.1276693981958561 -0.041968793568310014 -0.024954881804869156 -0.04209820664724466 -0.02485439817003287 0.04362200590220536 0.10131816538362654
5951562000.0 -0.04448015566319628 0.1284170838256539 -0.04295796540666175 -0.023045543575297183 -0.042953132229744534 -0.022961955205745278 0.043852706430626553 0.09685564042574023
5953125000.0 -0.04430362142188345 0.1291133294878007 -0.043812426875592676 -0.02095567064324144 -0.04380446758608979 -0.021118574994113973 0.04954350990914391 0.09418059275813641
5954688000.0 -0.044312459646734734 0.12944437971456824 -0.04460706952950566 -0.018958497291324466 -0.04460212394617634 -0.0191541655302678 0.05395885758009975 0.09239028811650743
5956250000.0 -0.044011948102125005 0.12990047728712145 -0.04543910261109753 -0.017115488286177455 -0.045406616021198346 -0.017331263991934055 0.06059059163912049 0.09690743216334809
5957812000.0 -0.04344482621084679 0.13011898311567904 -0.046061979731894666 -0.01531852837831171 -0.04616973578715131 -0.015417657041782745 0.06259325820766196 0.10238588701990264
5959375000.0 -0.04300364452767227 0.13044264870356861 -0.04646407112487222 -0.013392808601472956 -0.04678538576927053 -0.013488542536754742 0.0662825369709177 0.11002198413518402
5960938000.0 -0.04194757784692147 0.1305906994020611 -0.04701577115215717 -0.011656406510769312 -0.047428546497052346 -0.011433020928668262 0.06300536231367931 0.11641247965360274
5962500000.0 -0.04092814653930033 0.13104424682827595 -0.04746903497759274 -0.009844156722313438 -0.04791343980093667 -0.009585300964217343 0.05982966087454491 0.12545387603241343
5964062000.0 -0.03997429224548942 0.13150670579603344 -0.0479188149476535 -0.007721603119075157 -0.04827621381508637 -0.007649070559684905 0.05562987552260288 0.12962893584569973
5965625000.0 -0.03869131583311706 0.13205888927335185 -0.04823441427317776 -0.0059904958340957016 -0.04839935019152658 -0.005974534262323918 0.049568056530399994 0.13464071255401386
5967188000.0 -0.03694466221478469 0.1327511216615916 -0.048478027999037526 -0.004081008698450196 -0.04849147101460412 -0.003963590163678761 0.043986774729204876 0.1371837266986212
5968750000.0 -0.035367574619956224 0.13407305900346034 -0.04848975913961383 -0.002376534296024216 -0.04838530306362487 -0.0022827069308360196 0.036710031833178496 0.13939163474235702
5970312000.0 -0.03405824128896546 0.13536328170909345 -0.048407575034781894 -0.0005811640479112651 -0.048380691771804034 -0.000513468904898647 0.028133857151903266 0.13931639299980597
5971875000.0 -0.03297695090711365 0.13676551101296214 -0.048090459025284055 0.0011378434329097466 -0.048244863910922794 0.0012535344543952976 0.021617010501115915 0.13897724662540017
5973438000.0 -0.031701503374500804 0.1378968931879621 -0.04771471351981382 0.0029868672516334387 -0.0480170276836931 0.003166013681111179 0.01718760595698262 0.1373816500887035
5975000000.0 -0.030582017942345274 0.13923572838163667 -0.047531827286288575 0.004894098576050219 -0.04790861515528755 0.005028409038338591 0.01345752371415331 0.13255240529081974
5976562000.0 -0.029495104052599044 0.14038436679983243 -0.04735335789957054 0.006713818937635603 -0.047673229315354754 0.006829620386179222 0.010251699827413476 0.1312711002112163
5978125000.0 -0.02892384955082488 0.14174944777403653 -0.04704648499813524 0.008445889145032312 -0.047298096524046936 0.008649565202750207 0.007641036615861653 0.1302857117086094
5979688000.0 -0.02799489025521485 0.1425797882743951 -0.046562843524702094 0.010303897561143445 -0.0467832965821017 0.01041686123655215 0.004343280661164056 0.12859142261578432
5981250000.0 -0.026838645317374756 0.14395559768051056 -0.0461050442568053 0.012097269808394307 -0.04614768187952778 0.012295139006601436 0.0020377344412222066 0.12825617550630933
5982812000.0 -0.026045133829297257 0.14457337169044013 -0.04546085340823482 0.01384162487188059 -0.04540752828153189 0.014046654125460767 -0.001491992186066699 0.1253318753399973
5984375000.0 -0.025209712036182042 0.14539122866985618 -0.044770538489350815 0.015604215206646274 -0.044722459266603815 0.015766940430520716 -0.005263226010810711 0.12224554733391324
5985938000.0 -0.024287989931072444 0.14596665208291407 -0.04386792971533819 0.01727052445806617 -0.044064867069199855 0.017436053675866727 -0.006677820579666877 0.11954174004577248
5987500000.0 -0.023223807784417943 0.14648045106763816 -0.04310338413392384 0.018836052872480934 -0.043392027535216725 0.01893252602448423 -0.007074483225133198 0.11582537997170743
5989062000.0 -0.022103663844714513 0.14644178051623888 -0.04226330503544978 0.020340702330003582 -0.042551421703026976 0.02047721993062118 -0.0069114329191536 0.1129702175664358
5990625000.0 -0.020282245892460676 0.14651015014317562 -0.04134844841716133 0.021928322135413608 -0.04162877273725542 0.022032467136329437 -0.005685414682032215 0.11028545152200059
5992188000.0 -0.018712850086539265 0.14692181788107178 -0.04036980854923689 0.023393500413327283 -0.04062118286342368 0.02357920740761253 -0.003521766244474029 0.10915914276312137
5993750000.0 -0.016511310770197102 0.1468605895542774 -0.03936573130200789 0.024927881291631985 -0.03962339219864301 0.02522062977030376 -0.002996665617618645 0.10792089540179245
5995312000.0 -0.015025559024160725 0.148172652654061 -0.03845443264197759 0.02646405923312535 -0.038534271787002916 0.02684067204407188 -0.0013789186942524373 0.10764151638509561
5996875000.0 -0.012120497319574321 0.14807527963018688 -0.037339851700072924 0.027873704618186643 -0.03744780793348505 0.028359032542922456 3.604352554722961e-05 0.10773675252149352
5998438000.0 -0.009822805883693516 0.14845114723231245 -0.03618410331607615 0.029261293322705672 -0.03625992537619206 0.029767418962818135 0.0005616849516912341 0.10779494605848707
6000000000.0 -0.00812022468054998 0.14929909183826343 -0.034992273109390876 0.03070888255679372 -0.03505352831206146 0.031062807609861545 0.0004999912871017538 0.10819139587646236
