! Created with skrf 1.9.0 (http://scikit-rf.org).
# Hz S RI R 50.0 
!freq ReS11 ImS11 ReS21 ImS21 ReS12 ImS12 ReS22 ImS22
700000000.0 0.15932124303406545 -0.8349265904075278 0.04020347002584612 0.042792845047721365 0.038920660543578345 0.04592317891401031 0.14454057043143392 -0.8280142916855993
700687500.0 0.15378759970483147 -0.834682740529408 0.0410935579634102 0.04185800196674505 0.04063656500438455 0.04517774190214229 0.1389319324361279 -0.8278168476876824
701375000.0 0.14763345131754424 -0.8336590269738247 0.04207331450894739 0.04094492847178549 0.042363413959381466 0.04424993182463324 0.13255371971657823 -0.8270000751767137
702062500.0 0.1420439288089364 -0.8332845166233845 0.043034922742448585 0.040141851270636686 0.044026803074909505 0.04319457345733181 0.12621997207721572 -0.8267974806440483
702750000.0 0.13587939793646397 -0.8324706250625511 0.0438829863241283 0.039321856727003175 0.045631623461981345 0.04199821215168687 0.11973626112776313 -0.8263705685312926
703437500.0 0.12997341551285757 -0.8316905930758438 0.04477758737406989 0.03857657644417816 0.047097491671999225 0.040690545201956155 0.11335876222414586 -0.8263193455472322
704125000.0 0.12370605250852192 -0.8308461730785793 0.04571530938650762 0.03785106202357467 0.0483947138310942 0.039302829653166324 0.10743306992886306 -0.8260338461710984
704812500.0 0.11757674686946257 -0.8300694022054579 0.04667615463297054 0.03719306310637898 0.04961187328160384 0.03782943395260306 0.10081816542303826 -0.8257133710441448
705500000.0 0.11161966901533403 -0.8292823824708955 0.047627266231728325 0.036452400037642115 0.05061424208866344 0.03640140376295984 0.09438637664585589 -0.8254880519796324
706187500.0 0.10559465176704375 -0.8283791557223218 0.04871720487115381 0.035824340904575515 0.05152800103238791 0.03499546854508264 0.08811793732420994 -0.8255163825318086
706875000.0 0.09974425496216073 -0.8276247194835811 0.049776521087531944 0.035121586654807156 0.05226446204938928 0.033688262209687035 0.08209320821969246 -0.825615060007143
707562500.0 0.09367517484349606 -0.8267169806626492 0.05092501392181634 0.034375893172635855 0.05301872433073353 0.032395450657384625 0.07592578590986584 -0.8256770502248701
708250000.0 0.08770784316878746 -0.8259346658856144 0.05213443028078438 0.03358059718802758 0.05362795370312072 0.031201820958605596 0.06972407370156884 -0.825268067791535
708937500.0 0.08190343430450583 -0.8248822012540551 0.053285636639234815 0.03271424902311793 0.0542332812910749 0.030133207353355736 0.06407766413728684 -0.8251139297994108
709625000.0 0.07602672037078412 -0.8243459035150694 0.05464262232431627 0.0318811746268997 0.05489217906437724 0.029209952038157735 0.05782991752573619 -0.8251722768212297
710312500.0 0.07003879861122986 -0.8233233237690757 0.05586017413531049 0.030932608453718532 0.055591350820340495 0.028332629680580992 0.052562279725623016 -0.8250574720392319
711000000.0 0.06449621247968212 -0.8222419891410353 0.05715548549575468 0.029866402233056626 0.056368327889404234 0.02749391501099021 0.046670885412132435 -0.8246997839222309
711687500.0 0.05870280845193814 -0.8212305365323015 0.05846183885989562 0.028741645116666475 0.0572267456873625 0.026697972337578816 0.04173496113040681 -0.824183017409471
712375000.0 0.05312317818006868 -0.8200375033017375 0.05975068190759802 0.027566450604095943 0.058142541910416824 0.025889310166108133 0.0364603188134125 -0.8234942491155492
713062500.0 0.04773917465260814 -0.8189311995945179 0.06100950944585683 0.026222966640448854 0.05920186781294576 0.025110112420893036 0.031248204578810584 -0.8229226047173386
713750000.0 0.04158941386902906 -0.8177534744412521 0.06232605146561016 0.024855756141106976 0.060294549410992535 0.0241601287874991 0.026296046529679727 -0.8220821097956795
714437500.0 0.03628980590234781 -0.816332021785006 0.06336291305605465 0.023390199272034295 0.06143041811002969 0.02318049347548281 0.021341010287212536 -0.8204859612333328
715125000.0 0.030862905109538572 -0.8150860619176391 0.06450462640210979 0.02190317151276974 0.0626373450480059 0.022030329477411594 0.016426047991531495 -0.8188468956469941
715812500.0 0.025753011768763778 -0.8137585383538672 0.06566721598688692 0.020276753959677353 0.06394387017519809 0.020817810385748568 0.01061849508979975 -0.8171890889208677
716500000.0 0.020741031505868087 -0.8120254471485214 0.0666005629188403 0.018679374835928516 0.06515692391685965 0.019494861720633735 0.005258932019770068 -0.8153949422774708
717187500.0 0.01560714281055819 -0.8104434894394957 0.06752487025323782 0.01700228967196335 0.06633785135429002 0.018026170310019726 -9.237726314506664e-07 -0.8130189386673136
717875000.0 0.010291873812603627 -0.8084605577959612 0.06837318658335301 0.015325306084598145 0.06752377665784368 0.016448551207221072 -0.005889640340432218 -0.8108509812437209
718562500.0 0.005161484561428176 -0.8064761905408715 0.06915279885510507 0.01362313042698082 0.06860129936360387 0.014775437443117769 -0.011647227406611968 -0.8080810603448078
719250000.0 0.0004995693399852327 -0.8044258478489952 0.06983764318551967 0.011972820118674652 0.06959563847738086 0.013094781337088912 -0.01739289728405082 -0.8053127067625045
719937500.0 -0.004506508242652073 -0.8023528307802363 0.07056359819546969 0.010269119896412413 0.07055536453021272 0.011327960679368188 -0.023863690957512514 -0.8026671711559551
720625000.0 -0.009239337378718064 -0.7999610344155796 0.07120956265459201 0.008568675958471238 0.07137674297876388 0.009481285342488559 -0.03044826158853148 -0.7995349370224207
721312500.0 -0.013824758774887567 -0.7974561188125066 0.07184308738781439 0.006901625231364371 0.07219029858445872 0.007651480305188763 -0.036872981662903016 -0.7963201116968504
722000000.0 -0.01862685463682844 -0.7951341044418312 0.0724707177396336 0.005122226310956951 0.07293352730143553 0.005670165055821397 -0.04378927704323439 -0.7932988937036431
722687500.0 -0.023132662722437664 -0.7930313229216333 0.07304321820539994 0.003266850721161581 0.0735198751804634 0.0036933559076155736 -0.050628839608652595 -0.790524062435366
723375000.0 -0.027626591513049484 -0.7907940537322588 0.07345075898374956 0.0013827334874731063 0.073877912071215 0.0016601288848592992 -0.05828621881592856 -0.7880532348327285
724062500.0 -0.03262610581545805 -0.7885095659357428 0.0737609173688394 -0.0003664465946282472 0.07410601521599222 -0.00023751442834670674 -0.06556142264784542 -0.7851378905344739
724750000.0 -0.03792023299036451 -0.786132265656184 0.07392792147632962 -0.002077361839148101 0.07428631170417559 -0.0019383180673894947 -0.07261761421234351 -0.7823329312513789
725437500.0 -0.04267660054719712 -0.7830589133840131 0.07421640185954806 -0.003579497644874008 0.07451746102373934 -0.0034943871477070418 -0.0796827026619533 -0.779567745542928
726125000.0 -0.0476375262976896 -0.7802715694040808 0.07467054959710735 -0.005181676886894361 0.07486249673600248 -0.005061567787360344 -0.08673701404533589 -0.7776197150956441
726812500.0 -0.05271538952433032 -0.7773841880832331 0.07511365947869028 -0.006738195289749473 0.07523099762392796 -0.006612376138015875 -0.09339343868592127 -0.7752070305613848
727500000.0 -0.057374501151188494 -0.7739251291590215 0.07553334739109241 -0.008350764104430424 0.07567118634206223 -0.008238004134876412 -0.10007116863885535 -0.7732594858291766
728187500.0 -0.061572916570580206 -0.7708135274325422 0.07600399058772458 -0.010042552726109537 0.07615736517271995 -0.009841934994505296 -0.1065265801009332 -0.7711879174347328
728875000.0 -0.06650136968446597 -0.7678125577821535 0.07652349447458028 -0.011846133363770618 0.07672038435087962 -0.011610406409330974 -0.11271089262006778 -0.769544443010133
729562500.0 -0.0713365427395378 -0.7645111876286758 0.07697248693498314 -0.01366298412495761 0.07730799829690736 -0.013447286139453446 -0.11829185488424619 -0.7677888869076966
730250000.0 -0.07612683489451852 -0.7611272317456084 0.07745052486971665 -0.0156206230688071 0.07781265393234683 -0.015469330710690099 -0.12388566739954501 -0.7660523054726206
730937500.0 -0.08084591423597992 -0.7580612350787684 0.07781999886186793 -0.017730660904946946 0.07829022609677258 -0.017585790817347017 -0.1294728655238066 -0.7643683388723244
731625000.0 -0.08593230017417305 -0.7547192901740787 0.07814919164544994 -0.019834809405627426 0.07868866698088263 -0.019829098443942723 -0.1346374779417012 -0.7630948596559911
732312500.0 -0.09119737145143192 -0.7515358135399508 0.07833346542376476 -0.02199418995162576 0.07897232279221375 -0.022154281824063555 -0.13948319372174925 -0.7613582841674236
733000000.0 -0.09620653872278968 -0.7479087820222756 0.07847281979910414 -0.02422233762529887 0.07909193602002153 -0.024441561818812813 -0.14408904290287752 -0.7591389848778713
733687500.0 -0.10160257517465777 -0.7450251658668726 0.07853138726510293 -0.02644117928041907 0.07912315754021493 -0.026850006313099348 -0.1481569572954933 -0.7569576003630231
734375000.0 -0.10673049635863639 -0.7414115545728083 0.07852522318096736 -0.028685948211283355 0.07910521726576342 -0.029267148061016764 -0.15302267986278723 -0.7545190185691247
735062500.0 -0.11182465627274914 -0.7377299732211011 0.07850234447671925 -0.03090589989897856 0.07888252825960253 -0.031653389470130855 -0.15710459075178818 -0.7520107351544096
735750000.0 -0.11698403732511665 -0.7343619674926027 0.07830764813783524 -0.03315277288407348 0.07863487861291306 -0.03405205908069176 -0.16068642316485776 -0.7485142721031767
736437500.0 -0.12197115451407546 -0.730838684261366 0.0781446024985314 -0.035545456613136225 0.07829621340458813 -0.03649359811915662 -0.16494387805429453 -0.7451656382073708
737125000.0 -0.12694399924718267 -0.7274148695986079 0.07786239038622671 -0.03789185523465954 0.07781583194498642 -0.03887643779738805 -0.16922760938662879 -0.7412425253233077
737812500.0 -0.13191133281871475 -0.7237145712993496 0.0775234767771172 -0.040286013723344734 0.07731897863684314 -0.04133339420212951 -0.1733844571994932 -0.7371421467476386
738500000.0 -0.1365466747612556 -0.7203300862218097 0.07727611783438429 -0.04263970546564602 0.07676158841756421 -0.04364623650709216 -0.1773232431258033 -0.7326532446117763
739187500.0 -0.1413195563860389 -0.7170000315246634 0.07679990004975784 -0.04508671314448933 0.07611511273693318 -0.045980330356751094 -0.18164473853097654 -0.7277091903982584
739875000.0 -0.14596205765621337 -0.7130665205800835 0.07624993322547191 -0.047495246884276504 0.07528776593438578 -0.04828445053502809 -0.18641293502924064 -0.7224394017195204
740562500.0 -0.15024896306059715 -0.709842043871007 0.07563734101591196 -0.0499164479131613 0.0745234944030588 -0.05056504279555024 -0.19094989675353538 -0.716641322565203
741250000.0 -0.15475031066151862 -0.70617893593023 0.07495794859214286 -0.052441661424483615 0.07373306384043382 -0.05281211147533705 -0.19636112713091494 -0.7108850255961056
741937500.0 -0.15892833751959118 -0.7026729355833986 0.07425107440254994 -0.05484957788759949 0.072912855539144 -0.055035850754394974 -0.20111121604421398 -0.7052002203830705
742625000.0 -0.16282571692078146 -0.6990658755557099 0.07347278217893366 -0.057337432595325984 0.07198079215500368 -0.0572152607454737 -0.20672510829707844 -0.6993289167935359
743312500.0 -0.16688369563646924 -0.6954069403800429 0.07253839347816238 -0.05982089113483543 0.07108121648300315 -0.05948352938642161 -0.21232072487297524 -0.6937727014183954
744000000.0 -0.17051989312575175 -0.6920050318061413 0.07152794211265771 -0.06235290219180748 0.0702486335896787 -0.06166032203808204 -0.2176505132558826 -0.6877596875240842
744687500.0 -0.17394281968024397 -0.6883939400080229 0.07055848755194041 -0.06476458603394196 0.06937998375902256 -0.06389817168491449 -0.22313961467383195 -0.6821509308718127
745375000.0 -0.17769706531044022 -0.6845042950533209 0.06931831129339254 -0.06729801379908704 0.06829688540150419 -0.06619755773106765 -0.2294015936039772 -0.6763933430738247
746062500.0 -0.18106484514217594 -0.6809433702248638 0.06810313527989012 -0.06977239572196664 0.06726065499721184 -0.06851441808876482 -0.23497623287752603 -0.6714138067376457
746750000.0 -0.18410717879090466 -0.6770676501606125 0.06677239692123392 -0.07229310054054015 0.06618079771495228 -0.07080664352737306 -0.24044069131208884 -0.6665239636934406
747437500.0 -0.18727573030063135 -0.6733651329988244 0.06530560014418967 -0.07475650278868143 0.06496657745328491 -0.07318160810883842 -0.24588747943397934 -0.6617461506013064
748125000.0 -0.1903438130502044 -0.6696646474033094 0.0636939527736895 -0.07713721718994693 0.06377825938477413 -0.07560454422386295 -0.25092009508241536 -0.657173543311882
748812500.0 -0.19308799007929894 -0.6658907331611652 0.062017799245241624 -0.0795792584700457 0.062368090537276946 -0.07808854340726752 -0.256083006677223 -0.6530181214530487
749500000.0 -0.1960540570728622 -0.6621858579232377 0.06029741586298528 -0.08198026703257226 0.060896920001854336 -0.08046100687837203 -0.2604141175688152 -0.6488997912088682
750187500.0 -0.19904777204354154 -0.6584637563864547 0.05833915172875401 -0.0842642900223708 0.05926809269906199 -0.0829118391048311 -0.26493260676831093 -0.6446958197076382
750875000.0 -0.2019636262698996 -0.6548453246750923 0.05636284410000006 -0.08660241577428392 0.05753391858574821 -0.08543102204762416 -0.26913156769912955 -0.6408496938138416
751562500.0 -0.20494379611388916 -0.6509203845309977 0.05418659714605225 -0.08879384457649615 0.05563066913311787 -0.08784257559937071 -0.2722641965272453 -0.6369989130196673
752250000.0 -0.20823830566426776 -0.6473018202131066 0.05191324988928074 -0.09087997928653858 0.053518679299711235 -0.09021203966812491 -0.27592776073825975 -0.6329174077234352
752937500.0 -0.2114997969000686 -0.6431451663797962 0.04946024421754836 -0.09282740163084413 0.05124428985147422 -0.09255164773797253 -0.2787471252767736 -0.6287996163799522
753625000.0 -0.21512719231063424 -0.6392653547474165 0.0470871516549322 -0.09469787124774609 0.048973173915222705 -0.09480009214347974 -0.28118407546195423 -0.6250108631091053
754312500.0 -0.2182655913353521 -0.6347463696961334 0.04477763914990608 -0.09643904384946596 0.04662436401166627 -0.09686897950152482 -0.28342800452341466 -0.6208265228945278
755000000.0 -0.22168155242123788 -0.629886934515379 0.042365304487526886 -0.09810547677826717 0.044110585057997684 -0.0989448334874935 -0.2855578056039057 -0.6165335458420773
755687500.0 -0.2251748058332864 -0.6249734709775534 0.040051981612540956 -0.09969842556080306 0.04155439481788346 -0.10092715246429045 -0.28705540237226645 -0.6119420567226884
756375000.0 -0.22784985207725852 -0.6202002803833817 0.03775404590152832 -0.10128975613638447 0.03899118549125432 -0.10282688708219827 -0.2886191773609424 -0.6068868490371686
757062500.0 -0.23062778815055407 -0.6147692760983576 0.03539102675962238 -0.10293358421551571 0.03624235942923946 -0.10467968352175394 -0.29020241099230265 -0.6016201778438602
757750000.0 -0.23323655366525028 -0.6099327478511134 0.03296574714083339 -0.10443174915992617 0.03348318195557472 -0.1064756686116679 -0.29147084186910227 -0.5958666606208054
758437500.0 -0.23565102328822607 -0.6048738086197142 0.030495461337429395 -0.10604076846294862 0.03057906691589607 -0.10819056346386641 -0.29283605889448383 -0.5897505121966418
759125000.0 -0.23791869416564265 -0.5999315770481004 0.027983386492365626 -0.10761690122956498 0.02754296665896941 -0.10971974096281076 -0.2941871146753915 -0.5832020910929445
759812500.0 -0.2403090132423765 -0.5948123281565905 0.025411755025946586 -0.10905758420231328 0.02445577962994641 -0.11116047224753525 -0.29556167358385255 -0.5761546295313247
760500000.0 -0.24248053886492252 -0.5900873127598059 0.022798241281677758 -0.11056694063095056 0.021362633023348343 -0.11252494551952778 -0.29708756295523947 -0.5687529910626254
761187500.0 -0.24475093262260972 -0.5852893554485941 0.01998879960540527 -0.11200631040042619 0.018211167448937225 -0.11367955263427354 -0.2985880461160073 -0.5610990355643009
761875000.0 -0.24681680380546708 -0.5805862558629442 0.017176782756190872 -0.11349822770656946 0.015035638035374688 -0.11467967785817235 -0.30053963493315905 -0.5532934545734112
762562500.0 -0.24877543916736225 -0.575937480541295 0.014252880378691837 -0.11491244490814437 0.011930896277136036 -0.11564641200566181 -0.30207696798319195 -0.5454376400350539
763250000.0 -0.250933105781395 -0.5713088693179744 0.011246883456984361 -0.11632789946120171 0.008692953127637609 -0.11648156329828206 -0.3045317647565688 -0.5374345270608991
763937500.0 -0.2527749860434359 -0.5668928260264319 0.008154932241392195 -0.11762968055007471 0.005605991675932195 -0.11721874972627848 -0.30670530191463097 -0.5295528703647719
764625000.0 -0.25466914141102803 -0.5625344751046324 0.004879246556607667 -0.11878708901739837 0.002465756102032229 -0.11787503780456991 -0.3091553908859856 -0.5217643473487298
765312500.0 -0.256579098868127 -0.5582250960718461 0.0015076925781307858 -0.12000407362486402 -0.0006496357353440823 -0.11850231644869999 -0.3116505740101677 -0.5142394453668424
766000000.0 -0.258067457405757 -0.5539483752154015 -0.0019453565253337826 -0.12104400230161758 -0.003718574386724429 -0.11904949866509483 -0.3141925598937056 -0.5068383499305479
766687500.0 -0.2598652135977989 -0.5499351643528192 -0.0055084907050642245 -0.12197322398268244 -0.00681553829316219 -0.11965692055061738 -0.3168711055629258 -0.49984128782702014
767375000.0 -0.26141668031534865 -0.545963682870886 -0.009119502859057752 -0.12282424906001917 -0.00988779543855824 -0.12025952326878499 -0.3194616365072452 -0.49323184109869656
768062500.0 -0.2629158935674231 -0.5421295162584998 -0.012826268603983745 -0.12350733261704491 -0.013051786059085557 -0.12075311287852339 -0.3216724042941709 -0.4866551116351135
768750000.0 -0.2642553977461774 -0.5383895008010454 -0.01669262241617613 -0.12403898182922957 -0.016273715650500446 -0.1212840160300854 -0.32406902206100274 -0.480488158787346
769437500.0 -0.26580236829546394 -0.5343850252928097 -0.020538275644272984 -0.12438635660667631 -0.019633600382476857 -0.12176775037219405 -0.32618596180855863 -0.4747340044789518
770125000.0 -0.2670721778165128 -0.5309232117937768 -0.02448467943492348 -0.12452869614284848 -0.02302832326842108 -0.12232107850943297 -0.32807522097532854 -0.4693498163578789
770812500.0 -0.26837305950069223 -0.5273229218125405 -0.028431455098152657 -0.12456807592476257 -0.026552169488093844 -0.12269713479772869 -0.32995243482850856 -0.4642705834220165
771500000.0 -0.269638449928585 -0.5236342801957882 -0.03239289589329447 -0.12431290533994384 -0.030268089625850623 -0.12289524623367153 -0.33127311300672196 -0.4589847827468204
772187500.0 -0.2707301467243819 -0.5199883916458752 -0.036412406332494096 -0.12394542574968481 -0.03401816545135888 -0.12305371131038126 -0.332405733333348 -0.45413632335337756
772875000.0 -0.27193112410435843 -0.5165231571094895 -0.04038566357786385 -0.1233755856828269 -0.0378394921790388 -0.12311435845055799 -0.33295206106681396 -0.44964315652378983
773562500.0 -0.2732422132873185 -0.5128429037041135 -0.04423064307525011 -0.12259859172791793 -0.04191123988605094 -0.12296527372871234 -0.33342684996423033 -0.4450589528889243
774250000.0 -0.27437372992370407 -0.5092614028141492 -0.04814718201605852 -0.12166223498850684 -0.0459087777064048 -0.12257388632335103 -0.33337412615354484 -0.440361004699491
774937500.0 -0.27538985247396724 -0.5055839315013329 -0.051969171436067656 -0.12063259713625046 -0.05000118768816019 -0.12198735351049221 -0.3330576284879827 -0.4358366871880273
775625000.0 -0.2763982779343628 -0.5017645119749816 -0.05567544364607792 -0.11946729557735175 -0.05410498217026675 -0.1211461003493807 -0.3325448817346773 -0.4310710178020462
776312500.0 -0.2772907014644881 -0.4978753242907017 -0.05937472282140951 -0.11821363891735887 -0.058152942932277484 -0.12010430668286466 -0.3317034108083373 -0.4260720323375029
777000000.0 -0.278220754306316 -0.4941702236047194 -0.06277064829222996 -0.11676416395355846 -0.062077199109288335 -0.11889789556477642 -0.3302123282499346 -0.4211039003399001
777687500.0 -0.27892431243585064 -0.4901692418246217 -0.06626987980619406 -0.11541835766482582 -0.06603311340975819 -0.1174443793875847 -0.3289650899324381 -0.41598460959353145
778375000.0 -0.2794436605288504 -0.4860285392608791 -0.06960499202688487 -0.11386094087074895 -0.06975729909529442 -0.11578391553948054 -0.3273352884479395 -0.41052928074043665
779062500.0 -0.28000809549073374 -0.48195989776331044 -0.07281150224943085 -0.11227232326108878 -0.07334640353038982 -0.11405714607403517 -0.32552497537510877 -0.4048710624287387
779750000.0 -0.2806665262011877 -0.47759426988464543 -0.07609261505330928 -0.11064042507430003 -0.07689923851622117 -0.1121629584189588 -0.3236450400780567 -0.3990889333459249
780437500.0 -0.28095259193449224 -0.47374763023206207 -0.07913677143934399 -0.10915053096416362 -0.08023492981001895 -0.11030041914180662 -0.32175127238690976 -0.3929388704878685
781125000.0 -0.2813576616949184 -0.46952064181679337 -0.0823447266766776 -0.10745187076387443 -0.0835655910147588 -0.10832284907923415 -0.31988047224270605 -0.38673145325953817
781812500.0 -0.2817084041569762 -0.4653073781911434 -0.08549309858340544 -0.10578284042848589 -0.08676569289190034 -0.10634144254695614 -0.3180003297308563 -0.380523189907037
782500000.0 -0.28199600517794454 -0.46115585466970793 -0.08861764355630175 -0.10412637617942042 -0.08995301760419698 -0.1044811961590116 -0.31625569372395035 -0.37424230531609104
783187500.0 -0.2823075564339122 -0.4571849577044192 -0.09179566186625729 -0.10245704426416674 -0.09313167353322893 -0.1024771151917612 -0.3145768981582474 -0.367963155027062
783875000.0 -0.2824771010182929 -0.45287904359621145 -0.09499400071643878 -0.10055881741043898 -0.09625546088759934 -0.10051519434900409 -0.31321318124732644 -0.36144933159553894
784562500.0 -0.28266152954779816 -0.44884919395624273 -0.09823354524437947 -0.09871476529482014 -0.09944399532788724 -0.0984764162040144 -0.31192217986439713 -0.3552227045755434
785250000.0 -0.2830460365032556 -0.44489280461458547 -0.10156988149746234 -0.09677603657820066 -0.10262645320778707 -0.09638671107586362 -0.31063308069117146 -0.3492987810274081
785937500.0 -0.2834500685053266 -0.44091528502773036 -0.10489603298207 -0.09469976966293048 -0.10589636113914153 -0.09425231817809221 -0.3092700287014603 -0.3435906590253285
786625000.0 -0.28376406148635824 -0.4366202046711423 -0.10828646023523988 -0.09244794965202793 -0.10918606028096084 -0.0919353372283694 -0.3081655017573697 -0.3378399080441923
787312500.0 -0.284144096874122 -0.43276541633252885 -0.11168678812306163 -0.0901004782185043 -0.11253444282305711 -0.08949213104437612 -0.307151910737651 -0.3327308361514492
788000000.0 -0.2844019648891703 -0.42863852541714215 -0.11507695038427826 -0.08752883553166206 -0.11579343478329411 -0.08686776742756688 -0.30618702719822466 -0.32761071727388785
788687500.0 -0.28476146675709374 -0.4247158123672946 -0.11842550502190072 -0.08490731394366322 -0.1191404157664324 -0.0841189976181435 -0.30501244330192673 -0.323015444852883
789375000.0 -0.285329141020527 -0.4208831447200534 -0.12179444591298336 -0.0819729494200363 -0.12237939929443148 -0.08109095957399862 -0.3039356529533533 -0.31873084426084614
790062500.0 -0.28581228167700395 -0.4168322748640274 -0.12509645669700048 -0.0788686325701747 -0.12553640449247247 -0.07779074844207057 -0.3025357337231135 -0.3144602477560882
790750000.0 -0.2860075630985839 -0.41282109159809305 -0.12827615247857513 -0.07558083411318109 -0.12858169986893483 -0.07436788674539939 -0.30112486425858775 -0.31070190758137883
791437500.0 -0.28646539499572726 -0.4089646619529952 -0.13137942500560268 -0.07209576450107211 -0.1314462990885081 -0.07078597357844707 -0.2993449997640394 -0.3072225594316356
792125000.0 -0.2866365943279534 -0.40510282931703 -0.1343043079769273 -0.06847252094621867 -0.13415873328545674 -0.06694366555742924 -0.29757262155429276 -0.3038785963697751
792812500.0 -0.28684007809417716 -0.4012884389528541 -0.13707614123429682 -0.06468411094708469 -0.1366800842818736 -0.06305757152622597 -0.2954290683754073 -0.3010616665764972
793500000.0 -0.28699828249169684 -0.3976055679543112 -0.13974507482812631 -0.06055562304409023 -0.13896730445965783 -0.058982934405270734 -0.29312343942985897 -0.2980402915246379
794187500.0 -0.28702811257362915 -0.3938762280692667 -0.14210760898407923 -0.0564282460567138 -0.14117887068564205 -0.05489243246917727 -0.2904750243119929 -0.29549302324190274
794875000.0 -0.286933090630464 -0.39047809035567677 -0.14431850096845195 -0.05209995841033877 -0.1431716545832664 -0.05075648202576785 -0.2874945539216576 -0.2928142214839538
795562500.0 -0.286810481114264 -0.38697643062306264 -0.14635648639974128 -0.04763641475178928 -0.14483813156250325 -0.04652242818539763 -0.28445959959069084 -0.2903392880749089
796250000.0 -0.2867913175302413 -0.383874367475108 -0.1482889323152978 -0.04335509298452798 -0.1464424767885679 -0.04250547453001682 -0.2810623647482306 -0.28801426163224203
796937500.0 -0.28638988376938407 -0.38073158663074064 -0.14990148118592397 -0.038727075390644086 -0.1478529349680793 -0.03834960088129438 -0.2774185724834082 -0.2858626233030106
797625000.0 -0.28610900609109613 -0.3776741806635761 -0.15127624289982963 -0.03413669801876409 -0.14914372602155793 -0.034311646714502965 -0.27374059463427525 -0.28348084583992716
798312500.0 -0.2858777414862742 -0.3746987223625179 -0.1524959864472265 -0.029533621917865568 -0.15033986717374817 -0.030224941865499805 -0.26957912718518656 -0.2811249105551506
799000000.0 -0.28564792351148066 -0.3719583874434077 -0.15354264224535466 -0.02502235401711708 -0.15146430786655182 -0.02619091498279934 -0.2657815044056791 -0.2788126926506931
799687500.0 -0.28542524904754046 -0.36900178834490227 -0.15434839405231485 -0.02044390788276664 -0.15260041498239169 -0.022161016686435313 -0.26150873851325995 -0.2765280375879125
800375000.0 -0.285180614574918 -0.36628886711174247 -0.15503590357296973 -0.015918107383560746 -0.1536591747519779 -0.01812029450053887 -0.25752089055752286 -0.27441248664643725
801062500.0 -0.2849827409990675 -0.36357561019298557 -0.15561485458978583 -0.011446743541859898 -0.1547588763925538 -0.013953596422250298 -0.2534826353599786 -0.27206051598469466
801750000.0 -0.2846967066153826 -0.36080132981953755 -0.15600356621165076 -0.0070693302948297105 -0.15571970547071634 -0.009678072455451795 -0.24933378258147004 -0.2698045289790451
802437500.0 -0.28434925057426824 -0.35796332330237124 -0.1563918813908996 -0.0027769747901929234 -0.15665856332703118 -0.005386703415334055 -0.24564203136627144 -0.2676328774039185
803125000.0 -0.28394259940761735 -0.3549702324835028 -0.1565131506510016 0.001686495678213522 -0.1574490797184182 -0.0009658482008584486 -0.24194069248289432 -0.265109940377567
803812500.0 -0.2834874065782675 -0.3520711249198012 -0.15662489150581702 0.0059614093167409095 -0.15821408235309653 0.0036964953395221393 -0.2384898214108508 -0.26286583973005845
804500000.0 -0.2829780649369598 -0.3491905581248011 -0.1567789906040302 0.010125681910817991 -0.15880384749024784 0.0082955755853185 -0.2351115749127724 -0.2609006094502371
805187500.0 -0.28241614689895433 -0.3462561741630794 -0.15682251763591204 0.014530203245810237 -0.15919051358433509 0.013124777415512922 -0.23212979483404664 -0.2586454443548385
805875000.0 -0.2816356301072768 -0.34307308648890145 -0.15680764576004289 0.018725060606468353 -0.15941669129848007 0.017967067866325282 -0.22922781016129662 -0.2568163115597946
806562500.0 -0.2808278468784046 -0.33997383279983495 -0.15664766046783427 0.022997535388003962 -0.1594152415225357 0.022941575576063983 -0.22632421704705863 -0.2546883728904197
807250000.0 -0.2799743128879202 -0.3368534338644681 -0.1565104136702086 0.027385424348579643 -0.15915914879314963 0.02784344414150535 -0.22374801012354092 -0.2529351778891766
807937500.0 -0.27908184750203746 -0.3337084057322367 -0.15620770195887895 0.03185602942892004 -0.15873800283215223 0.03297585813894026 -0.22152052122599597 -0.2513731395541595
808625000.0 -0.2779243269982787 -0.33045150769125875 -0.15588321079941742 0.036263748800957514 -0.15798198587916898 0.03789200947655214 -0.21912156203242822 -0.24966213506896626
809312500.0 -0.27701831193504717 -0.3271282116533433 -0.15540151240593178 0.04079338585920269 -0.1571044714836872 0.042831801912290766 -0.21689587307967234 -0.24825752644850377
810000000.0 -0.2759270728497601 -0.32385444037823213 -0.1546739124895803 0.04527086526702913 -0.15594448390383525 0.047623001623983516 -0.21469144493782763 -0.24700162975117818
810687500.0 -0.274758353002956 -0.3206720369099109 -0.1539050393256203 0.049948160618654106 -0.15452434024051886 0.0524124315619048 -0.21249216793334433 -0.24601066410844397
811375000.0 -0.2735808297319997 -0.31754374628960386 -0.15273193206167449 0.05455149598840648 -0.1529438094151338 0.05708770761147011 -0.21056062341547666 -0.24478973896211206
812062500.0 -0.272583202899768 -0.3143010029449497 -0.15168408790132965 0.05917978518477829 -0.15125442584937146 0.061579120280738905 -0.2084261824178987 -0.24379435025980278
812750000.0 -0.2714235501267761 -0.3113243679826083 -0.15025718822819825 0.06378516786696208 -0.14941465649065214 0.06596388335282398 -0.2064714567178439 -0.24313620292733118
813437500.0 -0.27044575886627353 -0.3080982326092265 -0.14873805889237948 0.068332027761994 -0.1473702209433645 0.07027442356993803 -0.20442723969529678 -0.24251799284250225
814125000.0 -0.2694978906175181 -0.30481494736147724 -0.14701910237735794 0.07295869701037333 -0.1452477757283625 0.07450900971542267 -0.20254982638956615 -0.24224585429362094
814812500.0 -0.26861653146400344 -0.3016551622040003 -0.14506362022080105 0.07735343982080514 -0.14301938664464156 0.07849807390693589 -0.20034894960953234 -0.2417846149521252
815500000.0 -0.26769609712463377 -0.29849592516635537 -0.14301341916294794 0.08180879164358881 -0.14076638289253748 0.08248112886732066 -0.19857974530859682 -0.24148108057510684
816187500.0 -0.2669057933904975 -0.29522220018841405 -0.14071111195838565 0.08611430413325803 -0.13836869132462964 0.0862896702318284 -0.19659597588240474 -0.24121454542232765
816875000.0 -0.266195615952828 -0.2919870194706672 -0.13831881565803744 0.09035361489429856 -0.13599695145906607 0.0900937961549068 -0.19460190730572097 -0.24109099386053331
817562500.0 -0.2656498610842403 -0.28884149287730476 -0.13570890870115912 0.09458062839317995 -0.1335534915597781 0.09379835407263447 -0.19288250930939427 -0.24106224424827838
818250000.0 -0.26468909132810176 -0.28546654965899265 -0.13294687275449937 0.09854384834709277 -0.1311299792054646 0.09735631123965013 -0.19106176290250063 -0.2410921926268592
818937500.0 -0.2641199517831923 -0.2821588494570636 -0.1301155793896325 0.10247919269210114 -0.12858183142702156 0.1010236839552909 -0.18930632978023013 -0.24100441188222466
819625000.0 -0.2632030075986393 -0.27899236080958023 -0.12720877227964167 0.10629415942425283 -0.12601746389247392 0.1044762800924059 -0.1878958026048616 -0.24119707470198581
820312500.0 -0.2623477469831185 -0.2757668486422282 -0.12408409586403003 0.10990181472213428 -0.12332709700962038 0.10794811661234739 -0.1861900752529724 -0.24117621611543044
821000000.0 -0.2614214370669105 -0.2726065178506283 -0.12078159714621366 0.11334160687597185 -0.12058766769522113 0.11151099068466351 -0.18484514616795 -0.24127267736750235
821687500.0 -0.2604623430433383 -0.26972540808561973 -0.11750470376177735 0.11679512967079286 -0.1177196012628168 0.11494214661742297 -0.18346629583633653 -0.24133953212215178
822375000.0 -0.25960252882414175 -0.2667523163453395 -0.11404010404183332 0.12005666213809033 -0.11473352706237672 0.11837908759583636 -0.1822786633750606 -0.24126760975166509
823062500.0 -0.258463049524838 -0.263935855264464 -0.11059365761484097 0.1231830633654324 -0.11157552480070994 0.12171633429315976 -0.18107618994913913 -0.24125517920669096
823750000.0 -0.2575080621968972 -0.26121419076566904 -0.10694556178987266 0.12614703762018828 -0.10827893333822003 0.12506294379988275 -0.18013956113567883 -0.24134278374375467
824437500.0 -0.25628574217366107 -0.25879586165212887 -0.10339437826593134 0.1290412434963632 -0.10494107961839354 0.12817354189799138 -0.17919307329495002 -0.24150118563832143
825125000.0 -0.2551757587691581 -0.2564022261845831 -0.09973528049538476 0.1317315940048451 -0.10128336887033881 0.13130220122544556 -0.178264532855064 -0.24136153396270887
825812500.0 -0.25393864482817524 -0.2541881232698933 -0.09600965914699668 0.13446943436575623 -0.09765423156186377 0.13434517562765347 -0.17769567429537755 -0.24141696136750335
826500000.0 -0.25274539614196306 -0.2520263547207363 -0.09227675289542292 0.13695432817167585 -0.09377607568330994 0.13723932245174214 -0.176874038718697 -0.24141146583311793
827187500.0 -0.2514705678379184 -0.250013965093246 -0.08853142791824486 0.13938700423822878 -0.08986132835255001 0.1399430100162404 -0.17626049926985132 -0.24166516922457662
827875000.0 -0.25019887315024836 -0.2480441385716692 -0.08467719779677406 0.1417193706323825 -0.08586924104764426 0.14238004441100305 -0.17541942201766703 -0.24145681146013673
828562500.0 -0.24883408799400636 -0.24626771697270403 -0.08088872207850145 0.14389995633812536 -0.08175720350813216 0.14483890540132177 -0.17470719221948433 -0.24137556204225585
829250000.0 -0.24743529937715927 -0.2444739379959295 -0.07692578541543463 0.14592418781052516 -0.07763521214519922 0.14692348320838938 -0.17403133492396342 -0.24147166659709893
829937500.0 -0.24611305451992582 -0.2426939027233133 -0.07295521594737546 0.1478585580443043 -0.073355536994247 0.14888167396489543 -0.17332179058265684 -0.24126702908263467
830625000.0 -0.24471927767079263 -0.24118588151896506 -0.06903999890599617 0.14974558969523016 -0.06916685805283247 0.1507528458149361 -0.17252699014638748 -0.24099193202930264
831312500.0 -0.2431215816386598 -0.2395404613155435 -0.0650301688854905 0.1515863357677469 -0.06496888334250915 0.15245392965171076 -0.17181350408991847 -0.24090188747478714
832000000.0 -0.24161912429945015 -0.2380040370564783 -0.060986404756920666 0.15311897933939317 -0.060756110603786814 0.1540326499115311 -0.17121208418414607 -0.24059841243535326
832687500.0 -0.23999510836208218 -0.2364591776241002 -0.0569281958246727 0.15468690847570454 -0.05642295291870611 0.15542388060179524 -0.1704297870253857 -0.24024897496709555
833375000.0 -0.23831345986291627 -0.23503421643406153 -0.05281941227892311 0.1561154321473533 -0.052260290032190716 0.15674758844871559 -0.16981537454391724 -0.23986447460506666
834062500.0 -0.23666285800068226 -0.23347015123580303 -0.048755190562551225 0.15741458504114017 -0.04810398737496122 0.15790799500036934 -0.16923195486732293 -0.23948254377035275
834750000.0 -0.23478710167555675 -0.2319638422779204 -0.04449926855532464 0.15859530186702378 -0.04383740871675967 0.15894113238853355 -0.16857610679139431 -0.23867305037679024
835437500.0 -0.23302840081999127 -0.23048812627456705 -0.04026896177137066 0.15968820941738956 -0.039697502734165224 0.15994861474449837 -0.16825752384736808 -0.23834588758552575
836125000.0 -0.2310432101673848 -0.22906161718939755 -0.03601263624102921 0.16063830845486704 -0.03544439566679576 0.16083984231701445 -0.16784612888325653 -0.23791714256555319
836812500.0 -0.22920592681317076 -0.22759269368976745 -0.03189235779262298 0.16143577271577178 -0.031263871415696025 0.16163409911609927 -0.1675198379826393 -0.2373810957249967
837500000.0 -0.2272953635358244 -0.2262361976762975 -0.02756880282288563 0.16225148568239578 -0.0271060082352668 0.16231500030370885 -0.1674337863218165 -0.23688896092665637
838187500.0 -0.22548784121915894 -0.22477625933480672 -0.023375783670212993 0.1629995915190907 -0.02294004836359164 0.1629970616177232 -0.16721063452137866 -0.23652743699699796
838875000.0 -0.22358393128697843 -0.22336893844542996 -0.01909990856657569 0.1634902231170257 -0.018711136302699775 0.16345312923271577 -0.16729423380086003 -0.2360865691890973
839562500.0 -0.22157929288950085 -0.22203495608750334 -0.01494748318832004 0.16395830853655236 -0.014554771339434424 0.16389537744860444 -0.16718159846209968 -0.23590430588930564
840250000.0 -0.2197382925119394 -0.22056286993655155 -0.010645422684533883 0.16431913399149445 -0.010386875642406744 0.16413906029530304 -0.16741741246684066 -0.23567803586232552
840937500.0 -0.21789490904386735 -0.21923935088189606 -0.006540981775481546 0.1645436839964468 -0.006201326831527184 0.16433320277873836 -0.16750202053117277 -0.23554764288366464
841625000.0 -0.21612965304891746 -0.21795301622455626 -0.0022787259637584143 0.16466052551397345 -0.0020016766043944537 0.16438824446680453 -0.16776734684841144 -0.23547733803136742
842312500.0 -0.2145948681016629 -0.21657338390913067 0.0020079241739993526 0.16462929715988528 0.0022411583379723177 0.1643713779338951 -0.1679770006615122 -0.23552752588657513
843000000.0 -0.21290179763528583 -0.21522401709574907 0.006156728322926004 0.16442298695912516 0.006395087206827679 0.16417088961572038 -0.16807860285340198 -0.23579558930032316
843687500.0 -0.21140905999820964 -0.21398160637565436 0.010438702687725435 0.1642999598773731 0.010692259421546644 0.16395124507806538 -0.1684049513867407 -0.23619576961860428
844375000.0 -0.2099107005402652 -0.2125679050502904 0.014690185887668517 0.16388941096310095 0.014842699747973536 0.16359277390416488 -0.16851787451288863 -0.23642251593251723
845062500.0 -0.20862539711169797 -0.21121492237321213 0.01891302671655733 0.16344599298243806 0.019057018370622004 0.16312119181832102 -0.16876782051243017 -0.2370741009890303
845750000.0 -0.20736135897112443 -0.2100108509529577 0.023164766845339975 0.16284830693764235 0.023275975671904987 0.1626588411564577 -0.16887729373362223 -0.2377915500111311
846437500.0 -0.20608382865695432 -0.2086637622373341 0.027362555755250616 0.16229005725784063 0.027474334401406047 0.16198278271344493 -0.16894057829023681 -0.23845830117162314
847125000.0 -0.2049500460449297 -0.20741091634002404 0.031547315057233356 0.16146088067084574 0.03161829958589256 0.16128561757006837 -0.16867714735489203 -0.23928307438946866
847812500.0 -0.20408145710490722 -0.20608689900312752 0.03573828617256443 0.16053570011097756 0.035848017562486574 0.16044085509537784 -0.16836628110850382 -0.2399683371740825
848500000.0 -0.20297736651571263 -0.2047674979776222 0.03987708210033462 0.15949113422357267 0.03986837457953963 0.1594136646956323 -0.16784793402906203 -0.24075706403748479
849187500.0 -0.20199431770298426 -0.20358280845587587 0.04393525541967052 0.15848972180803453 0.04387321320862369 0.15835568168114164 -0.16716086725511187 -0.2415493857213653
849875000.0 -0.20116006180475804 -0.20208731745643135 0.04813726978832513 0.15730545255676484 0.04795480460205456 0.15716857331506073 -0.16624352618303542 -0.24204872180091416
850562500.0 -0.2002844245609614 -0.20078117759139902 0.05214585205794886 0.15596084612188374 0.05194766915848078 0.15587814172171344 -0.1653083667659705 -0.2426521580815099
851250000.0 -0.1993448893136243 -0.1994720820571745 0.05620051818442569 0.1544731096890476 0.056000460947656545 0.1543410966011394 -0.1641717612180351 -0.24285008497303753
851937500.0 -0.1984814416930265 -0.1982625162071933 0.06015228310046189 0.15301300389045353 0.05997423313369772 0.15274847704978184 -0.1630077867657457 -0.24300297894825437
852625000.0 -0.19729704923184932 -0.19698680386537318 0.06414688892840908 0.15137240550380218 0.06377248177316089 0.1511029951091908 -0.16163381636885552 -0.24294136865075233
853312500.0 -0.19634455349221613 -0.19586186819038148 0.06802749419506277 0.14952757416761278 0.06767128298303961 0.14922089345600972 -0.16024563898711494 -0.24275029527326972
854000000.0 -0.19525454780310925 -0.19477367932057044 0.07183713675589198 0.1475366221759941 0.07145429142004178 0.147305171793466 -0.1589737378929535 -0.24224996522788525
854687500.0 -0.19409512228233747 -0.19401904761883854 0.07557495300655799 0.14545399995308794 0.07521371403375796 0.14520083811733944 -0.15787486626305483 -0.24157516389350092
855375000.0 -0.19276543110997169 -0.19318067904934338 0.07918465769508716 0.14321571159581734 0.07875642552834494 0.14310233692038515 -0.1566633901913399 -0.24084144357027049
856062500.0 -0.19154341479956577 -0.1925886316213828 0.08281116405309619 0.14093860371036465 0.08222974883319539 0.140809473656607 -0.15573880643398996 -0.2398446826158869
856750000.0 -0.19037708146426943 -0.19193636953939258 0.08622065055049731 0.13848495290187735 0.08574176628201587 0.1384318360872846 -0.15507601612914992 -0.2387424967090117
857437500.0 -0.18910450890840005 -0.19145896344021987 0.08959728884051359 0.13597793791120763 0.08904129991790825 0.1360559341848664 -0.15442363744059062 -0.2376505880674263
858125000.0 -0.18768735179540308 -0.19152180811170783 0.09279248190325985 0.1334231168089484 0.09226481668768399 0.13369753095431253 -0.1540577836873913 -0.23638883052855617
858812500.0 -0.18645148147153673 -0.19123496484309283 0.09586278140817323 0.13090348043250088 0.0953368611764377 0.1313442057737628 -0.15397409129961367 -0.2352611149528462
859500000.0 -0.18523102117839985 -0.19120147578641494 0.09895616725412547 0.12830129615699692 0.09840861417319953 0.12887625959581908 -0.15381754437863152 -0.23401342748430928
860187500.0 -0.18420337069086073 -0.191415453941064 0.10177871618295008 0.1258477214194647 0.10144303803885436 0.12644198991477976 -0.15392969479489174 -0.2329834694669604
860875000.0 -0.1831134069498588 -0.19140715658095936 0.10469288035248742 0.12298530487818525 0.10444314261433962 0.12388615486035656 -0.15425386384510828 -0.23195879567452363
861562500.0 -0.18193302872416456 -0.19158705244213783 0.10737635546911392 0.12043044727512549 0.1073206970509676 0.1214265376079863 -0.15471792045374494 -0.23125436571762356
862250000.0 -0.18090287058384122 -0.19168495058880533 0.10995157424274098 0.11768616959796557 0.1100404866652537 0.1188294885350695 -0.1553025239063987 -0.23047092911360273
862937500.0 -0.17969127885623157 -0.19167951666882047 0.11258663606742218 0.11500289619368666 0.11286138750823822 0.11615067313392738 -0.15588885279964831 -0.2299318393812888
863625000.0 -0.17869683612369539 -0.19187263751116046 0.11516993033151632 0.1122645307004533 0.11563569939885825 0.11336194625411941 -0.15666420979188947 -0.22981782297862835
864312500.0 -0.17773513052259465 -0.1919288303190056 0.11765808152989556 0.10956184964468374 0.11843416492640192 0.11061180129052699 -0.15732336688637638 -0.2297766543417257
865000000.0 -0.17682981656611746 -0.19187389396648827 0.12007135819709885 0.10673716559633051 0.12107245156935617 0.10766481880293513 -0.15811856720037812 -0.22967243816532468
865687500.0 -0.17578492681738941 -0.1917181609565849 0.12253088822267942 0.10386475057515031 0.12371875302807829 0.10468787070608489 -0.15902616121156657 -0.23004748040458897
866375000.0 -0.1747352443577691 -0.19142037677366824 0.12489527648236906 0.10105708140662446 0.12627671182125627 0.1014564087884455 -0.15941316373405381 -0.23038212869863128
867062500.0 -0.17398155355453404 -0.19113234963052794 0.12727932790309715 0.09813334324479363 0.12886043529742255 0.09819573217647674 -0.1600126424225809 -0.2310487956909501
867750000.0 -0.17288086914249673 -0.19086571245864065 0.12957683865345312 0.09523904095946797 0.1312135761435695 0.09491888059027088 -0.16027225143412216 -0.23170483715397647
868437500.0 -0.17178757146076443 -0.19031195231916723 0.13185848343882559 0.09212004110543442 0.1335314631315615 0.09154429881008827 -0.1606561496878451 -0.2323455334860904
869125000.0 -0.17085754960900482 -0.18988843922532758 0.134125529407761 0.08899602116530633 0.13562178897360677 0.08808559806379905 -0.16055198142482904 -0.23298974660799238
869812500.0 -0.16967844637105686 -0.1893354987340134 0.1362892879523325 0.08582089114285088 0.13766685436450854 0.08455615439084227 -0.16044036863714042 -0.2333360964053806
870500000.0 -0.1683895976062347 -0.18871178564383284 0.13835296293676572 0.082580491941783 0.13958763891986406 0.08089065511887807 -0.16001682233641829 -0.23369162299874324
871187500.0 -0.16728402989150368 -0.18801993865382086 0.14053833998535512 0.07932279408987504 0.14134893769994658 0.07735200845653392 -0.1594395206956948 -0.23392928572993624
871875000.0 -0.16613863049853347 -0.18740522619796807 0.14239087893124974 0.07578304309924502 0.14284957821063393 0.07368809243521496 -0.15873186018303959 -0.233603640036725
872562500.0 -0.16501730240739457 -0.1867547977710732 0.14441855873480944 0.07223332412762731 0.14425689433959402 0.07010719866977831 -0.15786475477456224 -0.23338844242183798
873250000.0 -0.16378435621940474 -0.18623010079348687 0.14617091347520209 0.06868251609988382 0.14560213396391467 0.06656584730928974 -0.1568648903443328 -0.23278291752000713
873937500.0 -0.16262786229660908 -0.18563640849793628 0.14782414616481002 0.06498601716315783 0.14677323698298225 0.06313535149602904 -0.15591376911665972 -0.23185371252879794
874625000.0 -0.16165046263167515 -0.18513861854576785 0.14946717556467418 0.06128091331313264 0.14788370222639005 0.05967215623792847 -0.1549336624656234 -0.23048186605340934
875312500.0 -0.16070314027318636 -0.18473780442953952 0.15092589817521668 0.057388166637922455 0.14902251156977497 0.056193989020094294 -0.1539833241627996 -0.22888524859367662
876000000.0 -0.15974976629588944 -0.18419858668602523 0.15226328091569852 0.05345739035514785 0.14996247030129653 0.05271869006879902 -0.15319936283893767 -0.22707066154458017
876687500.0 -0.15899881989060805 -0.1837130760848417 0.15337291855983434 0.04957611729773255 0.15103365398739085 0.04937613048701547 -0.15247840625146616 -0.22497010942761927
877375000.0 -0.15828331905337525 -0.18330032942382582 0.15461678428820086 0.045771832026050764 0.1521472561081911 0.046002640493828066 -0.15201503393408955 -0.22302789650197827
878062500.0 -0.15764850146996517 -0.18280083669258143 0.15552277340725215 0.04168606154442231 0.15318786819731076 0.042594457087810664 -0.15154207699893638 -0.22083932938331233
878750000.0 -0.15696767685707866 -0.18229087140721442 0.1562522129447446 0.0376759253702159 0.15426819333135838 0.03909747961490244 -0.15148182047680359 -0.21853346670512497
879437500.0 -0.1565191566354216 -0.18178467598376893 0.15692581530588917 0.03369487086807816 0.1552891322456979 0.035547858487817136 -0.1517588638307934 -0.21618919485894228
880125000.0 -0.15596657104201764 -0.1812490951847235 0.1574394764624392 0.02980900846805332 0.15636792931709997 0.03196179965183516 -0.1520386878896004 -0.2139483501145926
880812500.0 -0.15552608393481723 -0.1807940005476188 0.1578375444163689 0.025992422608263604 0.1573881228687151 0.028345775862567247 -0.15252967171666482 -0.2119932325497401
881500000.0 -0.15488063702536983 -0.18018092139454275 0.1581218264931131 0.022155156500428617 0.15826039245956444 0.024495732681540906 -0.15339044671298488 -0.21000316335480373
882187500.0 -0.15436200890163623 -0.1797273685555627 0.15830164702593164 0.01827585754429512 0.15901096570779866 0.02052989596581386 -0.1545637547906175 -0.2084255098528173
882875000.0 -0.1536729162313274 -0.17910968821733028 0.15836721360728573 0.014519302796313494 0.15966837393514346 0.016651416207324746 -0.15566561704137966 -0.20699716107347618
883562500.0 -0.15300001254969753 -0.1787176150008883 0.15837107322904925 0.010795529839948793 0.1602433636823197 0.012645363062352708 -0.15701841446001205 -0.20582582826184662
884250000.0 -0.15223741894312823 -0.1783505967963405 0.15837942777839717 0.007217723838898943 0.1604763069726528 0.008485592821964559 -0.15855015432003108 -0.20489312803119358
884937500.0 -0.15137227343474705 -0.17805060836603645 0.15818187069095088 0.003538811057625433 0.1606553927952371 0.004390857554142761 -0.16008327575303788 -0.20433040744369618
885625000.0 -0.1503981500296944 -0.1778179609546127 0.15797596275487844 6.381713571737838e-07 0.1604987140277729 0.00021308208301201072 -0.1617275567905571 -0.20403341479308912
886312500.0 -0.1494720562400876 -0.1776521661768885 0.15783185671965572 -0.003545779699124745 0.16031227152632815 -0.00390794894446083 -0.1633705045438259 -0.2041158046445075
887000000.0 -0.14837393024480625 -0.17768342294496028 0.15749048845469354 -0.0070953580391546 0.1598647946484916 -0.007873590764482692 -0.1647853025459312 -0.20422431810648203
887687500.0 -0.14737003968809326 -0.17778287891123143 0.15717618792391944 -0.010544112290713892 0.15923980458186557 -0.011922520290657464 -0.16615892790227438 -0.20455836221541815
888375000.0 -0.14621136953785718 -0.1780133797585765 0.15679829309153087 -0.014109452912837503 0.15840370925270938 -0.015867533907734516 -0.16719431972705923 -0.2051203281789845
889062500.0 -0.14520917684336992 -0.17829393270661745 0.15642031343293153 -0.01765448818044979 0.1576312782906967 -0.019664099762769085 -0.16826845307295077 -0.20567339730687795
889750000.0 -0.1441340152216654 -0.1786659938863009 0.1559666737846912 -0.021118910973392333 0.15667564435628248 -0.02333548821755653 -0.1689308519819978 -0.2062748316395664
890437500.0 -0.14316553316912878 -0.17907961172214376 0.15545070241461567 -0.024573113464609518 0.1555729031693511 -0.02687329566366397 -0.16934187820278707 -0.20680954164836549
891125000.0 -0.14217641565649944 -0.17946271230175442 0.154817370188705 -0.02802287553359876 0.1544568625427427 -0.030385346014674477 -0.16940495169549027 -0.20742956297633774
891812500.0 -0.1411935772697927 -0.1800239290009434 0.15419651515401972 -0.0316142508858306 0.15332613258815644 -0.03365019747296931 -0.16924407878558842 -0.20772031769085764
892500000.0 -0.1402921584875956 -0.18042859532904956 0.1535265701105288 -0.03500045090111232 0.15227396830231088 -0.03689210175434908 -0.16871725503104773 -0.20801047769115202
893187500.0 -0.14010851678406136 -0.18110641552311998 0.15307181068698442 -0.03888997630082599 0.15138857194869237 -0.040358161875951044 -0.1685770124478771 -0.20819180469696166
893875000.0 -0.13916851613167489 -0.1814515917363778 0.15196958182438638 -0.04226843291393818 0.15024550643154516 -0.04341687907773966 -0.16767624711685383 -0.20777433061097045
894562500.0 -0.1383500953537299 -0.18170986530760327 0.1511206329386872 -0.04601507576223104 0.14922022395561063 -0.04653236524000919 -0.16691737970092652 -0.2073829039339733
895250000.0 -0.13734638491955792 -0.1818871262696173 0.14995302235730482 -0.04954735364596167 0.14816637229449356 -0.04960499590278802 -0.1657548518874853 -0.2067497320667359
895937500.0 -0.1364216182106773 -0.18222794397525485 0.14882753465334075 -0.053046473989380054 0.14715981294887148 -0.05280596065930727 -0.1647646715946496 -0.2059278474286178
896625000.0 -0.1355093714100294 -0.18221163349337702 0.1476122039399818 -0.05660018621952634 0.14594123616364668 -0.055954105855235595 -0.16383843177130278 -0.20478737503640682
897312500.0 -0.1344920365916121 -0.18225181803486004 0.14619248025324702 -0.060164338747000314 0.14483101530238662 -0.05923518356026721 -0.16291861365745425 -0.20342972769799084
898000000.0 -0.13345788254062324 -0.18225180445686692 0.14465674689101232 -0.0636591014430982 0.1436896012448498 -0.06250670823561467 -0.16190829296686549 -0.20216147101690138
898687500.0 -0.13235618223513684 -0.1824401270386811 0.14306912873842165 -0.0671768705385078 0.14246920256779583 -0.06582265994904239 -0.16123076029950428 -0.2007654092266873
899375000.0 -0.131277085671962 -0.18244154498855192 0.14133271059400024 -0.07056552430854458 0.14104938664542685 -0.06916584893444913 -0.16091227457706633 -0.19913894573128885
900062500.0 -0.13011368409585963 -0.18248010108995996 0.13936575770521076 -0.07383251332134672 0.13948025350720322 -0.07255938676449823 -0.16060808393438034 -0.19771594566470976
900750000.0 -0.1290937750401541 -0.1826442412597513 0.13745133909354318 -0.0770169839172719 0.13782379160823355 -0.07587700746341805 -0.16048279340000898 -0.19612125907920003
901437500.0 -0.12786441731673528 -0.18282661035744915 0.13534094767064705 -0.08007137734554803 0.13593133729074175 -0.07919653904464823 -0.1608179121458973 -0.19483924292182234
902125000.0 -0.1268758661835202 -0.18318503052441373 0.13316397456726856 -0.0830859537070266 0.13384473299328994 -0.08240631276219626 -0.16124419657580716 -0.19349622935030458
902812500.0 -0.12599465343046398 -0.1835312388687589 0.13095595624851353 -0.08589445390651089 0.1316229279697077 -0.08551170380162725 -0.16192183581486003 -0.19244627405004247
903500000.0 -0.12507198836992287 -0.18395715142623645 0.12859558489536457 -0.08864415969226531 0.12932913346148253 -0.08853128505466137 -0.1628013774250195 -0.19145224372277495
904187500.0 -0.12444922249714961 -0.1843865815454819 0.1262922397688395 -0.09136095938808213 0.12692266514268638 -0.0914548732895207 -0.16387634809696772 -0.19080587863286652
904875000.0 -0.12381564147688472 -0.1849601672787244 0.12388513135612214 -0.0939626718087079 0.12448192108724851 -0.0941546876601153 -0.16508828953479346 -0.19041138450623518
905562500.0 -0.12327994783927462 -0.18544327181561499 0.12141715901607009 -0.09647750913155731 0.12197889533215413 -0.0966758944067768 -0.1662709699769939 -0.19021150618677832
906250000.0 -0.12321256363554192 -0.18604938069762347 0.11908985446923374 -0.09892607601519565 0.11940815087818263 -0.09918801521328366 -0.16762665852375297 -0.19019784873207735
906937500.0 -0.12291635582561218 -0.1865806696141754 0.11658303520110559 -0.10126856731093921 0.11683895239498433 -0.10161351669379944 -0.1689633442910481 -0.19026402313782997
907625000.0 -0.122851046127241 -0.1869924300592165 0.11417621190151483 -0.10351595355614128 0.1143326071310077 -0.10371149718015606 -0.1702219178423634 -0.1907809711530635
908312500.0 -0.12290776771105628 -0.18740984533366775 0.11192824706912653 -0.10566024099122354 0.11180443250477408 -0.10585133420232486 -0.17121019029526513 -0.19129614568602643
909000000.0 -0.12307811124659429 -0.18769082824455435 0.1093520687676634 -0.10774417294134682 0.10944905543876982 -0.10784199091933222 -0.1722608547242694 -0.1918758683191237
909687500.0 -0.12338398340780214 -0.18808562650898872 0.10691948546175174 -0.10982559315159093 0.10711029700956419 -0.109845996443626 -0.17279490517044688 -0.19263282749918675
910375000.0 -0.12352034361825238 -0.18838254172619637 0.10454294209342756 -0.1118269503659833 0.10480480765633916 -0.11179886397821659 -0.1733830243593454 -0.19318723696515605
911062500.0 -0.12364408217268337 -0.18874173617485018 0.10228674625192105 -0.11376757439625265 0.10256402995152819 -0.11374903777906059 -0.17344478224856366 -0.19381895272599134
911750000.0 -0.12373587981614492 -0.18898237568543463 0.09994980518909623 -0.11568879951058048 0.10027899953383912 -0.11567894419435495 -0.1731778240430891 -0.19409224265940309
912437500.0 -0.12398092844761661 -0.1892728001243508 0.09759706918669836 -0.11760516792911588 0.09803639596516502 -0.11769698196178281 -0.17264811829104001 -0.19450177277676348
913125000.0 -0.124100573315822 -0.18955478767543033 0.09527108651542858 -0.11947711944599071 0.09573598925371134 -0.11968515632678518 -0.1718197066497716 -0.19467803124572955
913812500.0 -0.12410094538651634 -0.18988646064463424 0.09289823106411582 -0.12138215739262335 0.09336224922134623 -0.12179910706119194 -0.1708123663463909 -0.19470642567124335
914500000.0 -0.1240963334848898 -0.1904257364085889 0.09047025726803051 -0.12328016545494636 0.09089104190209078 -0.1239102936486686 -0.16954038780172045 -0.19438562684401633
915187500.0 -0.12411669516508518 -0.1908051644576324 0.08804986037683667 -0.12526253525370876 0.08838727228741462 -0.12593954321108572 -0.1683629914570845 -0.19417284980984229
915875000.0 -0.12392916001161619 -0.19146575172318525 0.0855339073575658 -0.12714624754925277 0.08576777817592764 -0.12804958691162305 -0.16697660594989838 -0.19355760443557268
916562500.0 -0.1239354577305718 -0.19197689017645908 0.08295855017045016 -0.12913630616872526 0.08298525703489233 -0.13004952932962732 -0.16568523551402037 -0.19294619722009923
917250000.0 -0.1239373742486131 -0.19268047904806893 0.08035440875054616 -0.1310162509623406 0.08020890903564173 -0.13201874090823984 -0.16393639866186407 -0.191950580580212
917937500.0 -0.12381928056468966 -0.19347050815033215 0.07761229015214292 -0.13297517007164242 0.07722133051866541 -0.13398659233898383 -0.16286421528054723 -0.19088242758908144
918625000.0 -0.12379321526862135 -0.1942766133503635 0.07486996363156181 -0.13485462568186798 0.07418848283270073 -0.13570167333865324 -0.16152322639525735 -0.18983291530683996
919312500.0 -0.1238127792635166 -0.19501002965126574 0.07194948477662447 -0.13652147034578024 0.07108858418246153 -0.137431454714663 -0.16042985840523302 -0.18857859532722793
920000000.0 -0.12387459268453897 -0.19579416563485913 0.06890454318109235 -0.13830373998424259 0.06803045575980564 -0.13880649992077007 -0.159499083461314 -0.18719975131124267
920687500.0 -0.12403607273746359 -0.19662963951809145 0.06600484233515103 -0.13989688865005662 0.06480669730712071 -0.1401517506847298 -0.15877857553363148 -0.1858795974684175
921375000.0 -0.12406861428336798 -0.19724906951759277 0.06292812469967292 -0.14136215061818108 0.0616821152561783 -0.14141634565610492 -0.15796782883831964 -0.18443960302900064
922062500.0 -0.12430496120640856 -0.19791321003707815 0.05975969521222477 -0.1427708603754377 0.05853755976968953 -0.1425849570146655 -0.1576943312494832 -0.1829925273905536
922750000.0 -0.12439436892287711 -0.198525918580153 0.05652373198099678 -0.14404721793764344 0.055490883975272 -0.14364898801248557 -0.1576431951219467 -0.18145534033093486
923437500.0 -0.12469773444277359 -0.19895566097564701 0.0534396175683562 -0.14534495404717543 0.05241666244710564 -0.1445746716772999 -0.15764023371424 -0.18015845183320012
924125000.0 -0.12477158783701556 -0.19932224690523623 0.050334475491771266 -0.1463651806978525 0.04949440868196221 -0.14553950569545346 -0.15760052973664104 -0.1789067660332451
924812500.0 -0.12498194105430901 -0.19973253205711852 0.04721275933160216 -0.14736701571060273 0.046442526261144985 -0.1463994638740409 -0.15800753039118906 -0.17762734765977117
925500000.0 -0.1250986638429621 -0.19993732703410458 0.04392773119378222 -0.14832969974053717 0.04348946618081202 -0.14730406433730517 -0.15859228324197885 -0.17644747784074358
926187500.0 -0.12517110531065975 -0.20004182303715423 0.040786602097809856 -0.14917453438597217 0.04057972069752678 -0.14811319473499418 -0.159106814579957 -0.17569747564490837
926875000.0 -0.12519348658654944 -0.20011814970033764 0.037663718308165874 -0.14999310638570257 0.03769291655522387 -0.14889889221303165 -0.15966641660086822 -0.17494730786965912
927562500.0 -0.125297031831459 -0.20013214056281362 0.03437835587060729 -0.15077029669194236 0.03477138599401876 -0.14977269220753803 -0.16009436461734988 -0.1742726745299671
928250000.0 -0.1252654259587209 -0.20010950303317107 0.03127800950461898 -0.1514725039535185 0.031901441256375666 -0.15065541483290854 -0.16068914715095348 -0.1737653538694578
928937500.0 -0.1251880962378151 -0.1999855073586892 0.028210910598044803 -0.15208901942887018 0.028894889745845045 -0.15148023066774421 -0.16114079138417137 -0.1734466121394679
929625000.0 -0.12527986258906038 -0.20000617276230812 0.025066613910558744 -0.15272991113111514 0.025996973801196248 -0.15226708859985458 -0.16114894399747234 -0.1729308812626702
930312500.0 -0.12531271840751498 -0.2000542858970606 0.021987156966852415 -0.1534222954086751 0.0229326533189221 -0.1531906088410113 -0.1615426982335163 -0.1727698519573735
931000000.0 -0.1253781977265436 -0.19993974212479623 0.018770297106977876 -0.1539608452032985 0.019820756473248193 -0.15396751210744863 -0.1613231965380121 -0.1724529924658275
931687500.0 -0.12550527727135144 -0.20003622751341474 0.015700606679165858 -0.15445963718716413 0.016674453487406763 -0.15484914860175392 -0.16129213870328526 -0.17236925589182733
932375000.0 -0.12560023695547956 -0.19999903773741926 0.012433044416152905 -0.15489756110376293 0.01344861179265623 -0.1553555505686748 -0.1608207940069929 -0.1720503297793066
933062500.0 -0.12588079397398327 -0.20008726311162495 0.009210371066928211 -0.15525401647085135 0.010100970122718244 -0.1560692470145377 -0.16038734562516646 -0.1718570491535382
933750000.0 -0.12636116347925522 -0.2000301891313812 0.006028175783826941 -0.15557238630316103 0.006726163954618841 -0.15658023251443892 -0.1595558784391606 -0.1715818475619801
934437500.0 -0.12684646097853225 -0.1999692073010261 0.002781341243855493 -0.1559266275168908 0.0032379300551441522 -0.15697327396194902 -0.15877683232735862 -0.17115134065721282
935125000.0 -0.12744254972951438 -0.20013981769166214 -0.0004064014433616742 -0.15622887306894653 -0.00020539935153586326 -0.15723937941691143 -0.1577337868461462 -0.17084301573317517
935812500.0 -0.1279641165034575 -0.20016187228066107 -0.0035543631214128334 -0.15643850927131647 -0.003751416082698145 -0.15746371962782624 -0.15681543915581572 -0.17001987685737835
936500000.0 -0.1288467269410374 -0.20029708291431786 -0.0068878292725999156 -0.15662016349109045 -0.0073064852350824975 -0.15763437733514976 -0.15580444375489672 -0.16936346666904367
937187500.0 -0.12953696304363313 -0.20019532458883815 -0.010245314785466548 -0.15679175567039094 -0.010819670077058264 -0.15764716921916236 -0.15479936344102116 -0.168509219145554
937875000.0 -0.13054474124376614 -0.20023798151099365 -0.013582132402314985 -0.15677813298086643 -0.014366862462353856 -0.15754079183951097 -0.1537332836713975 -0.1677200042529392
938562500.0 -0.13138615648055313 -0.20015842817846935 -0.01687005617763066 -0.15681931648329786 -0.017804764564455854 -0.15728523131203972 -0.1526681587999547 -0.16688492723519127
939250000.0 -0.13219976952972104 -0.20008683624988693 -0.020298204584481245 -0.15667244392308802 -0.02129318747031352 -0.15701672478498113 -0.15189687783538416 -0.16589224208420492
939937500.0 -0.13304054674504348 -0.20019066201364072 -0.0236663149495058 -0.1565588315830713 -0.024612088837229824 -0.15670784798604187 -0.15095238216741577 -0.16480399853696
940625000.0 -0.1340000392510116 -0.20010235696328224 -0.02700240828746086 -0.15632867469021425 -0.02805579571076329 -0.15633074051427562 -0.15017589174670312 -0.16386562233497423
941312500.0 -0.13484177953940896 -0.20005577810117178 -0.03041144554559983 -0.15597078120656388 -0.03138626788603496 -0.15582838073449298 -0.14950857354418334 -0.16275849816712706
942000000.0 -0.13557928910162154 -0.20006296472714727 -0.033806637919938126 -0.15557181068970233 -0.03465467941174816 -0.15534102110955048 -0.14880879530210184 -0.16201534634973122
942687500.0 -0.136447684482235 -0.20017099777831052 -0.0372037748675053 -0.15521083152857684 -0.03788735002106838 -0.15485013812168988 -0.14829379961871061 -0.1611639050381482
943375000.0 -0.13728423499316797 -0.20017923343269903 -0.04068618289660872 -0.15476207070151218 -0.04118779421285001 -0.15424889395637345 -0.14788089995734807 -0.1602706734163262
944062500.0 -0.1379167709292907 -0.20026057444894427 -0.04402216165378102 -0.15406812257082092 -0.04438881296982597 -0.15357974084378093 -0.14762721669167722 -0.1595033676571636
944750000.0 -0.13853090469484233 -0.20044390904052503 -0.04749570259274248 -0.15347010483187598 -0.04768890999773915 -0.1529189337765121 -0.14738117060231265 -0.15904407492713102
945437500.0 -0.13920599900507896 -0.20070681941833038 -0.050930606712641845 -0.15271782658909033 -0.05099691569195321 -0.15215062349810146 -0.14710129472121233 -0.15838877327066803
946125000.0 -0.13967732110391268 -0.20082556173302654 -0.05430109067540283 -0.15185501532319276 -0.05424289440533811 -0.15134538288613747 -0.14697154333943743 -0.15779635689013988
946812500.0 -0.14045780335448074 -0.2008378374843087 -0.05775685827804629 -0.15095885110452387 -0.05764160483463198 -0.15050077842636447 -0.14659295928783972 -0.15723835276522938
947500000.0 -0.140878361265714 -0.2010895737860087 -0.061171614563565166 -0.15007603587995139 -0.06097592374662022 -0.14969923069430927 -0.14640442027531994 -0.15706331590170303
948187500.0 -0.14175014005572972 -0.20135967760046675 -0.06461916936537769 -0.14907551534860078 -0.06440021266430414 -0.14875226884959908 -0.1463852787920605 -0.15693911672157712
948875000.0 -0.14184865249188122 -0.20170933418458728 -0.06788417595889103 -0.1479658878880225 -0.06784574047536063 -0.14775714136013415 -0.14617167909714598 -0.15695349444630846
949562500.0 -0.14253052203431402 -0.2019879588135368 -0.07141966642629195 -0.1467937670326557 -0.07120028359517223 -0.14660468100379068 -0.14603802556207704 -0.15706538489556232
950250000.0 -0.14303683317584084 -0.20210973811340985 -0.07480891869135248 -0.145489981958884 -0.0746248451983276 -0.14541753616570732 -0.14595088729965727 -0.1571809667837697
950937500.0 -0.14342010573062047 -0.20224827807153475 -0.07811481986767725 -0.14419810631672522 -0.0780889099522926 -0.14415895066455647 -0.14570665045730744 -0.15732376342257837
951625000.0 -0.14378571536165388 -0.20227412194867586 -0.08143519522107118 -0.1426982836435544 -0.08143022678753713 -0.14275526424904333 -0.14544056378320655 -0.1576290296996647
952312500.0 -0.14404329856910048 -0.20254109227330555 -0.08466657338532924 -0.1412435287307633 -0.0848435185521271 -0.14129121437222938 -0.1450609464738175 -0.1581277297623446
953000000.0 -0.14442366169231344 -0.20256426818776332 -0.08814944925524441 -0.1396300989109923 -0.08819531271033744 -0.13968640968381005 -0.1447446837143041 -0.15859996528768688
953687500.0 -0.14460789117924483 -0.20255606196105005 -0.09142407789547531 -0.13796326028074055 -0.09155349619327605 -0.1380358420066883 -0.1444550945072547 -0.15899904852113186
954375000.0 -0.14480908354085878 -0.20275867680225118 -0.0947136586636381 -0.1363413632085248 -0.0947657563035236 -0.13633439621066157 -0.14416089980566377 -0.15947520402054538
955062500.0 -0.1449012147897151 -0.20269889398057475 -0.09782012102922286 -0.13448897390782974 -0.09801981415003372 -0.13446302478570515 -0.14372732945973507 -0.15980127173291836
955750000.0 -0.14517810235681675 -0.20232362131848314 -0.10112256766482625 -0.1324779130599878 -0.10122529573848253 -0.13243256316594812 -0.14372024249884785 -0.16019947546060825
956437500.0 -0.145262298013429 -0.2023865246850697 -0.10446207882930655 -0.13052712087074425 -0.10443468364557848 -0.1304976391582205 -0.14332305920813584 -0.16065470140970378
957125000.0 -0.14541447396921692 -0.20229422350662693 -0.10754874814326638 -0.12853364319473384 -0.10756635702604964 -0.12835266077474294 -0.14305747306913874 -0.16103897916115828
957812500.0 -0.14556011181731232 -0.20214871845655466 -0.1106926118932632 -0.12636013299756593 -0.11066369232968122 -0.12628930349495698 -0.1427232960153748 -0.16150695479094868
958500000.0 -0.14568664955520022 -0.2018431291144424 -0.1137918688415257 -0.12403960092614601 -0.11374225748533098 -0.1239218137557824 -0.14269463643841307 -0.16185418825991743
959187500.0 -0.14581233609087493 -0.2016634313758501 -0.11669844041664303 -0.12174974200766428 -0.11678646143142275 -0.12165500731862369 -0.1424420037483858 -0.16233005973409476
959875000.0 -0.14607137246774368 -0.20140513431407825 -0.11982018997725252 -0.1193763710738027 -0.11978560573971479 -0.11925812561551191 -0.14236727173952957 -0.1629833377187144
960562500.0 -0.14630156466628116 -0.20127514487646314 -0.1228199229518063 -0.11697704914995037 -0.12272189091256032 -0.11685835414855529 -0.14211628382643646 -0.1634054951326714
961250000.0 -0.14666557397348784 -0.20099589931941245 -0.12573435736967561 -0.11442574803997597 -0.1256834879365644 -0.11427825889371285 -0.14185040459131953 -0.16409508760575228
961937500.0 -0.14682556210957917 -0.2007528259108061 -0.1285146163105894 -0.11175371958035854 -0.1284725557122283 -0.11163281491579537 -0.14186018573676118 -0.16469598706329894
962625000.0 -0.14711885251218815 -0.20050021745466703 -0.1313780623731052 -0.10909149789823523 -0.1313117436627395 -0.10898240096959946 -0.14165099227416203 -0.1653912590007896
963312500.0 -0.147540974423622 -0.2002570770888094 -0.1341629167777271 -0.10632241599258654 -0.13407033001718185 -0.10617973980231228 -0.14151064541939037 -0.16608980862187944
964000000.0 -0.14793964918673425 -0.20005935555835067 -0.13685407181385853 -0.10344823028201447 -0.1368320960860404 -0.103373193640131 -0.1413415738899774 -0.16687268794459303
964687500.0 -0.1483217107503532 -0.19972166575291073 -0.1393374787640615 -0.10046076117268385 -0.13938332668172945 -0.1004036780222848 -0.14085994885252032 -0.16772177203892547
965375000.0 -0.14876731418315625 -0.19958193149729572 -0.14191096998390304 -0.09735599667685442 -0.1418793238946552 -0.09744237330698603 -0.14042251160608124 -0.16830166369967395
966062500.0 -0.14939237198719377 -0.19952373675626786 -0.14442186534138213 -0.09422062618682381 -0.1444841046369564 -0.09438783543319035 -0.1400637135164361 -0.16937837070259018
966750000.0 -0.14998228179981535 -0.19951337611432599 -0.14683284766946889 -0.0911587363207158 -0.14688282175551132 -0.09128747450852012 -0.13953694962357424 -0.17021270634200297
967437500.0 -0.15071151623727938 -0.19949006502375088 -0.14916967652490032 -0.08785065389489721 -0.1491726915609397 -0.08809225635400539 -0.13914233779078883 -0.17096077936880094
968125000.0 -0.15132892827632213 -0.19947816322468187 -0.15124485534614643 -0.08467230977710892 -0.15137294203026894 -0.08484627007569563 -0.1385064252822437 -0.17182873851614833
968812500.0 -0.1521181824128019 -0.19972544682420496 -0.15353337045639295 -0.08135966122454259 -0.1536355343018014 -0.08160283722890369 -0.13811166366929328 -0.1724924677018536
969500000.0 -0.15307358633512078 -0.1998526155572905 -0.15561509966968717 -0.07796957177361699 -0.15588852123817568 -0.07824369657654871 -0.1377112170782598 -0.17333201888377575
970187500.0 -0.15396713638116402 -0.20023866977115892 -0.15779400080450803 -0.07459472588155276 -0.15790936220924426 -0.07490932101933173 -0.13719381424843427 -0.1738579157657678
970875000.0 -0.15496730030114725 -0.20060487139691213 -0.15984527845697438 -0.07115966522942736 -0.16002862855002264 -0.07153588060974973 -0.13693457567344408 -0.17447770803971369
971562500.0 -0.15611728125889576 -0.2010803572641314 -0.16185155889822905 -0.06785912271536476 -0.16206916108289815 -0.06805624553990229 -0.13642996965559728 -0.17499811490341316
972250000.0 -0.15720807129853992 -0.2016111817019671 -0.16370303943481423 -0.06435526921008865 -0.1640864339594319 -0.06459397022453542 -0.13630484218368108 -0.17529125927625827
972937500.0 -0.15838107807402477 -0.20199174448020665 -0.16552487414917666 -0.0607911716623117 -0.16602189114862378 -0.061068836587500654 -0.1361464376433546 -0.1757001510173441
973625000.0 -0.15968492828414566 -0.2024338342823044 -0.16723358562546284 -0.05729539288769303 -0.16791726927304473 -0.05737244258487918 -0.13622858978865382 -0.17591338215224953
974312500.0 -0.16106989274702105 -0.20290791201800204 -0.16911478390299184 -0.053712183680079406 -0.1697717929363017 -0.053629960039827014 -0.13639830261206223 -0.17609693645363714
975000000.0 -0.1623298484629028 -0.20353098580273865 -0.17086435469162456 -0.05005862884320798 -0.1715692179859555 -0.04983349088723171 -0.13680886785509944 -0.1761587345682591
975687500.0 -0.16371872847012223 -0.20363788471724686 -0.17257712867348846 -0.04622591683423004 -0.1733639018285191 -0.04581956415051101 -0.13725207259371908 -0.17617470453974954
976375000.0 -0.16487409948016427 -0.2039744669026597 -0.1741588237838062 -0.042390753861152514 -0.17498086683083441 -0.04181273489636392 -0.13768244532802565 -0.17599169887234642
977062500.0 -0.16617115045921535 -0.20439354228858894 -0.17570380631308477 -0.03841517819577517 -0.17651064532425956 -0.037679223947429875 -0.13841136506511495 -0.17588599038428163
977750000.0 -0.16752471859928397 -0.20471556802629917 -0.17713355057323135 -0.03441919719138875 -0.17801988840966296 -0.03350344559042642 -0.13926329065738316 -0.1758508858715354
978437500.0 -0.1686651368755876 -0.20488014679737446 -0.17867080712259953 -0.03017865670755132 -0.17917884665730338 -0.029083936660161423 -0.14006666840061288 -0.17572524189129568
979125000.0 -0.169827243161878 -0.20516925327264 -0.17971257100192775 -0.025938769745285396 -0.18023114025857667 -0.024705850888967474 -0.140831006432558 -0.17568511293489752
979812500.0 -0.17076117129682264 -0.20526614999851367 -0.1809708377948534 -0.02150242730012935 -0.1812319526800797 -0.020215240369597653 -0.14183887375818632 -0.17587639858599968
980500000.0 -0.17175001326866837 -0.2055643201287375 -0.18206053642256587 -0.017010805697199986 -0.18197663966764366 -0.01558498191041255 -0.14264306148231046 -0.17590182632298054
981187500.0 -0.1728340637775889 -0.20571227218017715 -0.1830703845368437 -0.01238704845484531 -0.1825263621494925 -0.011055495995615719 -0.14337808177741812 -0.1761779455127834
981875000.0 -0.17364975419382903 -0.20572434753379604 -0.18379866516586105 -0.007722239516847683 -0.18289495309797144 -0.006434676881609772 -0.14407345949535794 -0.1765530735690912
982562500.0 -0.17494371276570045 -0.2057259075458182 -0.18443506066497445 -0.0029934178632021018 -0.18327449830509748 -0.0018076747487755966 -0.1447706091465328 -0.17697513130961148
983250000.0 -0.17559982005303776 -0.20577353257365463 -0.184898128003507 0.0018085343342058215 -0.18333754189633075 0.002660323016129585 -0.14511358908021493 -0.17755124580787926
983937500.0 -0.17647472577915846 -0.20579109108850838 -0.1851397909129454 0.006637638377813108 -0.18331308662453258 0.0071291337659685405 -0.14558020580866737 -0.17816317108915855
984625000.0 -0.17775327967143423 -0.20586108649828222 -0.18507062745498756 0.011533305832358242 -0.18313522371031052 0.011652923159094629 -0.14574634379317966 -0.1788493609490002
985312500.0 -0.1789522063055272 -0.20556385233889343 -0.18473892638981584 0.016419240048698266 -0.1828536762894598 0.01607695386178775 -0.14571913264955216 -0.17964886194155474
986000000.0 -0.1799167790854459 -0.20526247154891283 -0.18439513996793486 0.02133856379064531 -0.1824500182733772 0.020422734458980723 -0.14567765725489487 -0.1802021538523434
986687500.0 -0.18124800363062138 -0.2049136001493765 -0.1837826844641674 0.02605263377584853 -0.18204116729357986 0.024683622769122913 -0.14535213074982417 -0.18093119163045074
987375000.0 -0.18255361597663763 -0.2042651872906778 -0.18286261728628797 0.03068667330179072 -0.18154607687677346 0.02893903938185822 -0.145002196795061 -0.18142885166289144
988062500.0 -0.18368975725404346 -0.2035523053858694 -0.1818683895075356 0.03531716544743674 -0.1810731081346681 0.03325699564008457 -0.14465676551974524 -0.1822195538606942
988750000.0 -0.18509650805686034 -0.20283449491877972 -0.18082474250418493 0.03993654945272654 -0.18055392459579203 0.03753387553704151 -0.14429057020370936 -0.18235058549839608
989437500.0 -0.18635000857067843 -0.20174722251476446 -0.17952310945444971 0.044381663111210536 -0.17986429973419135 0.04184372590230026 -0.14390988998978804 -0.18264457367183937
990125000.0 -0.18784106329150918 -0.2004652057383861 -0.17822829639835516 0.04872257496762861 -0.17918378757057318 0.04628187849117406 -0.14364875173306707 -0.18265704707354288
990812500.0 -0.1888883051619126 -0.19917678253219753 -0.17687942582574423 0.05287586407116043 -0.1783187915580353 0.050736879647118135 -0.1433923487892926 -0.18247611165577635
991500000.0 -0.19006477169692196 -0.19781209146848305 -0.17532035488335856 0.05695506229645712 -0.17743743307709017 0.055262027698793265 -0.1432178689160359 -0.18212036225877404
992187500.0 -0.19110463228408808 -0.19622723422196026 -0.1737237319315845 0.06100756154657178 -0.17641261323342491 0.05974655264149023 -0.14322533544311714 -0.1815756341479835
992875000.0 -0.1922066205356382 -0.1946104575616511 -0.17228450983379495 0.06496257576970613 -0.1751878900403565 0.06449682641027302 -0.14346676789918408 -0.1807809844509065
993562500.0 -0.19300294471360804 -0.19302506241339173 -0.17076271539761476 0.06889135428312515 -0.17369625760476828 0.06901616185314767 -0.14362710389243113 -0.17994089316479636
994250000.0 -0.19403604481981465 -0.191499181683876 -0.16917560205626614 0.07275073821802097 -0.17217635253072316 0.07360575575986066 -0.14409927040898698 -0.1786878729039004
994937500.0 -0.19471056191431893 -0.1899305622640574 -0.16760514570752602 0.07677948309121548 -0.17030544880509144 0.07818237483442805 -0.1448631610717698 -0.17741064804065193
995625000.0 -0.19545386592166564 -0.18845234903461214 -0.1659344893884184 0.08064384103603124 -0.1683072042448308 0.08271110018915627 -0.1457299716673749 -0.17608722590070006
996312500.0 -0.19629113899978626 -0.18696418380954838 -0.16411501395270855 0.08454425944736413 -0.1659342051951032 0.08718183509450107 -0.1468510364347907 -0.17457707719298965
997000000.0 -0.19711175258111147 -0.18557716779849512 -0.16232823008941616 0.08843016998837136 -0.1634932903352814 0.09139435307767452 -0.1481126940220432 -0.1731785044374836
997687500.0 -0.1978734856856382 -0.1843743584150045 -0.16025113584030437 0.09235813642293132 -0.16086181524002766 0.09552378006539776 -0.14930700909480824 -0.17182015246975463
998375000.0 -0.19867717565879253 -0.18313863065925182 -0.15812800954001002 0.09621503051403334 -0.1580263863916747 0.09945797439987702 -0.15075715713987756 -0.1705863964663605
999062500.0 -0.19969748353186856 -0.18203975986315146 -0.15607338472401586 0.10012326747755722 -0.1550837580267445 0.10330550960397009 -0.1521703821881892 -0.16957287681569966
999750000.0 -0.200530061355181 -0.18094930787999516 -0.15372516871100894 0.10401844763100433 -0.1520747717341349 0.10682190640656868 -0.15365619123979532 -0.16869981095588937
1000438000.0 -0.20167635383525023 -0.1800263858268067 -0.15134640545717076 0.1078432095805609 -0.14890937222994496 0.110250759228023 -0.15516917593431798 -0.16796069140079345
1001125000.0 -0.20279986109843148 -0.1787916838489625 -0.1486242123075032 0.11177480612766644 -0.1459218139882366 0.11357731501019441 -0.15666013951815863 -0.167755372360275
1001812000.0 -0.203950658996387 -0.1776178938630674 -0.14601844060833635 0.11560595861324735 -0.14288848565086973 0.1166281672395029 -0.1580365509170042 -0.16764926385232312
1002500000.0 -0.205188364453528 -0.1764061490344318 -0.14305735416530738 0.11929637232015193 -0.13974699173399277 0.11965895778804002 -0.15918979116543347 -0.16781633075144792
1003188000.0 -0.2062720464102168 -0.1751040695257929 -0.13988106874313305 0.1228941240861591 -0.13671182066077747 0.12248086204171221 -0.1602248190071907 -0.1683616805511274
1003875000.0 -0.2073029194447984 -0.17382897360912183 -0.13676537622117 0.1264544514225011 -0.13374094166361072 0.12538039220188774 -0.16124251700359787 -0.1691373532258716
1004562000.0 -0.20815729248938236 -0.17240312424844473 -0.13339059950474969 0.12988656809959104 -0.13078272987601003 0.12810493494589767 -0.1619922451841319 -0.170150084798273
1005250000.0 -0.20903969236609307 -0.1710834920905988 -0.1299419500570355 0.13302933910356526 -0.1279397373203722 0.13078934752241897 -0.16243557205416959 -0.17112180199918178
1005938000.0 -0.20976734481487666 -0.16951658128758626 -0.12627339903720744 0.1362357951420739 -0.12490668990421909 0.13351494384593016 -0.16295373766410365 -0.17242518985193395
1006625000.0 -0.21021623207089798 -0.1681840239489395 -0.12264714662257502 0.13910573660722134 -0.12196872716648698 0.13623855184711003 -0.16308581575651826 -0.17346572323123835
1007312000.0 -0.21063934596604864 -0.16665460593367368 -0.11887975900603416 0.14191280668680523 -0.11890977454387852 0.13899358902729883 -0.16306642828544035 -0.17469778211731576
1008000000.0 -0.21078858187113889 -0.16529109287746818 -0.11500367532643624 0.14454807157040034 -0.115897326730548 0.14172032518965985 -0.16289004904212542 -0.1756230380218197
1008688000.0 -0.21092152763258015 -0.163942566107032 -0.111149344893289 0.14707046415384195 -0.11263048898200478 0.14445095673697717 -0.1627658939627506 -0.17676468790023633
1009375000.0 -0.21080207151316144 -0.16260501184621715 -0.10722737695357679 0.14936887303794857 -0.10926052390633549 0.14720576262044155 -0.16264853698148107 -0.17731272119583183
1010062000.0 -0.21064311742384864 -0.1613735500886771 -0.10325667926453284 0.15141261422334898 -0.10576938109055302 0.14993483119086265 -0.1620431868055365 -0.1779855253079737
1010750000.0 -0.21035475533189202 -0.16031874674051966 -0.09934184287577887 0.15333006024526016 -0.10215221435846598 0.15256513427459573 -0.16180933345849424 -0.17823440366820498
1011438000.0 -0.21018309216271255 -0.15930296669707986 -0.0955069757776686 0.15528858175647642 -0.09826303955026727 0.1550285406637797 -0.16157815758334124 -0.17825117557419964
1012125000.0 -0.20984293634483783 -0.15833288676373733 -0.09160230583935776 0.1569021600928397 -0.0943039785162521 0.15742985472695736 -0.16136955793267604 -0.1778872281596461
1012812000.0 -0.20950583409875814 -0.1574507670128173 -0.0878486215249368 0.15851842864699103 -0.0902270306927537 0.15966654445053557 -0.1611535487002003 -0.17726005685921567
1013500000.0 -0.20936189772352562 -0.15648990632550083 -0.08403191181026153 0.15997869870418582 -0.08599713779649637 0.16161396203665515 -0.16100186570797617 -0.1763272582026569
1014188000.0 -0.2091713513299666 -0.1555352730846103 -0.08017902671874019 0.1614799337407745 -0.08175904984905841 0.16354427244781522 -0.16118237955739304 -0.1753402231155198
1014875000.0 -0.20893673894456818 -0.15449454295398393 -0.0764466585102537 0.1628044511878349 -0.07740854864513846 0.1651301086608389 -0.16159204026399498 -0.17395713278697642
1015562000.0 -0.208969824124735 -0.15330270125685963 -0.07254843779622464 0.16403304555917955 -0.07303427886182225 0.16653753166942725 -0.1619993402795791 -0.17248834516321632
1016250000.0 -0.20901384847807847 -0.15223422610996123 -0.06879386295648851 0.1652628554255226 -0.06880183312810188 0.1678110013844265 -0.16271808742351887 -0.17086894446150985
1016938000.0 -0.20899071164366476 -0.15099262810826355 -0.06512669567984343 0.1664915819019279 -0.06460152196473107 0.16877186777502215 -0.16359646305340547 -0.16939737396845822
1017625000.0 -0.20882340665837362 -0.14950026326131596 -0.0613940485031823 0.16756699917956397 -0.06044940354367238 0.16955892144028178 -0.1646939390430105 -0.16783981186949953
1018312000.0 -0.20883714985340274 -0.14807883881113312 -0.057609075186783994 0.16869836293117987 -0.05639193152194193 0.17024228935647534 -0.16580562425211529 -0.16634628924667866
1019000000.0 -0.20889864496929203 -0.14655613306808107 -0.0539233217967338 0.1695923100194606 -0.0524134144731156 0.1710206644955014 -0.16720009858586762 -0.16522086304553918
1019688000.0 -0.20869213808994644 -0.1450227944451294 -0.05018284194408549 0.17066768276933586 -0.04864032436288253 0.17150867566254052 -0.16850038499828152 -0.16421642321255947
1020375000.0 -0.2085748981342682 -0.1432727775279442 -0.046372417891771614 0.1714638605150644 -0.044834805713565594 0.17199737930066056 -0.1698389415258492 -0.16355469607490528
1021062000.0 -0.20836167475559877 -0.14139862840016545 -0.042591888002585995 0.17234508805280396 -0.04108928165046359 0.1723984281837468 -0.17152742327391185 -0.16301914701623343
1021750000.0 -0.2080534362557601 -0.1397198619168716 -0.038734981664701545 0.17312754844787576 -0.03738328059770362 0.17303993682825322 -0.17302824365642624 -0.1631318850326924
1022438000.0 -0.20764274446093758 -0.1380907123683986 -0.03499771837087792 0.17387525936162138 -0.03377847860963135 0.17340530316083774 -0.17425770636253257 -0.16337652095905544
1023125000.0 -0.2072339284566186 -0.1364884175182998 -0.031161939812368342 0.1745346167994307 -0.030047984182078165 0.17389312096729634 -0.17561566309082569 -0.1638807002735311
1023812000.0 -0.20666172387262738 -0.13500696971647705 -0.02719623103908631 0.17504265969095198 -0.026372715400290674 0.17434870649495965 -0.1765784298219318 -0.16457300325535568
1024500000.0 -0.20621580910589232 -0.13355944964753017 -0.023296847607171278 0.17560919890255014 -0.022705749157753342 0.17478957173065066 -0.17754526555468572 -0.16588021435214728
1025188000.0 -0.20556601277800798 -0.13230492744884767 -0.019326503310056586 0.17602276646638565 -0.018899827028577506 0.17530328404352538 -0.1783397124236132 -0.16701852138605813
1025875000.0 -0.20520588663695183 -0.13107935564272763 -0.015399668941202684 0.17635215085943268 -0.015079652656840201 0.17559910750711508 -0.17872961039143292 -0.16835532453015067
1026562000.0 -0.20467912165479926 -0.12999568449628415 -0.011410326437124479 0.1765464200704807 -0.011135025115692667 0.17589839680790215 -0.1790915895191923 -0.16974921393160775
1027250000.0 -0.20447589796827584 -0.12903215974892215 -0.007209370644880025 0.1766882017548833 -0.007168611102231748 0.17612337799544106 -0.17919229448562063 -0.1710328851868222
1027938000.0 -0.20395158000483657 -0.12813069361907198 -0.0032176512984231345 0.17667037914035597 -0.0031184916620724196 0.17622226245415074 -0.17911088151836962 -0.17254731475986337
1028625000.0 -0.2038089303079811 -0.12730710622931513 0.0008734392046173959 0.1765848150030225 0.0008152338329634658 0.17625869750003773 -0.1786069897442278 -0.1736144107297558
1029312000.0 -0.20371514950359282 -0.12654775130831047 0.005051552898358463 0.17632502935051572 0.004911420683462317 0.17610524000569117 -0.17839482790680392 -0.17457963431398973
1030000000.0 -0.20364319531894554 -0.12582303188372596 0.009168018196048506 0.17601003359505127 0.008902302110649242 0.17575426109816747 -0.17769147604112784 -0.17532901599624062
1030688000.0 -0.20346397108723105 -0.12502059967662024 0.0131913863982995 0.1754636112636007 0.012999566724188113 0.17527855069627896 -0.1768572138595522 -0.1759623590519625
1031375000.0 -0.20350919212871224 -0.1242896832508565 0.01720497008916131 0.17481877688468314 0.0170151133253928 0.1746419842126586 -0.17617672567154333 -0.17600572949053533
1032062000.0 -0.20357840079178338 -0.1235955345388139 0.021185196300517895 0.1740011227933722 0.020979935077488892 0.17395973300516338 -0.17524299041124428 -0.17579165801663152
1032750000.0 -0.2034571843256729 -0.12274348639744302 0.025020996739872736 0.17312566836932364 0.024743064809781563 0.17311080166410953 -0.17441867991088428 -0.17544607882480795
1033438000.0 -0.20344582869882366 -0.1220210938542585 0.028834272839491228 0.17229611200198924 0.02853335549143603 0.1719755923734078 -0.1738689088369902 -0.17453224107868137
1034125000.0 -0.20321787615328252 -0.12107778755055008 0.03246935537597758 0.17104879319470057 0.03231349983995786 0.17088565712366913 -0.1731702918510529 -0.1735023668378873
1034812000.0 -0.20312730791433048 -0.12017310419822899 0.036214243962901724 0.1699000940190742 0.035856745312139456 0.16974002944301747 -0.17255768168543195 -0.1720632331724635
1035500000.0 -0.20273559267139588 -0.11947072413649422 0.03979302779623685 0.16859676154049832 0.0393515539578517 0.16846855491731588 -0.17251817266231212 -0.17054004179415633
1036188000.0 -0.20246726707644014 -0.11853678541837172 0.04331990571163466 0.1672457998316199 0.04286836312107958 0.16714089330338075 -0.17245951561144937 -0.16870019007585146
1036875000.0 -0.20188444779754036 -0.11785890160882269 0.046613688955034246 0.16582243606348868 0.04621550138552706 0.1658553824283313 -0.1724666088177372 -0.16702987672359396
1037562000.0 -0.2012985873358771 -0.11720683736819273 0.05002441426265709 0.16441758611922588 0.049540921414325624 0.16448341761021562 -0.17296985934400755 -0.1652938327576369
1038250000.0 -0.20071477027531445 -0.1166716760598457 0.05327082075434508 0.16284631265549007 0.05279394274389803 0.16321189199483763 -0.17367442338387923 -0.16325319614873302
1038938000.0 -0.19988721649248212 -0.11612833708517853 0.05651650374628148 0.1614448406045118 0.05600178260921496 0.16187975707354726 -0.17445314216659302 -0.16178455750711326
1039625000.0 -0.19918081489303793 -0.11556478787967563 0.059709739373974356 0.16000546648560907 0.059261808394009234 0.16052072343529497 -0.17565615447254998 -0.16027480875413805
1040312000.0 -0.19830389336501575 -0.11522594435106805 0.06273880899914193 0.15847816854847954 0.06241433639417509 0.1592350979393806 -0.17691686623647435 -0.15909144011043608
1041000000.0 -0.19770760685975877 -0.11490712898108672 0.06593994707921841 0.15709432161716913 0.06574632142142206 0.15798852702451507 -0.17845984900438114 -0.1582875895428803
1041688000.0 -0.19694964312970345 -0.11459946387756295 0.06897385367692609 0.15540891332065926 0.06898845190070192 0.1565319373498551 -0.17971942074247862 -0.1576244731641227
1042375000.0 -0.1962390716548806 -0.1142574841071491 0.07217161275707831 0.15388295776478175 0.07217112500206938 0.1549821452669366 -0.18140327096442743 -0.15733840381945918
1043062000.0 -0.19550087519535572 -0.11412388930888435 0.07517762162278918 0.1523694614536193 0.07541601677628997 0.15344184374014025 -0.18290974823600917 -0.15727299652904778
1043750000.0 -0.19480522504558373 -0.11399395208106564 0.07814290105375248 0.1506840580486967 0.07875050862301419 0.15183716164681674 -0.1842945672348477 -0.15762195035678375
1044438000.0 -0.19425345458478674 -0.1137715346117431 0.08121695060055029 0.1489231676788812 0.08189284237515809 0.15001020924295905 -0.1857368586500399 -0.15791066077701227
1045125000.0 -0.19380608572431754 -0.11345732642592224 0.084155045653135 0.1472517891444489 0.08510080969700526 0.14815147886299007 -0.18689089823319024 -0.1587167613986224
1045812000.0 -0.1932743909232807 -0.11306339703437392 0.08718235211402141 0.14539370484459624 0.08833851850746983 0.14609374758703905 -0.18804118763086086 -0.1596965894773534
1046500000.0 -0.19284692770982603 -0.11261227294044858 0.09023419317816869 0.14341759724901956 0.09140193636609732 0.14404414281956826 -0.1889731955554993 -0.16050548182110147
1047188000.0 -0.1924666883622653 -0.11218667174070503 0.09313739852004846 0.14153059597232612 0.09458458301319143 0.14173313945887353 -0.18977493740837453 -0.16155724990070372
1047875000.0 -0.1921631562217691 -0.11170624077543649 0.09617159210358499 0.1395355522420451 0.09761175595651612 0.1394469015996652 -0.19032496653916617 -0.16248524337650444
1048562000.0 -0.19191366546343966 -0.11113895196637112 0.09916538491213327 0.13741268596729753 0.10052694542702068 0.13708176449088286 -0.1905590720746486 -0.16342079795426231
1049250000.0 -0.1916037500770106 -0.11051734352950775 0.10210427357375915 0.13518825104013607 0.1034852126303509 0.13456949979564814 -0.1909616996201273 -0.16416507729351396
1049938000.0 -0.19122679187997196 -0.10973204919859071 0.10497411282025235 0.1329630662927793 0.10620093023500131 0.13192368335923627 -0.19091878090721445 -0.16494542035627244
1050625000.0 -0.19086051324274028 -0.10908324978839695 0.1077807877080368 0.1304321718676529 0.10887082686452836 0.1293707084607538 -0.1909257172728808 -0.16526479341413056
1051312000.0 -0.19052111078491127 -0.10841855360722309 0.11056466959344041 0.12796344792456313 0.11139904582954108 0.12681047824640382 -0.19079099935285418 -0.1655767487237244
1052000000.0 -0.19024212228169557 -0.10769499667059869 0.11333425677278815 0.12557150906972206 0.11388374161774766 0.1241949730342545 -0.19057473955734658 -0.16540687981743785
1052688000.0 -0.1900689879957728 -0.1071275693111312 0.11596910809165686 0.1229887952071051 0.11624706356059064 0.12160869039247035 -0.19050951602717026 -0.16513071830075032
1053375000.0 -0.18968662523351715 -0.10653469186000322 0.11852387747972647 0.12036628565459608 0.11856472276611237 0.11906990394290212 -0.19020820943132843 -0.16460739632496613
1054062000.0 -0.1894067376988446 -0.10601289607143907 0.12107626839987194 0.11755493608097246 0.12089019829019428 0.11647884037304235 -0.19025885315666002 -0.16363144048804468
1054750000.0 -0.18926384551764514 -0.10541157524278576 0.12348938770021678 0.11480115196183237 0.12296590863135709 0.11381957565584651 -0.1902086239678423 -0.16274370786470246
1055438000.0 -0.1889169864491859 -0.10502191967779091 0.12577829604718782 0.11208335639955368 0.12508593160159656 0.11124385545505637 -0.19027286239252283 -0.16134791955194394
1056125000.0 -0.18895148451959048 -0.10486155881371523 0.12801275405324378 0.10915909005341327 0.12710423759759557 0.10852806078245256 -0.19068941980862733 -0.1599510817303391
1056812000.0 -0.18871860047499944 -0.10443153606640945 0.13022303962456735 0.10625959173520995 0.1292043153311435 0.10588401757827123 -0.19141266513800703 -0.1584816742279105
1057500000.0 -0.1886250294071719 -0.1039326992816076 0.13223524535225462 0.10330594504577026 0.13116993825991785 0.10317581145033593 -0.1919987787865868 -0.1569090666288432
1058188000.0 -0.18835434576830135 -0.10378100518416838 0.13425813673707462 0.10027453840820032 0.13319144444795106 0.10046175715098699 -0.193078413486281 -0.15525615016015476
1058875000.0 -0.18846854085621317 -0.10355885652950085 0.1361728232720512 0.09738759252679147 0.13529060129616458 0.09762963377741962 -0.19443901462283986 -0.15380243201387322
1059562000.0 -0.18846851562004496 -0.10348484580733323 0.13816454907851947 0.09434554597933854 0.1372239153482332 0.09478714601698209 -0.19575655998893257 -0.15241347331787392
1060250000.0 -0.18844782470875893 -0.1033661219629092 0.13981297329000428 0.09119145560615298 0.13923713673399965 0.09191431263022873 -0.19752864048232224 -0.15102095197009818
1060938000.0 -0.18832717372950364 -0.10325399623582733 0.14170351960735994 0.08815689158034574 0.141115757254189 0.08903015189341755 -0.1993859857179055 -0.15003653663946714
1061625000.0 -0.18837448526383646 -0.10330362667608965 0.14314294035456748 0.08509741139048158 0.1430056869693695 0.08604832150660813 -0.2012090875902001 -0.1492156387260205
1062312000.0 -0.18852444640749855 -0.103150242894983 0.1448100339504541 0.08201745705484575 0.14486237695387588 0.08294932741329959 -0.20332009132246207 -0.14851842780969673
1063000000.0 -0.18826593084644402 -0.10327566302637753 0.14638475602875856 0.07886187350707669 0.14658630641630296 0.07979050455223671 -0.20532336112614794 -0.14812420182884464
1063688000.0 -0.18816402359636603 -0.10312132987786095 0.14785076332981956 0.07580397238405041 0.1482891593868011 0.0766688729115535 -0.2075920116579075 -0.14817080789122658
1064375000.0 -0.18779213230155253 -0.10318262759281348 0.149155655229223 0.07272439067092562 0.14989114761685784 0.07349230790639108 -0.20958852265415362 -0.14835911162706983
1065062000.0 -0.18781254356271895 -0.10329508326093605 0.15055447967291552 0.06958559024194023 0.1513742976402736 0.07031253236706018 -0.2114381951780281 -0.14876133246987006
1065750000.0 -0.18757660272828125 -0.10316966816114616 0.15182947518175186 0.06638550183067049 0.1527777996984786 0.06696638795668373 -0.2131703836343004 -0.1493161429706456
1066438000.0 -0.18729547490815934 -0.10334438581079493 0.15294616808660508 0.06329910493991026 0.15416641347209745 0.06367125649765017 -0.2148282963197882 -0.15018697095385722
1067125000.0 -0.18703107440755917 -0.10327522439777354 0.1542057609455934 0.05992368022316962 0.15531567364062596 0.06029501824202069 -0.21638499417784726 -0.15116612391359568
1067812000.0 -0.18675353355033714 -0.1034038930542938 0.15518308706049258 0.0568670274032316 0.15643917510102426 0.056788948267527485 -0.2175205108165273 -0.151987488901698
1068500000.0 -0.18612550344714604 -0.10365937574264658 0.1562472217224292 0.05360893347589738 0.1574684912371931 0.053453606271736245 -0.2187995653833386 -0.15306124101856466
1069188000.0 -0.18582755361588035 -0.10358234072255897 0.15726299813863734 0.05033809606284794 0.15834857111870257 0.04995317696214557 -0.21963755784235567 -0.15370146346494076
1069875000.0 -0.18525197442945973 -0.10379370915168512 0.1582316420126227 0.04713692919429771 0.1591913907895228 0.046560979772673934 -0.22035412537672175 -0.15451461283382276
1070562000.0 -0.18448669543538157 -0.10388174639271673 0.15906539694231459 0.043822385119089716 0.15994558704110842 0.04307586157119973 -0.2210032469540239 -0.15528580016650972
1071250000.0 -0.1840959769128318 -0.10409623887740296 0.15996974864946695 0.040594639728028244 0.1606057034093052 0.03965223656583923 -0.22144125527301708 -0.15594736057595415
1071938000.0 -0.1833220380400822 -0.1041700928833198 0.1606936686959151 0.03718204192905391 0.1610821543059404 0.036231679525955754 -0.22189081101936728 -0.15632059078610172
1072625000.0 -0.18281266891414838 -0.10431023399150285 0.161411540805244 0.033859155763677505 0.16168294980863887 0.03288171968624325 -0.22199231839984987 -0.15648566568615405
1073312000.0 -0.18223114104775134 -0.1044061861656185 0.16208477743451957 0.030552983304902838 0.16215725410861292 0.02945165474540278 -0.22245235209575162 -0.15649389721794602
1074000000.0 -0.18139448395355928 -0.10452931347824525 0.1625906843931068 0.027222117115815674 0.16249938206185974 0.02614295255511453 -0.22250485004819556 -0.15616870769097627
1074688000.0 -0.18076057287645503 -0.10466143047953917 0.16305564284186036 0.023769058360947472 0.1627851807616132 0.022823692772212648 -0.22310330739619272 -0.15572204577863327
1075375000.0 -0.1802532303832315 -0.10486941501218965 0.16341601046492088 0.020415218174663317 0.16307558547366893 0.01951270433764786 -0.22344284304432024 -0.15493872298008107
1076062000.0 -0.17965711682343968 -0.1050643767667032 0.1636966536387666 0.017011222157846364 0.1632365451345955 0.016256818457189157 -0.2236166061294131 -0.15417210143676427
1076750000.0 -0.1791369881920321 -0.10529910910354687 0.16389151521302553 0.013734318289765922 0.16338652781786564 0.013073725148073933 -0.22408093652720895 -0.15329051010729078
1077438000.0 -0.17877009104351502 -0.10547461028821892 0.16416925629059428 0.010223457986736137 0.16346395976961747 0.009836996365791132 -0.22476294580997158 -0.15210515644663922
1078125000.0 -0.17829728367450695 -0.10565103540228045 0.16415707110955202 0.006922831106902144 0.16356612209658397 0.0065549054998545195 -0.22577755819289405 -0.15089807600334276
1078812000.0 -0.17793826822541897 -0.10591062696740393 0.1641890782006184 0.003549411612846418 0.1635660625859025 0.0033601399079876935 -0.2263876913576496 -0.1496832041776023
1079500000.0 -0.1777207248565247 -0.10592815831070661 0.164145042273714 6.477122421753718e-05 0.16355040128540774 3.200883897514501e-05 -0.22728915640699388 -0.14829857843005068
1080188000.0 -0.17744764313141803 -0.1062472692198008 0.16403089110539013 -0.0033356320863496326 0.16368570476284025 -0.003205951183203156 -0.2284284023853972 -0.14718429505784764
1080875000.0 -0.1773758433753325 -0.1063592767021005 0.16392640393314353 -0.006904364243120816 0.1635099544592575 -0.0065358556880884345 -0.22969860217798577 -0.14586445994703065
1081562000.0 -0.1772411864926755 -0.10651493937445088 0.16375321868751394 -0.010213299838013674 0.16346839456306472 -0.009893461681859077 -0.2306788013595632 -0.14480354162619266
1082250000.0 -0.17719586546612032 -0.10663020906138285 0.16344401810512568 -0.013666569423082283 0.16335729680226066 -0.01331832696875571 -0.23198329563527276 -0.14361417963034795
1082938000.0 -0.17710203486695308 -0.10684916223024499 0.1632069271755648 -0.017121688460440154 0.16312371603485432 -0.016688336144726305 -0.233275064489247 -0.14291043354981514
1083625000.0 -0.17713457873820843 -0.10709881497737923 0.1627843236913499 -0.020479562873128906 0.16289127954997204 -0.020059228033306845 -0.23444507648528198 -0.14204202437897154
1084312000.0 -0.17716559256640602 -0.10739214719379166 0.16225077468692178 -0.023864716641584204 0.16260711973367817 -0.023499818813579754 -0.2355415817503743 -0.14142166498596545
1085000000.0 -0.1773329032361534 -0.10757991920309701 0.16175714827680424 -0.027216962704542973 0.16211253507741327 -0.027038504234620377 -0.23672300874153632 -0.14093185053082707
1085688000.0 -0.17744732878072758 -0.10794236228415234 0.16104685453959305 -0.030622243397255042 0.16149525186253522 -0.03053293193673424 -0.23757179907104323 -0.1404902711464218
1086375000.0 -0.17762041551201152 -0.10828906196837516 0.16048639547211022 -0.033992506459934055 0.1608637961418982 -0.03404641006580377 -0.2384151156444003 -0.1400566011406244
1087062000.0 -0.17781574557173466 -0.10878988239957273 0.15970978991904394 -0.03734496202467615 0.16019400277950877 -0.037569828243636194 -0.23926313290818405 -0.1397196331950044
1087750000.0 -0.1780917825253255 -0.10918573432843777 0.15882645856706623 -0.04064756539706389 0.15926909434513836 -0.041046531626086645 -0.23968325975344776 -0.13944298894198948
1088438000.0 -0.17824386807593834 -0.10976138104046189 0.1578419473038046 -0.04396552881666748 0.15819988774553784 -0.04447249097990817 -0.24023904997919293 -0.1393384709088265
1089125000.0 -0.178444546578919 -0.11050066050883686 0.1568244045844195 -0.047291736362913846 0.157099792874638 -0.04779158310862807 -0.2406487113679247 -0.13904782006357694
1089812000.0 -0.17875811622615836 -0.11132198457830576 0.15580062499440409 -0.050568429657725456 0.15588350307955817 -0.05119499246093811 -0.24080572096100866 -0.13863718182854015
1090500000.0 -0.17900075712628674 -0.11226985953638312 0.15456459120241411 -0.053805912591669385 0.1545708308059666 -0.05446658255712749 -0.24108708605394993 -0.13816696948048784
1091188000.0 -0.17928531227238004 -0.113282381093738 0.15327053850398456 -0.057134834933699974 0.15305553392296734 -0.05766410113195339 -0.24133405817104156 -0.13782882694256673
1091875000.0 -0.17980507422755423 -0.1145025058344954 0.15194530692043973 -0.06040173345618141 0.15166125301474445 -0.06069816234932039 -0.24145157531771821 -0.1370870650054637
1092562000.0 -0.18028189055930954 -0.11557885074741928 0.15052992013053926 -0.06340287644604894 0.15010011996240574 -0.06371373759038282 -0.24157110026605522 -0.13654589288329771
1093250000.0 -0.1811206027767833 -0.11685428364116537 0.1490957807105419 -0.06647616673880408 0.14865341850611574 -0.06659050371626438 -0.24182822820135372 -0.1357485422569063
1093938000.0 -0.18180820762397143 -0.1178963128266265 0.14764616148816426 -0.06940010277342928 0.14707680247704297 -0.06937530246019666 -0.2418971592406873 -0.1347041159074511
1094625000.0 -0.18263231782232678 -0.11895029817583426 0.14599233444681525 -0.07237436893140912 0.1455945516440826 -0.07215553825194942 -0.24226395850287788 -0.13352164367672478
1095312000.0 -0.18344280653566486 -0.11990511161816049 0.14441721365485344 -0.0751829154467297 0.1441153331786519 -0.07485770052033676 -0.24264340294065254 -0.13229656203749618
1096000000.0 -0.18434622987827098 -0.1207250733392868 0.14285237047818813 -0.07807860035327016 0.14261603016946386 -0.07750437792294494 -0.2430653180036125 -0.13098568985643935
1096688000.0 -0.18522745646479413 -0.12160795206613088 0.14114695674211333 -0.08078453131543777 0.14117047717008788 -0.08020520198611901 -0.24350549243342562 -0.12949753705436623
1097375000.0 -0.1859704026995969 -0.12249011944418366 0.13937557792364588 -0.08341330272660172 0.13965210436402445 -0.08285262738134065 -0.24406205849608884 -0.12804694247725804
1098062000.0 -0.18680910301897052 -0.1232218387574389 0.13775268771456808 -0.0861639397313265 0.1381030712526935 -0.08554295708339474 -0.2447358235162807 -0.12640445707516904
1098750000.0 -0.18767721545480961 -0.12381948530297714 0.13590502836220242 -0.08878507784919625 0.13664416957861147 -0.08837323600642134 -0.24524647641481429 -0.12476052051531254
1099438000.0 -0.18831971374540324 -0.12445177550150682 0.13422672667863647 -0.09133738315807566 0.13506827306014377 -0.09117845569570177 -0.2459811757085559 -0.123058993747024
1100125000.0 -0.18896753335529673 -0.12493373887876304 0.13237415850097836 -0.09383020871433626 0.13331761922878932 -0.09407530272264675 -0.24663039176949425 -0.12143122974992895
1100812000.0 -0.18959926056620077 -0.12553757060873524 0.13054508010972524 -0.09652640633871307 0.13153978133340935 -0.09692684561939802 -0.24731514160302973 -0.11978008997310303
1101500000.0 -0.19013914772134793 -0.12593522503941415 0.1287317646567863 -0.09910053239755373 0.12963081938555177 -0.09992273076624764 -0.24802318393093284 -0.11827267969116242
1102188000.0 -0.19079552286121815 -0.12642701132026013 0.12675745175710226 -0.10174923114834476 0.12757134588930152 -0.10280537232112286 -0.24864558556921676 -0.11657765889716817
1102875000.0 -0.1912673800250645 -0.12680972394712844 0.12467761760966488 -0.10426753473231956 0.1254049885634876 -0.10565359459317494 -0.24925883139800495 -0.11510360738328865
1103562000.0 -0.19196825798856718 -0.1272628724923505 0.12277789587514075 -0.10694138336883455 0.12314429703607914 -0.10841819063694487 -0.24995131485584915 -0.11347233461251276
1104250000.0 -0.1925555799976957 -0.12756395363812914 0.12075250595463999 -0.10946492209405864 0.12076868311810787 -0.11130251918623585 -0.2504902999990295 -0.11214516127285155
1104938000.0 -0.1932181550662826 -0.12791241908697842 0.118513610928594 -0.11215436668491355 0.11817338539462709 -0.11389629885319712 -0.2508779651686583 -0.11072213188638434
1105625000.0 -0.1939399868005629 -0.12829937906741096 0.1163584819124835 -0.11473870614231158 0.11560698955688772 -0.11631358817426515 -0.25113386519827435 -0.10928140847051501
1106312000.0 -0.19484987516135344 -0.12863000887984194 0.11399449885042356 -0.1173278941690661 0.11300884023575312 -0.11882111303337976 -0.2515115234185515 -0.10800835793850469
1107000000.0 -0.1956961174259978 -0.12889614057581555 0.1115696446966344 -0.11991003812410353 0.11025949213176207 -0.12104066741324647 -0.2517516030517759 -0.10650207857612196
1107688000.0 -0.1967562158576506 -0.12894706699806696 0.10909701227635171 -0.1223547525638495 0.1074116827292459 -0.12319773300274776 -0.2519633359230037 -0.1052045744853706
1108375000.0 -0.19766606567146458 -0.12916767928530648 0.10651072261503072 -0.12482543330080297 0.10467221930941459 -0.12514845297603547 -0.2521575779006626 -0.10377864893306289
1109062000.0 -0.19900448275528157 -0.12910896913647954 0.1037211434874143 -0.12711884187062422 0.10185670553393175 -0.12704661355762983 -0.2524456720760837 -0.10231441231465595
1109750000.0 -0.20029567290473554 -0.12895900117953574 0.1009912680988222 -0.12935093852113227 0.09913995256299199 -0.1288475150259901 -0.2527234411510646 -0.10084377221578272
1110438000.0 -0.20169183431643797 -0.12899583459880268 0.09817350048046654 -0.1315424429428805 0.09650770685653096 -0.13061867144452108 -0.2531145877699897 -0.09927736898003037
1111125000.0 -0.2030854529130959 -0.1287720571456776 0.09525613359132133 -0.13360189346235948 0.09373601550949699 -0.13235026211924783 -0.25347939493294536 -0.09773792584960905
1111812000.0 -0.2046265588177069 -0.12832528386931252 0.09220075084433063 -0.13565363719582163 0.09110943706709519 -0.13402157382871366 -0.25409753637098675 -0.09620641889293617
1112500000.0 -0.2061644990943792 -0.12791659895570248 0.08918218456173423 -0.13753596387629222 0.08852764744615842 -0.13579396464332855 -0.254665053508289 -0.09451793753268639
1113188000.0 -0.20771067549146346 -0.12750101795867871 0.08604841813822406 -0.13925246691651919 0.08593348232878924 -0.13742949089358383 -0.25547857190882356 -0.0928298136018445
1113875000.0 -0.209465291770634 -0.12686015475958562 0.08294885298598123 -0.14102470389514163 0.08333862853392546 -0.13919997681896604 -0.25642769360396367 -0.09116852526298154
1114562000.0 -0.21103266980657437 -0.12646069096689072 0.07986753783259626 -0.14253998700637835 0.08078896287789723 -0.1409009013482702 -0.2574541673117708 -0.08952955937187759
1115250000.0 -0.21257085644336826 -0.12576454327498968 0.07679108886304185 -0.1439865612563913 0.07811443163271735 -0.1426896438788593 -0.258483007315391 -0.08807778655703388
1115938000.0 -0.21410671609440254 -0.12515519057418897 0.07369172699165236 -0.14530446267007296 0.07538044685379665 -0.14443470747991746 -0.25973771863436584 -0.08643020960790714
1116625000.0 -0.21566602739317892 -0.12456520670242609 0.07069153702038354 -0.14672516278326084 0.07257360878045294 -0.14614315824479268 -0.2610515704936573 -0.08489370993291773
1117312000.0 -0.21728483881873362 -0.1239831718944683 0.06764052941440439 -0.14791245699208208 0.0697437849730317 -0.14791763364901306 -0.2621428083962749 -0.08358508496317488
1118000000.0 -0.21877425293335448 -0.12342604398472803 0.06465172917529113 -0.14910827044248334 0.0667151254269775 -0.1495985625556168 -0.2634188477318637 -0.08213486230017956
1118688000.0 -0.22041954631224273 -0.12287181009913112 0.0616041298816733 -0.15021130781883432 0.06365148819431196 -0.15123947054576506 -0.264635881415335 -0.08097553237054077
1119375000.0 -0.22193666032951304 -0.12245937218391457 0.058615427834841576 -0.15132132563708764 0.06034828049374479 -0.1528742320779917 -0.26587602914580477 -0.07975313145502898
1120062000.0 -0.22356689027725235 -0.12208935271647221 0.0557273420322833 -0.15245937804096638 0.057006973412024986 -0.15431796331631567 -0.26687972688372413 -0.07863411229069756
1120750000.0 -0.22521595810614586 -0.12160232162274676 0.052674384882140594 -0.15343691388933642 0.05352769850159679 -0.15551228466806497 -0.26774363296113973 -0.0775317224676538
1121438000.0 -0.22680224255205608 -0.12136371275849894 0.049813740040691785 -0.1545253668861501 0.050055172824466566 -0.15673597460226693 -0.2683997508832524 -0.07669919186648172
1122125000.0 -0.22847930967163027 -0.12094734810809354 0.04673409516591878 -0.15549728893194614 0.04650851514788101 -0.15782050943614837 -0.2690296220642152 -0.07579512473628
1122812000.0 -0.23006992715009109 -0.12065472222523137 0.04373235643930768 -0.1565104309848264 0.04286674382442916 -0.15859631077542202 -0.26948268581757784 -0.07480356148763279
1123500000.0 -0.23187548291869806 -0.12021217215824434 0.04071663995792888 -0.15746398574687073 0.03928793094048447 -0.15937955740225107 -0.26948827284187565 -0.07387770366065116
1124188000.0 -0.23355667705039543 -0.11983559131754648 0.037606427111763145 -0.158380251793007 0.03584999560947927 -0.15995861001894962 -0.2695549480449215 -0.07314862793541688
1124875000.0 -0.2352220310037347 -0.11920032923971813 0.03433832235327602 -0.1592523980545382 0.03227354168159681 -0.1604189587583558 -0.26943372366582224 -0.07209173970968716
1125562000.0 -0.2369260868185011 -0.11868205210638824 0.03118505201008985 -0.16011509549783498 0.02893022025091192 -0.16081728789770128 -0.2688302652615071 -0.07113236903658575
1126250000.0 -0.23847162436507016 -0.11799319143451947 0.027799572708604794 -0.1607672082506035 0.025577924768100106 -0.16107346142073115 -0.2682927309416296 -0.07002963149456093
1126938000.0 -0.24030762720429022 -0.11723338447346161 0.024502187972110675 -0.161556114822538 0.02232198998265335 -0.16128226046602814 -0.26773208865141807 -0.06890662897458298
1127625000.0 -0.24163897047405059 -0.11617190240840469 0.021057513539888346 -0.16211047458839448 0.01906559917753929 -0.16145909702393724 -0.26709361685717586 -0.06750596726152681
1128312000.0 -0.24320037318693427 -0.11523817734237052 0.017569283639589966 -0.1625914730790075 0.01594382226554297 -0.16167516422847958 -0.26636473082751766 -0.06607679428896805
1129000000.0 -0.24459240808679603 -0.1142886472235026 0.014123867928127035 -0.16304672738241405 0.012952665000390717 -0.16190107909244858 -0.26548820063402545 -0.06468165161708256
1129688000.0 -0.24591233238609383 -0.11325289125743455 0.010550980481997605 -0.16343826098687433 0.009829396746390398 -0.1620055200303441 -0.2648129697570423 -0.0630812267847554
1130375000.0 -0.2470886476342362 -0.11181531385748582 0.0070969300100918046 -0.16375820144324826 0.006573317833077259 -0.16218369125798018 -0.26417917717938183 -0.061374317864531125
1131062000.0 -0.24820992116160842 -0.11064297506773162 0.003590488066340622 -0.16385293450195057 0.0034600677422515157 -0.16238940385338804 -0.2635770193089018 -0.05956296005352261
1131750000.0 -0.24922800784802843 -0.10947698021367241 0.00010726335349040686 -0.1639077589648013 0.0003928688517049004 -0.16250350410794515 -0.26305642065090434 -0.057703458634037696
1132438000.0 -0.25036610460981734 -0.10809742464283845 -0.003355112796085176 -0.16387155113798454 -0.002874529173176312 -0.1627678978955908 -0.26280296120212154 -0.05568656946455965
1133125000.0 -0.2513749731169111 -0.10670886106832136 -0.006959116522858616 -0.16373527232479862 -0.0061512903359500545 -0.16282542042322976 -0.2626726179893501 -0.05377344869786563
1133812000.0 -0.25227654589106635 -0.10534529951102327 -0.010426120365594285 -0.16359271705204087 -0.00957494024883719 -0.1628859073817981 -0.26248507631393475 -0.0515863165268385
1134500000.0 -0.2531624005726624 -0.10405524893367872 -0.013823398565242732 -0.16329158218416687 -0.012988867764047157 -0.16289520543439553 -0.26281786612495944 -0.04980667588017798
1135188000.0 -0.2541486048635963 -0.10249022409339205 -0.017445706545754478 -0.16289215738697177 -0.0165169790240465 -0.16282521370981592 -0.26321066584244635 -0.04780426931020741
1135875000.0 -0.2551137932194623 -0.10090824044932213 -0.020848093613363657 -0.1623585419954458 -0.020130302991735047 -0.16255663811279533 -0.2636515552521611 -0.04592583908423258
1136562000.0 -0.2559895675679136 -0.09929633538117628 -0.02434665681404802 -0.16184005338835397 -0.023717843257548832 -0.16225344787834634 -0.2641262471561342 -0.04443707144771335
1137250000.0 -0.25698995985862816 -0.09775469553295811 -0.02774266845167568 -0.16111939532488848 -0.027285717661543255 -0.16186310244329952 -0.264528350510879 -0.0428885699820302
1137938000.0 -0.2579715741823704 -0.09594024959408544 -0.031220810247780856 -0.16059061761286147 -0.030834990503586946 -0.1611579204101174 -0.2651734535378271 -0.04175331702778818
1138625000.0 -0.2590699526448889 -0.09421299431967345 -0.034514989088939144 -0.1596603259089444 -0.03444758036174908 -0.160406884419404 -0.26570046614777343 -0.04056451283321677
1139312000.0 -0.2601203900858036 -0.09235916891266861 -0.0377756274919071 -0.15881330869237176 -0.0379321127872042 -0.1595995764995437 -0.2662814334108544 -0.03980286629855411
1140000000.0 -0.26107213098409576 -0.09028723904361483 -0.040956792414718994 -0.1578372540806413 -0.041417009632880135 -0.15858043582634204 -0.26642557363239916 -0.03890309922032614
1140688000.0 -0.26216840470521413 -0.08829812029330353 -0.04427427104428584 -0.15697195806871106 -0.04482778609081259 -0.15764372204354002 -0.2667901993678865 -0.03855877046492453
1141375000.0 -0.26319171764080374 -0.08611999250351561 -0.04742004389765384 -0.1558441248888293 -0.04804905646213078 -0.15643332563049622 -0.2665347363630237 -0.038294485142965726
1142062000.0 -0.2641758304396023 -0.08393562332997517 -0.0505905625007328 -0.154800749611711 -0.05120440122396024 -0.15523561131539573 -0.26606430987499685 -0.03801223244636896
1142750000.0 -0.26507141396866823 -0.08170706649529051 -0.053740576886733143 -0.1536314530322185 -0.05432512204867735 -0.1539307243383142 -0.26557240879447275 -0.037751411886311925
1143438000.0 -0.2658291331024783 -0.07934093254280228 -0.05686429776074309 -0.15255947278033752 -0.0574118467835727 -0.15263249888944297 -0.26461548236686727 -0.037911916895023406
1144125000.0 -0.2667001685902515 -0.07716058595973321 -0.05981825278636532 -0.15130202127646855 -0.06039160656436516 -0.15130716074550174 -0.26345726222657945 -0.03762754680313385
1144812000.0 -0.2673687781840556 -0.07495600933321567 -0.06286177940890218 -0.1501693647579937 -0.06328365420877127 -0.14996088089343737 -0.26183247648126307 -0.037698166842257054
1145500000.0 -0.26799805355678075 -0.07291465362896249 -0.06580092334312657 -0.14892106262645674 -0.06627107068836185 -0.14862537816758475 -0.26004094488154966 -0.03743315722861991
1146188000.0 -0.2686046836902725 -0.07082726661198653 -0.06891566195110922 -0.14765891030158537 -0.06910282968079387 -0.14726012689266635 -0.25816825286390294 -0.03707976202353006
1146875000.0 -0.2691545514175433 -0.06887258610225742 -0.07183956594896486 -0.14622207858721323 -0.07204129191637985 -0.14591580919862476 -0.25607351487040825 -0.03658893694602013
1147562000.0 -0.2696004169286336 -0.06702023651249245 -0.07474217896648493 -0.1448608153185158 -0.07486310747971714 -0.14447746644228143 -0.25388899808156773 -0.03579959950834946
1148250000.0 -0.27003461890165137 -0.06540932805949182 -0.07764830812453638 -0.14345141716529644 -0.07767834818452994 -0.14311953362488627 -0.2515972697548675 -0.03506359566196988
1148938000.0 -0.27047331208334957 -0.06356584129690779 -0.08043372274398675 -0.1419228981745933 -0.08049683073133883 -0.1416176787022742 -0.24922598928816603 -0.033960691045461094
1149625000.0 -0.27090164006575523 -0.061954703029389734 -0.08342799105675631 -0.14030560451679341 -0.08342103728147929 -0.14020001578174332 -0.24723666524743568 -0.03278285860631278
1150312000.0 -0.27135366606453976 -0.06033371001663856 -0.08618327461419262 -0.13871052584868335 -0.08617164071511779 -0.138651216982079 -0.24493760219272712 -0.03130266488835264
1151000000.0 -0.27178587676927324 -0.05896573900982696 -0.08901451748942345 -0.13703908348038105 -0.08908223806550622 -0.1370392443664979 -0.24304257489535958 -0.029479774943574347
1151688000.0 -0.2721368054548135 -0.05741753170678056 -0.0918001212531944 -0.1352345349536052 -0.09197976461339873 -0.13540920463602327 -0.24122434228217768 -0.027479042764823703
1152375000.0 -0.2725214771046967 -0.056038256798264637 -0.09460580715755815 -0.1333269055060066 -0.09482498571283748 -0.13364726471035582 -0.23991121518836472 -0.02526387262109518
1153062000.0 -0.27289171048072397 -0.054600897770935644 -0.09738890867732951 -0.13151797761828768 -0.09770384471169435 -0.13182319720510952 -0.23859728660268362 -0.023196704455137697
1153750000.0 -0.2731337206779487 -0.0533203074729316 -0.10002584683308961 -0.12956318358930452 -0.1004004942330191 -0.12986713770854513 -0.2376490464307242 -0.021091772241131276
1154438000.0 -0.27345560411328007 -0.05180275634837985 -0.10272189515427553 -0.1275663799003841 -0.10323741675544866 -0.12781198646902384 -0.2370341129800127 -0.018949757233395224
1155125000.0 -0.27379173713704974 -0.050428548957392794 -0.10539728355188041 -0.12537949871089804 -0.10610556680528761 -0.1255700870894 -0.23661188806684053 -0.01684369696645242
1155812000.0 -0.27396267917565215 -0.04900944135945331 -0.10807563174653964 -0.1232818654771935 -0.10875086570560784 -0.12326136733688016 -0.23642164076806452 -0.014701470078430567
1156500000.0 -0.2741387012584256 -0.04772367394456088 -0.11074898796196768 -0.12106680494257008 -0.11137225145385081 -0.12097066881837468 -0.23662968181780783 -0.012711006125265264
1157188000.0 -0.2742741117635614 -0.04617531972716651 -0.11341741051043347 -0.11871858451892482 -0.11399501795167405 -0.11856928245973652 -0.23709113919655242 -0.011254097879677112
1157875000.0 -0.27419907207651184 -0.04469515517836327 -0.11592343348903013 -0.11637523884903021 -0.11650749105870821 -0.11603291395781402 -0.23738599222073511 -0.00978656745814128
1158562000.0 -0.27417971023276244 -0.04327125632207922 -0.11844653595151111 -0.11397740668799283 -0.11901096817593211 -0.11337308144631665 -0.23786817354082287 -0.008607089652336317
1159250000.0 -0.274248722729056 -0.041810195011512064 -0.12098523594990995 -0.11138778234088753 -0.12153152406889565 -0.11081449482811338 -0.23858951654836819 -0.0076359059846776095
1159938000.0 -0.2741297125824088 -0.04023376870503586 -0.12333777883814234 -0.10884492275029227 -0.12382175070351198 -0.10812457612546703 -0.23918032432203853 -0.007128186397379389
1160625000.0 -0.2738546212379076 -0.03874692945979503 -0.12568458487617223 -0.1061895000752948 -0.12603355053041917 -0.10536820935124715 -0.23957014543932684 -0.006906052873763889
1161312000.0 -0.27350867792676403 -0.03721619948110741 -0.12797930305846672 -0.10348373538206167 -0.1282534541733961 -0.1026048882619863 -0.23996990669285387 -0.006680634923353981
1162000000.0 -0.27314488336936893 -0.035530455252338444 -0.13017997665065598 -0.10062401433526963 -0.13033207694596935 -0.09972281181725824 -0.24017991510724251 -0.00671913273867154
1162688000.0 -0.2728200042508161 -0.03402398294544559 -0.132328828377832 -0.09780108251805156 -0.13230881008734302 -0.09694451013409482 -0.2401192078320553 -0.00703806164407694
1163375000.0 -0.27231701353581206 -0.032529745208197486 -0.13441335418437805 -0.09487161154816813 -0.1342872048738108 -0.09406498501224542 -0.23989882343117286 -0.007360088494358964
1164062000.0 -0.27186214948730153 -0.0310946859642984 -0.13639858474121455 -0.09196189563716789 -0.13613258861756228 -0.09118419073823608 -0.23946123054348148 -0.007816258381451146
1164750000.0 -0.2713451915254253 -0.02958652739053232 -0.1383437941679396 -0.08893003434686834 -0.13795448072540392 -0.08833714982940609 -0.23870434463829793 -0.008227787460854986
1165438000.0 -0.27097657178697465 -0.028020635748463595 -0.14034177718493465 -0.08584556511861852 -0.13975592466337147 -0.08547208670569 -0.23786691354268336 -0.0085861869454654
1166125000.0 -0.2705168457286445 -0.026618615267874558 -0.14206363790120652 -0.08275701045875097 -0.14142848199314415 -0.08256001805050382 -0.23645814759814388 -0.008956628711271881
1166812000.0 -0.2700448614543551 -0.0251430351284851 -0.1437991825656249 -0.07971883872514834 -0.14315056850349223 -0.07948665245219307 -0.23516871170225281 -0.009036269408474894
1167500000.0 -0.2695113276372581 -0.023746339384454015 -0.1453584297079751 -0.07652941469881233 -0.1446754141893767 -0.07660989892675865 -0.2334992431631167 -0.009004595471725586
1168188000.0 -0.2691313055128973 -0.022400764860259735 -0.14690554830274266 -0.07338833044927141 -0.1462138665767905 -0.07364347400403112 -0.23169658608880903 -0.008979769568496545
1168875000.0 -0.26862247109957355 -0.02108096793957269 -0.14842096572643645 -0.07017274742925124 -0.14775927219131077 -0.07058358992061736 -0.22976214527854882 -0.008512451036515456
1169562000.0 -0.26838262628068815 -0.019679209964744853 -0.14978510057955385 -0.06692487454700648 -0.14916004237654232 -0.06748689362611508 -0.22800477274002917 -0.007663523733499283
1170250000.0 -0.26803362014815973 -0.018406686939130605 -0.15098469714583765 -0.0638039156855062 -0.15059804002734517 -0.06446500332890145 -0.2261429070877124 -0.006782430310723927
1170938000.0 -0.2678508207903297 -0.017125895625844354 -0.15218050209022158 -0.06049735231675443 -0.1520200532906233 -0.06138254933344378 -0.2244909052161946 -0.005618070939404758
1171625000.0 -0.26745994699901343 -0.01588642991538408 -0.15333426140160664 -0.05733303939978074 -0.15324880364013296 -0.058261075779878865 -0.22287816844694225 -0.0042310933269853815
1172312000.0 -0.266997954227841 -0.014606715408772121 -0.1542993404552596 -0.05409216260606718 -0.1544945492776408 -0.05503146379099161 -0.2216154958730669 -0.002753313868863198
1173000000.0 -0.2670375931680715 -0.013376395968532647 -0.15525941750212413 -0.05085625383602215 -0.15570277518313919 -0.051690412151742526 -0.22055430916840502 -0.001151481144327897
1173688000.0 -0.26690637775833653 -0.0121103928445703 -0.15608510869551845 -0.04767931627549244 -0.15684112373382722 -0.04840993273433181 -0.21972683887719272 0.00046480867531686177
1174375000.0 -0.26671385839640976 -0.011156388067554096 -0.15683560319119297 -0.0443688368550469 -0.15790119145969986 -0.04508390347096967 -0.21925505065966208 0.0021580867388406068
1175062000.0 -0.2665299395686459 -0.009959911127283281 -0.15766040458940497 -0.041331691608511904 -0.15881215926202738 -0.04176670469962674 -0.21911534445713213 0.0037843774657932427
1175750000.0 -0.266636601318524 -0.00890846295339049 -0.1583129328970553 -0.03807254020055784 -0.15975215341697246 -0.038371935400921556 -0.21923501173220747 0.005201138006165555
1176438000.0 -0.26642613345222027 -0.007891449969939287 -0.15897669380496807 -0.03501081813383483 -0.16046966866867454 -0.03495144380083489 -0.21968235765555433 0.006621864044758841
1177125000.0 -0.26631352203268577 -0.00691718524245257 -0.15959554003849408 -0.031715540069913534 -0.16116549336724598 -0.031465989403438616 -0.22045244571420808 0.007684549045096858
1177812000.0 -0.26612358279218884 -0.005919022158129423 -0.1601897468839494 -0.02853855702820038 -0.161744622585892 -0.027982110601537914 -0.2212855290454803 0.008508026310753506
1178500000.0 -0.26620736586233634 -0.005052733054412059 -0.1607768496912216 -0.02531405073783455 -0.16230444288184454 -0.024442375748153274 -0.22226572620166443 0.009241188584941482
1179188000.0 -0.26604400463827305 -0.0040211004552588156 -0.16135464354512025 -0.022015124714829495 -0.16253175232667408 -0.02097314817106968 -0.2235099625266285 0.009479443798251587
1179875000.0 -0.2659399425305599 -0.003240335520364092 -0.1617232780086881 -0.01877708412467994 -0.1628185480265003 -0.01749256455226315 -0.22484680467532886 0.009530797680002406
1180562000.0 -0.2656649357178787 -0.0023926235386132174 -0.16212916733127858 -0.015550882356579764 -0.1629417155534543 -0.013940275247034629 -0.22586471550630566 0.009129235726176512
1181250000.0 -0.2653702586069377 -0.0018053937660594656 -0.16241587777582298 -0.012247128523654853 -0.1629563310885271 -0.010462549250957515 -0.22708460359999968 0.008509918228316324
1181938000.0 -0.2652300760543041 -0.0009040039723242545 -0.16280119441490845 -0.008798108583080309 -0.16284117135507484 -0.006994251864142246 -0.2280397105416369 0.007681933497824777
1182625000.0 -0.26492420234691055 -0.00043641703171654826 -0.16306095929509215 -0.00529839018170598 -0.1626994967662092 -0.003572044393452025 -0.22899554674779243 0.006679942817828205
1183312000.0 -0.26470125536318423 0.0002865492215228235 -0.16317191733830586 -0.0018813431971076073 -0.16250004377437324 -0.00026902910639611496 -0.22943121017151827 0.0055008790440323
1184000000.0 -0.2644419529230647 0.0006557028150167968 -0.1632674338958816 0.0015378867543752617 -0.16230504048571642 0.0030222222002901375 -0.22986204423367798 0.004288697785660373
1184688000.0 -0.26405208170806943 0.0013100165653575186 -0.16320088781355807 0.005112697173684703 -0.16200031804162862 0.006436813637042944 -0.22989161748146192 0.0029021385458452395
1185375000.0 -0.2639519093130817 0.0018569655323975767 -0.16313499972898088 0.008717470636547368 -0.16164695892039502 0.009661200843682488 -0.22980023370335428 0.0014578726404727333
1186062000.0 -0.2636172855070763 0.0023867592914649 -0.1628882923224311 0.012248340601620679 -0.16123690987930236 0.012921373733242309 -0.22937852071991852 0.00020164909483979377
1186750000.0 -0.26342374488454 0.0028910103653679454 -0.16245372768782493 0.015731306342963283 -0.16084049787303384 0.01603015940354604 -0.22845076247655802 -0.0009813922534209108
1187438000.0 -0.2631903776897705 0.003361632793070565 -0.16206091945918477 0.019412186151080067 -0.1604123966212489 0.0192034156672997 -0.22742301247249047 -0.002149410015915372
1188125000.0 -0.26294105184442396 0.003911605593024916 -0.16143205339036518 0.022885987576663824 -0.15998471999324174 0.022460239070920582 -0.2261497536406046 -0.0029852518249347286
1188812000.0 -0.26264369043108987 0.004392435730844379 -0.16069548300441502 0.026400851003400706 -0.15943221763153798 0.02560483136263912 -0.2246816012211772 -0.003698600341351464
1189500000.0 -0.2624539933965771 0.0052322924226524915 -0.15984034224069882 0.02992649002352261 -0.15892476613937342 0.028847835257561606 -0.22303646507316383 -0.004128622384972789
1190188000.0 -0.2623355944662265 0.005992081510456425 -0.15891624693398304 0.03331340502227634 -0.15829994308456502 0.03206676170160849 -0.22143304012231604 -0.004404104305210152
1190875000.0 -0.2621666493960185 0.006753118577667124 -0.15793955619749409 0.036673546133731715 -0.15763405829582317 0.03530174096669379 -0.21963020918536014 -0.004479489542853871
1191562000.0 -0.2620051397271198 0.00761255258384672 -0.15677558118417007 0.03998978532401572 -0.15686179281247709 0.0385041142933293 -0.21808443206523173 -0.004088011291620999
1192250000.0 -0.2617476553024522 0.008561179788086692 -0.15555993771255844 0.04321493558688068 -0.15598740767648936 0.041726106463724516 -0.21652752694206923 -0.0038093319290059893
1192938000.0 -0.2615998078308082 0.0095642150528589 -0.15434952677016767 0.04634608858539521 -0.15503897730430333 0.04506066555956955 -0.21530241318779142 -0.003152572596802054
1193625000.0 -0.2612831298685364 0.010469043898550485 -0.15296050638464448 0.04933679214295181 -0.15407396004351268 0.04833044324801724 -0.21412668746975957 -0.00248141576611594
1194312000.0 -0.2608830906716173 0.011580921830255476 -0.15147968378711013 0.052434421738674894 -0.1528338541148237 0.05160060592794685 -0.21341095408789865 -0.0015159614619689042
1195000000.0 -0.26063704975604784 0.012713599858285199 -0.15012256698195453 0.05528174481241461 -0.15162495817864424 0.054847306201282975 -0.2126604529405448 -0.0005874095756984685
1195688000.0 -0.2602402251640865 0.013914310501088517 -0.1486234619797603 0.05806743502884199 -0.15025005489801405 0.05812265588318648 -0.21235457566304342 0.0003018240618642018
1196375000.0 -0.25993591883790096 0.01501864353366493 -0.14718853250062158 0.060857360995711984 -0.14875315676320883 0.061296855683663665 -0.21234837938665196 0.0012310610096061124
1197062000.0 -0.2596675992286586 0.01603945071975394 -0.14570753050615218 0.06362659231221947 -0.1471854845656235 0.06433824905469251 -0.21253882147173467 0.002238728504328118
1197750000.0 -0.25930158387511937 0.017142016602253136 -0.1442446193688626 0.06632350560083086 -0.1454773930875058 0.06730452922435642 -0.21302539890124356 0.0028442399157875852
1198438000.0 -0.2590306265989607 0.018115431015570397 -0.1427022007727942 0.06886391373375071 -0.1436946579015366 0.07032648790552638 -0.21373731957261283 0.0033943742287697075
1199125000.0 -0.2587127259209199 0.019064340372313106 -0.1412312171307747 0.07155387828079705 -0.14182181858341084 0.07306787597067993 -0.21481926775070137 0.0038884407339448996
1199812000.0 -0.25858434242502487 0.02009653985547688 -0.13962329099525467 0.07414918213397748 -0.13994792539772047 0.07580525203286272 -0.21558868310805837 0.0041948210709791605
1200500000.0 -0.2584909368578857 0.021054332345584334 -0.13811338461661257 0.0767419320847492 -0.1379867354634654 0.07836360471742318 -0.21665738146539557 0.004121985840586721
1201188000.0 -0.25839993925705373 0.0220057619908111 -0.13642400048415895 0.07934834699849512 -0.13610147752469953 0.08088807783013977 -0.2179734587874912 0.004002655530256339
1201875000.0 -0.2585165080906899 0.022988461947363793 -0.13482818464991922 0.08196539203262235 -0.134182174624023 0.0832753332101213 -0.21881468673425675 0.0035917738968481256
1202562000.0 -0.2586503506576488 0.023964302424630178 -0.1330508865720114 0.08453306861519769 -0.13236138193363212 0.0856304043396401 -0.2199576758564206 0.003211623678855493
1203250000.0 -0.2588469786463439 0.02494927541850642 -0.13138347632069358 0.08708089828882967 -0.1304223981627042 0.08792621002856266 -0.22083603275237407 0.0026481916492988537
1203938000.0 -0.25898474241609537 0.02590781582653176 -0.12959887526719133 0.08960635547618863 -0.12858926567599369 0.09011590287423848 -0.22160636604923012 0.0018898787787097549
1204625000.0 -0.2592777824633316 0.026957347172322052 -0.12786093447555016 0.09214709394219332 -0.12681568648665392 0.09240348914090826 -0.22214109262301404 0.0010811940865813308
1205312000.0 -0.25957880763264835 0.02802700632438718 -0.12599663105764244 0.09459425166629973 -0.12507482713046186 0.09471299940037947 -0.22245568640635763 0.000420012795456809
1206000000.0 -0.25993779628619823 0.029165214203329914 -0.12416182960608702 0.0971122319848857 -0.12322808540127272 0.0969332363255251 -0.2224314364083663 -0.00017428119054098634
1206688000.0 -0.26014035254030426 0.030323833558377908 -0.12223747750312738 0.09957778250538961 -0.12151154754329747 0.09915839743952896 -0.2222661802415771 -0.0008693665513031943
1207375000.0 -0.2604628346496895 0.031430957509338636 -0.1202868749826834 0.101992905937606 -0.11970378490047875 0.10148406031778283 -0.2218562613407481 -0.0015732220645999972
1208062000.0 -0.26074820618425376 0.032797528080145286 -0.11829086482171641 0.10433215958820136 -0.11792481745119991 0.10386518184689543 -0.22125142992171223 -0.001822877141522307
1208750000.0 -0.260732352826592 0.03400720524932558 -0.11617695291825694 0.10666304475031904 -0.11599009502826704 0.10616056729284967 -0.2205181963413949 -0.0019086086429247974
1209438000.0 -0.26080213434426963 0.03524118137797353 -0.11421328025916275 0.10887756255988261 -0.11408950240383328 0.10848559462481666 -0.21973353713923707 -0.0021296086872398473
1210125000.0 -0.260685362349527 0.03642301548125745 -0.11192546373902304 0.11113600686311485 -0.11201000380146853 0.11087006094356527 -0.21878872746441747 -0.0018443612603540188
1210812000.0 -0.260634549319051 0.03756237651591422 -0.10979412560117938 0.11329435249507479 -0.1098558606540689 0.11324239837996537 -0.21779448646815894 -0.001608616338183274
1211500000.0 -0.2603243129735509 0.03865407176961261 -0.1074615935527373 0.11537898074840822 -0.10758702172239246 0.11554610720169502 -0.21688132629482715 -0.001092254613505993
1212188000.0 -0.2600952472039211 0.03973754186214345 -0.10510588229406634 0.11752084677512606 -0.10520766578423141 0.11780916184356972 -0.21588737385695522 -0.0003211075345713048
1212875000.0 -0.2597393330106671 0.04075176503488306 -0.10269323325705117 0.11955410366288918 -0.10274303896754405 0.1199786508433111 -0.21503196303377398 0.0002869238077907774
1213562000.0 -0.2593195852550834 0.0417363250843303 -0.10020893539967926 0.12158409570991381 -0.10012104652597405 0.12205734488144745 -0.21440437786205468 0.0012354739909159424
1214250000.0 -0.25891457471914764 0.04257963002211775 -0.09780691400292495 0.12346948249988737 -0.09757800431211033 0.1240309063962492 -0.21381855492792648 0.0021494260538239937
1214938000.0 -0.2585605651607785 0.04348099100818676 -0.09516944977400282 0.12530256032059933 -0.09491609321862118 0.125807375361271 -0.21336089521335788 0.0033215456906910837
1215625000.0 -0.25808640892219586 0.04443037687685715 -0.09268893414047658 0.12723786142065605 -0.09214501388853345 0.12758905928485864 -0.21324507348933838 0.004454183159230625
1216312000.0 -0.25760939012554546 0.0452612525929498 -0.08990712520499806 0.1288543592831598 -0.08939096515794026 0.12917213588637227 -0.2132117432822366 0.005497729893508029
1217000000.0 -0.2571359063731896 0.04613654403637182 -0.08732016094581542 0.13055788252202674 -0.0866677772179339 0.1307345249250654 -0.21365530928515927 0.006420904768786969
1217688000.0 -0.2567415437954786 0.04715979354382592 -0.0845619572261108 0.13222658280058433 -0.08403483468509017 0.13208532298092016 -0.21412932349483835 0.007558597969207533
1218375000.0 -0.25637425668021196 0.048101649366184523 -0.08176541569920125 0.13367616594568313 -0.08129577975420899 0.1333672983999789 -0.2146593658283768 0.00860829772320993
1219062000.0 -0.25601812357563114 0.049155583771698146 -0.07916347788481665 0.13517722540365196 -0.07865847264605537 0.1345619086788038 -0.21556080373919662 0.009405539611776407
1219750000.0 -0.2555282169226762 0.050440613082359365 -0.07636939264943512 0.13634955261745654 -0.07602534685115403 0.1356232593762275 -0.21649140780212736 0.01030102376596988
1220438000.0 -0.2551817916578319 0.051690297597206405 -0.07358711271812328 0.13761213478291512 -0.07356962790727302 0.13682563054201324 -0.2175129475073524 0.010758355762082514
1221125000.0 -0.2547281462793331 0.05307521992938436 -0.07080787984300663 0.13866150807444083 -0.07103424926629 0.13785264053918225 -0.21848117762774005 0.011522184126774356
1221812000.0 -0.25422976450949525 0.054483198917758595 -0.06811147817297528 0.13976667435408638 -0.06849677794146738 0.13897360834638312 -0.21959707085919145 0.011956368571042967
1222500000.0 -0.2535485470998186 0.05611600713497786 -0.06543970558698932 0.14078410838505917 -0.06601295506626537 0.1401105518506538 -0.22066502701918042 0.012559607196628594
1223188000.0 -0.25298030707059543 0.057681824362135294 -0.06271120142022435 0.14177122178721188 -0.06356018267460385 0.14133846634263741 -0.22170910531504087 0.013015577750179723
1223875000.0 -0.2522301966544154 0.059307493402480316 -0.06012052436337565 0.14273562300305592 -0.061015260610396235 0.1425700752844296 -0.22271340697270348 0.013285117607709389
1224562000.0 -0.2515707992706716 0.06105982272205932 -0.05750127221572811 0.1437551129571393 -0.058594028671140046 0.14378983366490716 -0.2237654329047993 0.013537985201656852
1225250000.0 -0.2507572115033102 0.06281421799940873 -0.0548130967930618 0.14469457645222686 -0.05593533851820722 0.14512646787873354 -0.22440981944338903 0.013950635399835092
1225938000.0 -0.24996264863566162 0.06445391664936098 -0.052355510636414505 0.1456865567508345 -0.053380311981541285 0.14643551849357295 -0.22519633634469075 0.01440316879067371
1226625000.0 -0.24897966217925696 0.06607767193808811 -0.04973033147581551 0.14657660943893677 -0.050696128660164694 0.14774697552710095 -0.22572107561969385 0.014502315102130302
1227312000.0 -0.248216014069912 0.06770384439215152 -0.047122308464789736 0.14754640631084376 -0.04790224831043563 0.1490821614990582 -0.22627118798612084 0.015150565027802375
1228000000.0 -0.24733368005628284 0.06925056922633324 -0.04453101199797647 0.14853464740429465 -0.044969084836350356 0.15027244969839693 -0.22656641751649245 0.015436039197640585
1228688000.0 -0.2464665200468265 0.07069664324145761 -0.0419639386310189 0.14950797045543196 -0.04206445742966845 0.15140936076701386 -0.22690567839816642 0.015929463231253493
1229375000.0 -0.24555115198044702 0.07212931226720877 -0.03930455799498088 0.15047792124138148 -0.03896774507316828 0.15248959637576878 -0.22695377453334392 0.016410493005852334
1230062000.0 -0.24491920795103495 0.07354686829112428 -0.036571787472399454 0.15149783287439503 -0.0357800378611826 0.15342199500646553 -0.22727865205488126 0.01681493502999262
1230750000.0 -0.2441212171514677 0.07477625662760444 -0.03392802697745312 0.15247988142314725 -0.03270462184998313 0.15414301763637187 -0.227495193471638 0.017382819502071843
1231438000.0 -0.2435743864922766 0.07605592363323477 -0.03110699859234801 0.1534380442729595 -0.029467523719153114 0.15476029933188068 -0.22747069132429384 0.01818822743885953
1232125000.0 -0.2430558526557183 0.07729053780838449 -0.028235343516168097 0.15437899808824548 -0.026209020736183457 0.15532596710353805 -0.22772223466713648 0.01873455387744856
1232812000.0 -0.24266653958503753 0.07832618247354099 -0.025327710748764512 0.1552352687228054 -0.023060904853729487 0.15572814629468673 -0.22791925571951432 0.019494080201797142
1233500000.0 -0.24208729146155775 0.07965223920838689 -0.022146646494768135 0.15588990209324358 -0.019872448429941077 0.1560268821778123 -0.228169585622951 0.020133518429098628
1234188000.0 -0.24186804545882384 0.08083712884663675 -0.01907718770197385 0.1567067757220751 -0.016749406643744216 0.1561977446548152 -0.22861182733760924 0.02060305406682403
1234875000.0 -0.24162216892735872 0.08206129182630757 -0.01589899286798246 0.15743296035129786 -0.013738219101207245 0.15641410917186027 -0.22903662059152521 0.021257876447780974
1235562000.0 -0.2412353292231211 0.0832517510260271 -0.0126322899897102 0.15796021240084696 -0.010778092483005633 0.1565078856826522 -0.22953805190331783 0.021776220693139066
1236250000.0 -0.2410383332011133 0.08454539378871687 -0.009316407630240952 0.15842973018667073 -0.007913588477559559 0.15674510036643313 -0.2301172242100482 0.02221291601873897
1236938000.0 -0.24059544494201646 0.08571419695586428 -0.006045122881600278 0.15882352697941443 -0.004927750305941245 0.15672861906202812 -0.23077272622513453 0.022620503966411073
1237625000.0 -0.24021158031770667 0.0869091516015257 -0.0027590069785561454 0.15903789297260248 -0.002201384870774178 0.15690454706962648 -0.23146325161050937 0.023059984617851994
1238312000.0 -0.23969167114239573 0.08809875054312674 0.0006885118911028737 0.15902742453161145 0.0006041325837819928 0.15697766410904512 -0.23216724092614918 0.023304924809205856
1239000000.0 -0.23916309562569155 0.08917772168882256 0.003946471665725322 0.1590487132886063 0.003389201791575392 0.15715960732670925 -0.23296907594116262 0.023568155420247355
1239688000.0 -0.23861187576384585 0.09041096655479774 0.007289570417107387 0.15897456833288462 0.006189810103237127 0.15733822736067718 -0.2336131116415317 0.02392710124861145
1240375000.0 -0.23788238770092687 0.09152398375187928 0.010611010081995331 0.1588258814608798 0.009076666528740167 0.15748279727855974 -0.23430585968178547 0.024171790671919397
1241062000.0 -0.23707247590371666 0.09251318546193232 0.013683433660787487 0.1583874467021171 0.012013523381661062 0.15766564494093538 -0.23502832233880266 0.02432430261288882
1241750000.0 -0.23631873369201714 0.0934125952021039 0.016908135993502292 0.1581941639061423 0.014914970439865128 0.15778515461048126 -0.23542821821751175 0.024518469328600946
1242438000.0 -0.23540821467543355 0.09429247344778655 0.020067805381952956 0.1575945699485293 0.01806425787636741 0.15789686623997254 -0.23591884092253973 0.0248431275636855
1243125000.0 -0.23436815246312115 0.09498806925570623 0.023153156263253167 0.15735773949517518 0.021229415187618655 0.15789265506593594 -0.23641036382855113 0.025215377041555638
1243812000.0 -0.23353614750000654 0.095682367171885 0.02617512271476126 0.15686412907992509 0.024505344310375578 0.15787973656899917 -0.23685497077197487 0.025800955425026303
1244500000.0 -0.23252623129053537 0.09634321677413185 0.0291570931629884 0.15637347991631648 0.02785892304815478 0.15766090046935702 -0.23710035431013768 0.02630567314769533
1245188000.0 -0.23147944196883413 0.09695934142205116 0.03210902557491617 0.15573834827473382 0.03128582207860078 0.1573778701486594 -0.23723491978741784 0.02699587695342909
1245875000.0 -0.23060705559941053 0.09753383833592288 0.03517371159812889 0.15529096719345126 0.03471841103627647 0.15704111268018203 -0.2374994688292661 0.027753554272246343
1246562000.0 -0.22962900631633026 0.09810131159396238 0.03824593467374631 0.154642344193031 0.038264254424047406 0.1564873459960592 -0.23758293619648907 0.02874831913163304
1247250000.0 -0.22878130670929847 0.09866222332588387 0.04125392184057406 0.15409125592959497 0.04170947126393007 0.1558023175814748 -0.2377696017721114 0.029672309475738876
1247938000.0 -0.22781415045691142 0.09932763197796633 0.04430259431945196 0.15340473301048144 0.0451987646388783 0.1550915379647308 -0.23783210517388667 0.03079275908218218
1248625000.0 -0.2269477457786809 0.0998867874959936 0.0472345539276165 0.15277115136940328 0.04860911156675494 0.15420621123449033 -0.23798623583251 0.03187933737087385
1249312000.0 -0.2261328673045905 0.10063347454525136 0.05030557838821354 0.15209243991188526 0.051905172138171495 0.15325479396031377 -0.23811823247347952 0.03297808281597523
1250000000.0 -0.22522366032540322 0.10134446751709027 0.05332528795053795 0.15128896095283118 0.055167361052949455 0.15210949381961175 -0.23820510336835157 0.03418130701586574
1250688000.0 -0.2244976337935897 0.10217663170218355 0.056329454974437546 0.15043653278227997 0.05833884038006822 0.150928581201753 -0.2385273915898825 0.03531719562753371
1251375000.0 -0.22363640857712427 0.10311756310762905 0.05947442184479968 0.14955917039304217 0.06146896638949237 0.1495640462249911 -0.23876117372721584 0.0365669436350743
1252062000.0 -0.222741818167861 0.10406264327818017 0.06256009751862526 0.14860105504671176 0.06445395202993537 0.1482891125903045 -0.23904773323171685 0.037444712041343094
1252750000.0 -0.22177722214919413 0.10501365245672618 0.06583151670207324 0.1475509798415331 0.06741313236251976 0.14690285383683863 -0.23969462296976207 0.03854029693584039
1253438000.0 -0.2209606364682391 0.10622154852582677 0.06891600175806423 0.14647724554243605 0.07032490610029972 0.14544303490595129 -0.2399740195289286 0.03944398772211665
1254125000.0 -0.2200736103904992 0.10733159007748908 0.07212231585431815 0.14530550809173992 0.0731099652646442 0.14400005343247985 -0.24063912022817724 0.04028662724625501
1254812000.0 -0.21922674433273326 0.1084522295309261 0.07525659148405632 0.14395394023869074 0.07593727947972077 0.14262797094475413 -0.24120068749239504 0.04107971211044853
1255500000.0 -0.21829320000126828 0.10962753641799794 0.07842187556270257 0.1425526494175894 0.07887297623037468 0.14121096010479658 -0.24185009369134416 0.04174742859043826
1256188000.0 -0.2173316432702637 0.11069733793268757 0.0814634596496535 0.1410109885542852 0.08157909476906526 0.13959135911278012 -0.24235461453267848 0.04228517559432689
1256875000.0 -0.21630231039837047 0.11170897076387405 0.08457375570659069 0.13940443825732504 0.08431807558005874 0.1381234349131452 -0.24283158674709762 0.04266670749920357
1257562000.0 -0.21550577186060266 0.11278014422429582 0.08762266992746383 0.13777199031323767 0.08717188049148837 0.13662626423255766 -0.24330310200280278 0.04292088752542304
1258250000.0 -0.21470385837780218 0.113839904811057 0.09068243982969247 0.13590742385718052 0.0899671719915101 0.1350371701024262 -0.24362321919065588 0.04333741735280542
1258938000.0 -0.2138924641606938 0.11489707326883368 0.09359930145171794 0.1341848471785249 0.09281309840247147 0.13340194552074744 -0.24393972794437266 0.04345883516140866
1259625000.0 -0.21313784938622699 0.11582469569489914 0.09653674878136533 0.13215246652117627 0.09575124102196 0.13170464762255732 -0.24402318589070618 0.04374911202287186
1260312000.0 -0.21246116496307585 0.1166865411895167 0.09933226864135196 0.13012085111473137 0.09856539829270614 0.12992512027862058 -0.2439154310785012 0.043884151991170954
1261000000.0 -0.21187781157769614 0.11765778722255169 0.10205490142118269 0.128109293547953 0.10145777063023521 0.128207839551105 -0.24367318543882918 0.04417924396597611
1261688000.0 -0.21131244026393295 0.11833465224320631 0.10481909250876481 0.12602600511639742 0.10423315936619308 0.1262195944991491 -0.24331196944814906 0.04456865788692363
1262375000.0 -0.2107187094789137 0.11932435330352255 0.10736662856684849 0.12381171730284248 0.10718895735061813 0.12425589551576359 -0.2426527583076182 0.04490408803125369
1263062000.0 -0.21041565114121594 0.11997258491701081 0.10998672765320922 0.12153111524000725 0.10987346048258517 0.12207737527464363 -0.24195676397514274 0.045593703496266035
1263750000.0 -0.20992083715207094 0.1209462585099381 0.11255441793402238 0.11925891135552205 0.11258533918000217 0.11985220074831056 -0.24105806875851227 0.04635668236933684
1264438000.0 -0.209460687044649 0.12167626434732808 0.11499867716871945 0.11698092573842594 0.11530082878153049 0.11752275231473788 -0.24026977357430754 0.04728437771528745
1265125000.0 -0.20909689351029664 0.12262546114649663 0.11755021860137899 0.11457898577882816 0.11796356727177636 0.1150925582903285 -0.23921265790062435 0.0486287086133415
1265812000.0 -0.20874989446937545 0.12331856613805126 0.11994992993612673 0.11210755139690703 0.1204390665216059 0.11259181784424907 -0.23824252140625596 0.050144538085899
1266500000.0 -0.2085306128977915 0.12420055748190081 0.12236882737828585 0.10954538544226085 0.12286387241214516 0.11002667430697352 -0.2372724773660748 0.051834568704102954
1267188000.0 -0.20797504638481312 0.125124546558051 0.12469743212314481 0.10709272928626828 0.1251208133219048 0.10740260869488785 -0.23620556175653176 0.053658566287764636
1267875000.0 -0.20759250642282592 0.12574013332357967 0.1268526298779353 0.10464864217238092 0.12746999224218084 0.10462952535439302 -0.23553391879869093 0.05582696189050327
1268562000.0 -0.2072670693494698 0.12649356179299553 0.1290746860058378 0.10193658023446633 0.1295636198689964 0.10187361839822263 -0.23480513832385722 0.057821439845180275
1269250000.0 -0.20659183530658898 0.1272321220315682 0.1312269938018549 0.09926594403574124 0.13167005683812033 0.09905997058024098 -0.23424168020943148 0.06032380343807356
1269938000.0 -0.20607484364151762 0.12780664070412215 0.13332033381145944 0.09655803758316044 0.13373212037794005 0.09622151309765649 -0.23396717228696962 0.06269330023793787
1270625000.0 -0.20550013008153 0.1285902212464042 0.13536700817027383 0.09381996382285382 0.13577099069993556 0.09349309200106616 -0.23396988416498823 0.06500249656967365
1271312000.0 -0.20478109967398497 0.1292352458005444 0.13735909921638628 0.09091982418079791 0.13759356102799303 0.09054601486911744 -0.23417661264804085 0.06756961801666138
1272000000.0 -0.20404567046871633 0.12972870195657035 0.13918573093412867 0.08804651296171853 0.13949930777822275 0.08764339436204678 -0.2343193369004334 0.06988637963657461
1272688000.0 -0.20329812199813008 0.13038011958373663 0.14102383479897035 0.08519182650126296 0.14121938294511643 0.08476009173604668 -0.23498415786652713 0.07224412089427984
1273375000.0 -0.2025257940320469 0.13093807745144634 0.14278896242401795 0.08223695366226287 0.14292798327810502 0.08180529907988171 -0.23571281583886192 0.07435028933152892
1274062000.0 -0.2016786281287817 0.13149559204314415 0.14440158922313168 0.0791825723289234 0.1445277454471536 0.07877687751317136 -0.23670971069432856 0.07619241394667124
1274750000.0 -0.20076440002925677 0.13208805709805532 0.14611620846969692 0.07610743129637108 0.1461697962363753 0.07580427212776969 -0.23770973334132425 0.07790366477165471
1275438000.0 -0.19977255349945158 0.13255994256749495 0.14765763610312685 0.07288456549621258 0.1477257045155884 0.07271828527572216 -0.23869048250737832 0.079513593304739
1276125000.0 -0.1989030830707376 0.13307315400230826 0.14916439219637942 0.06983446117978216 0.14922835174098345 0.06970420206321436 -0.23973204309779136 0.08079622854408022
1276812000.0 -0.1978427283830404 0.13372348349233634 0.15058491474176722 0.06671535685667648 0.15060885479317188 0.06658586617054171 -0.2407286619257138 0.08191707276760309
1277500000.0 -0.19679608465508777 0.13431888036988118 0.1520122897291503 0.06344910996913854 0.15196654228908466 0.06343261494837078 -0.24162115958563243 0.0827282715165147
1278188000.0 -0.19573015664935148 0.1350886949421609 0.15324322022888107 0.06028701369251549 0.15329192078814882 0.06023194112867503 -0.2422818636881596 0.08352423006890565
1278875000.0 -0.19455992891045334 0.1355684101038671 0.15450900166981257 0.056956643424557106 0.15446869026304097 0.05707537254759137 -0.24311555555368544 0.0840451336812066
1279562000.0 -0.19358802736996894 0.13622545165067138 0.15563642035479514 0.05386777529784536 0.15566751181547656 0.05367009040803446 -0.2435453288493419 0.08431741513067954
1280250000.0 -0.19229944288339856 0.1369998190270231 0.15673697646531817 0.050371433905004474 0.15676752286650822 0.05054016207555038 -0.24381587322681672 0.08469999290494182
1280938000.0 -0.19117503024625457 0.13775620673853378 0.15780653231033462 0.047182509406390356 0.15782261156223365 0.04718130598942853 -0.24362037921953644 0.08502237645456935
1281625000.0 -0.19002115108149203 0.13848551979725704 0.15870071777633307 0.04373731855302771 0.15897487928744047 0.043888543095651614 -0.2435533528327515 0.08532470608809646
1282312000.0 -0.18883811508635964 0.13923366500216586 0.15965059324820255 0.04054663591292078 0.1598460249262968 0.04054930299629136 -0.24285876083932656 0.08561947397508601
1283000000.0 -0.18762382773971298 0.14007085706133746 0.16044228998581203 0.03710366934665475 0.16073840130353723 0.03720524298783796 -0.24210147196776488 0.08612828477450708
1283688000.0 -0.1865121806947927 0.14092003220009858 0.16121938412200199 0.0337617431367757 0.1615820411355457 0.03377163197255364 -0.2410993530402598 0.0868763125085392
1284375000.0 -0.18537659105275905 0.1416662996730073 0.16189668549014083 0.030484381064532995 0.16226345808151238 0.03033127345952051 -0.23993023678805248 0.08769026643275651
1285062000.0 -0.1841392758821492 0.14263699672423308 0.16240882707938517 0.02711067758264047 0.16305382651525593 0.026898476097267917 -0.23873935609717106 0.08897664212425486
1285750000.0 -0.1829884263994412 0.14358660871706028 0.16300571556166074 0.023661152900573065 0.16361464801536613 0.023414774408812535 -0.23753318913539379 0.09008669571278104
1286438000.0 -0.18177619996399955 0.1445174689683869 0.16348925561257655 0.02025266348949565 0.16405161779728347 0.019942029997926453 -0.23623723802548302 0.09202807596085814
1287125000.0 -0.18060425691151147 0.1453739846888714 0.16386819453278664 0.01693320340563245 0.1644441366651505 0.01633787620921947 -0.23499946473421604 0.09410447274784399
1287812000.0 -0.17954616127837225 0.14633662562261016 0.16422234444369838 0.013423259224986718 0.1647470234314495 0.01287032598480109 -0.23404642387106805 0.09626010091613137
1288500000.0 -0.1783961736348632 0.14733572165968697 0.16446545467864435 0.010087922654135403 0.1650196761317956 0.009319695697856274 -0.2331880099039227 0.09856731751191884
1289188000.0 -0.1771814118437159 0.14828718983446684 0.16475924398378405 0.0066235963500197665 0.16502245236449126 0.005774258400191122 -0.23243735531550003 0.1013621390343629
1289875000.0 -0.1760265252504028 0.1491057854961461 0.16486450501988711 0.0032194625171337865 0.16504106301183452 0.002322265265783321 -0.23183110929382653 0.10425747592547353
1290562000.0 -0.1747646387392662 0.15011071995451597 0.1648816504853475 -0.00025646926118327206 0.16491638559599273 -0.0012528050305508158 -0.2318846577270779 0.10711183553458069
1291250000.0 -0.17351218849930733 0.15088713703598966 0.16481365038270565 -0.0037204095195541597 0.16469929526491042 -0.004725738154827185 -0.23182413947921066 0.11000807274595038
1291938000.0 -0.17216938641630333 0.1516409534243784 0.16483419014833062 -0.007142553338112135 0.16435738447367446 -0.008062689842434259 -0.23227214905293211 0.11286446768129435
1292625000.0 -0.17093191331476762 0.15241014467060304 0.1645420805732802 -0.010517272138823532 0.1639613322727776 -0.011490385450723702 -0.23292550663766046 0.11575147106657202
1293312000.0 -0.16970936508284754 0.15299782985034477 0.16424032008767697 -0.014165456525392316 0.16335269298880534 -0.014699905925186862 -0.23371458156478878 0.1184059424151037
1294000000.0 -0.16848105709413477 0.15366038574131377 0.1637683852764784 -0.017508094730203136 0.16289751428635327 -0.017914108686112026 -0.23473568491312552 0.12080094836045799
1294688000.0 -0.1671299993041413 0.1542999234189325 0.16350006705777817 -0.020978682463872786 0.16231413654891744 -0.021270478906987463 -0.23584034278214266 0.12313549378784065
1295375000.0 -0.1659754571854585 0.15447088651739702 0.16295297118833657 -0.02447173932381498 0.16170572080263046 -0.02440626850640836 -0.23708208258951918 0.12505417610123548
1296062000.0 -0.1645696211771446 0.15499593584435095 0.16223283693776286 -0.027758064081581917 0.16108718440886696 -0.027432712166023984 -0.23826880795433317 0.12675591309320727
1296750000.0 -0.16358987060047794 0.15518768016227188 0.16142671740210113 -0.031140492495450974 0.1604045398562884 -0.03059136646263765 -0.2394446445726623 0.12791146644849738
1297438000.0 -0.1623127010562542 0.15529157408165428 0.16049368174914896 -0.034562356980676966 0.1596729247189004 -0.033659450698337805 -0.24058703446539995 0.12896403490010286
1298125000.0 -0.1609697933032973 0.15551875448023894 0.15942654567896167 -0.03786472997969162 0.15893200715484215 -0.036808442398342765 -0.24163001189325925 0.12961682956725729
1298812000.0 -0.15982351453374485 0.15595111269263395 0.1584803477368869 -0.041268848059703586 0.15822748080409596 -0.03999601129179395 -0.2421957198663864 0.12989628528706224
1299500000.0 -0.1586722499569624 0.1558689388960284 0.1572898867640632 -0.044498838444367875 0.15750664376437834 -0.043057077672205575 -0.24256882930379137 0.13000460960997265
1300188000.0 -0.15741758695926428 0.1560967777785892 0.15614410673518453 -0.047617482142374594 0.15669847957682387 -0.04643133711611025 -0.24272161727146055 0.12993865109947864
1300875000.0 -0.15605719668021392 0.1562682533860386 0.15480722872088148 -0.050783078089924494 0.15590010681898356 -0.04967916695893796 -0.24265382685227765 0.12963180942890118
1301562000.0 -0.15503092149037448 0.15631760282591384 0.1535790038680647 -0.053928604340378716 0.15496199578625824 -0.052953694130245275 -0.24195626968116016 0.1294230927482744
1302250000.0 -0.15364723319131435 0.15637577367219857 0.15225315131780448 -0.05688838701317352 0.15392607862348326 -0.05631145702040142 -0.24102819077023885 0.12881808136840647
1302938000.0 -0.15219226349453616 0.1564760965307456 0.1508529813381193 -0.059929183448744205 0.1526645626085886 -0.05961843256549524 -0.23971195928294972 0.12859646979263945
1303625000.0 -0.15080214371005143 0.1567850964431372 0.14944610674549696 -0.06274932967754142 0.15136080780390623 -0.06301285661284758 -0.2380962727563868 0.1281908177150027
1304312000.0 -0.1492779848022509 0.1567143806106381 0.14800308823417116 -0.06568585254319707 0.14991570026876536 -0.06633142582604262 -0.2362474485923442 0.12832541304610162
1305000000.0 -0.14783502494975911 0.15673839548142757 0.1465363620419066 -0.06850351645137885 0.14830317127018708 -0.06962265369651711 -0.23405173724082134 0.1285953296028067
1305688000.0 -0.1460741063231248 0.15680037616825193 0.1450951327620414 -0.0712900384625864 0.14661960012690173 -0.07284690216598944 -0.23171805163903117 0.12913670716964534
1306375000.0 -0.1443357236289212 0.1566894112732383 0.14363113195119606 -0.07411217889461177 0.14469662359665011 -0.07605758583585341 -0.2292951782861536 0.12992911842849697
1307062000.0 -0.14253052905914157 0.1566258082979818 0.14211273400024382 -0.07678792374882634 0.1426980761785766 -0.07905640004697204 -0.22690927819484244 0.1311218247125514
1307750000.0 -0.1408074314170405 0.15642211668266814 0.1405667167067757 -0.07968646389893802 0.14068245773627647 -0.08196100270642771 -0.2243841316117685 0.13267883067521882
1308438000.0 -0.13883760536830528 0.15651550179854992 0.13901428639893862 -0.08240526794705628 0.1385682869079938 -0.08486323208216418 -0.22217007935840127 0.13462604542456716
1309125000.0 -0.13723785614360537 0.1562118422735338 0.1373314282653862 -0.08524300133167194 0.13634353531596954 -0.08748247627913802 -0.2198089694679898 0.13676059699440057
1309812000.0 -0.13547177070223052 0.15592207184825319 0.13552070299802577 -0.08796743641076109 0.1341470075158058 -0.0899856935882747 -0.21790629989845547 0.13919126247390368
1310500000.0 -0.13368940718223987 0.1555853130652296 0.13366674980320348 -0.09082642000455396 0.13195202634974082 -0.09240049638366021 -0.21604215645122107 0.1419816984468863
1311188000.0 -0.13210827383587148 0.1553698244712282 0.1318346745075601 -0.09351942588167833 0.12984984172760458 -0.09479276290471947 -0.21457885521255074 0.14473248294526123
1311875000.0 -0.13063199160603717 0.15484646271613517 0.1299796865810262 -0.09619788872847558 0.12765356401339614 -0.09698523901593861 -0.21336909398456622 0.14768062203822133
1312562000.0 -0.12893327757280199 0.15463909625115502 0.12788547661151037 -0.09898721050402323 0.12555635143251734 -0.09909274986779644 -0.2123634664131425 0.1503980187068544
1313250000.0 -0.12772055351703063 0.15430773293303218 0.1258023040553192 -0.10169774884557087 0.12354773731220027 -0.10120606869153441 -0.21158132091957982 0.1532777578431119
1313938000.0 -0.12655757959452496 0.15402394664101499 0.12352780024983322 -0.10420410223872412 0.1215696345911034 -0.10334730576451327 -0.21098158711409104 0.15602380733576732
1314625000.0 -0.12531039802133398 0.1538858768197965 0.12121778772613283 -0.10680832782386339 0.11967769721314864 -0.1055069795256901 -0.21054340274844552 0.1584566022100452
1315312000.0 -0.12413379244293349 0.15366340010239862 0.11868897562555357 -0.10930093880762166 0.11776139748581292 -0.10757283808684717 -0.2103272309211781 0.16088416590881105
1316000000.0 -0.1231497482587772 0.1535303745655782 0.11630403188143155 -0.11160961208679476 0.1157984839019872 -0.10985192276218446 -0.21021168335572252 0.16281916627558787
1316688000.0 -0.12204210124399545 0.15352241285892576 0.11372372188374011 -0.11394757272023082 0.11375378150065688 -0.11202810019011068 -0.21015921290687647 0.1645594142881862
1317375000.0 -0.12100663209301715 0.15340511942878976 0.11105060196232767 -0.11611088870775649 0.11166355230727201 -0.1143116630738494 -0.21012131678376705 0.16597379995279835
1318062000.0 -0.12001598172322202 0.153353807789109 0.10846788686587834 -0.11815422956579796 0.10945035686111661 -0.1166196458783428 -0.20990562739084512 0.16701355694505052
1318750000.0 -0.11908907198099142 0.15343598016834367 0.10581727606481878 -0.12019713360262906 0.10727922474424144 -0.11904209276268567 -0.20984227710986791 0.1678965200294912
1319438000.0 -0.11807974547844023 0.15343167620333636 0.10324284187134045 -0.1220861344452856 0.10486823390533913 -0.12130733071575629 -0.20938839153766778 0.16822414522496107
1320125000.0 -0.11704114710369691 0.1534864641646455 0.10048180017851366 -0.12402940432049031 0.10234293599715084 -0.12368437184559589 -0.2088037378197687 0.16839012968382336
1320812000.0 -0.11600091052154651 0.15344830526770714 0.09782036001987476 -0.12583913839281397 0.09953930891910912 -0.12599358418655787 -0.20777527311406954 0.1684004351036535
1321500000.0 -0.11500527223308604 0.15333876042598063 0.09513342620949806 -0.12739205276420199 0.096800719466411 -0.12817205286469655 -0.20658159411977445 0.16805662026028417
1322188000.0 -0.11393820945747297 0.15328871307522624 0.0925019557166823 -0.12909387106415718 0.09395026073435092 -0.13026292739506676 -0.20507654793623428 0.16773955747084807
1322875000.0 -0.11285764495899024 0.1530822175768872 0.08970351981466378 -0.1307176499959739 0.09091663613303036 -0.13218798125945092 -0.20316096574220943 0.16758218751449724
1323562000.0 -0.11190348833041107 0.15282202717633897 0.08709795201532435 -0.13229982386057626 0.08777986124886286 -0.134027936191151 -0.20115585964391725 0.1670782181376011
1324250000.0 -0.11103588302002165 0.15244931479832227 0.08443636056787425 -0.13372093565922186 0.08472428540963932 -0.13573290775104124 -0.19870819218986796 0.16687791486682124
1324938000.0 -0.11022591212726193 0.15197222874336155 0.08174038992336125 -0.13523879088984989 0.08152558411823799 -0.1371869938659726 -0.1961490193368879 0.16703637364885
1325625000.0 -0.10937291621075601 0.15154837609159086 0.07902220888352879 -0.13660568536269094 0.07848728938063665 -0.13846779184461025 -0.19331033164225314 0.1672270127773658
1326312000.0 -0.1086656188183302 0.15091879452501789 0.07631499326145466 -0.13804111526934698 0.07541756817624629 -0.13968792114032672 -0.19023929616965524 0.16776022720087977
1327000000.0 -0.10799342038903405 0.15039322632215008 0.07362470103442544 -0.13935472231307475 0.07234568420131322 -0.14066186460890734 -0.18717107536709196 0.16865905815530963
1327688000.0 -0.10742811390962892 0.1496892233729402 0.07083876857321626 -0.1407311732977268 0.06951917003904483 -0.14159952675453014 -0.18416440332031506 0.16989995981433814
1328375000.0 -0.10688246871953722 0.1491358544500284 0.06799936636639682 -0.14190385705429043 0.0665803704410488 -0.14254891665465338 -0.18092662729280878 0.17145703857608158
1329062000.0 -0.10646022634170718 0.14857563904921273 0.06528091734795621 -0.14317761156932335 0.06384087880560878 -0.14327389457176964 -0.17781358375640896 0.17342451565801634
1329750000.0 -0.10586405133036991 0.14803238102606206 0.062371615262208586 -0.1443342727471588 0.061089713352186804 -0.14401775269633396 -0.1750048080926616 0.17550655778412577
1330438000.0 -0.10556954932071859 0.14756593879814373 0.05951422953571163 -0.14551232076425227 0.05845798171942114 -0.14488185214736082 -0.17216936787620793 0.1778805357956936
1331125000.0 -0.105068562436512 0.14722986820928294 0.056489534136950174 -0.1464069073555624 0.055798251458583026 -0.145665548817885 -0.16956691800394702 0.1804417549578218
1331812000.0 -0.10458159681307018 0.1468791947682127 0.053644734851418116 -0.1473251536859728 0.053171399199104165 -0.14646917119993635 -0.167218044259533 0.1831140997820047
1332500000.0 -0.10405847934376428 0.14656148923732748 0.050667350971891956 -0.14830627869465043 0.05056131269067701 -0.14731361760482575 -0.1651316580080225 0.18585617114287104
1333188000.0 -0.1036353547040319 0.14637288726314635 0.04770641184257034 -0.149147505533477 0.04779863096586414 -0.14824167263100693 -0.1633538120942203 0.18870235244409778
1333875000.0 -0.10293753469491719 0.14625184221582774 0.044783017304362384 -0.14991032235866764 0.04502646840541743 -0.1492017538621803 -0.16170579838022073 0.19137102507739948
1334562000.0 -0.10233568590447974 0.14606950969608132 0.041771392180256245 -0.150575375892935 0.04229343516617056 -0.15007740092805583 -0.16040288852985254 0.19388598008066768
1335250000.0 -0.10156491775104413 0.14602727404832455 0.0386486292703802 -0.15115073443709562 0.0393337541900659 -0.15100179739308006 -0.15913138125629273 0.19626765543973215
1335938000.0 -0.10067067052681086 0.1459112713641547 0.03570611644283922 -0.15172952418385646 0.0363056432397747 -0.15186033212770883 -0.15814933943257525 0.19843856570456667
1336625000.0 -0.09984056575205454 0.14572130659325527 0.03267249803794214 -0.15218446958581158 0.033211566649228974 -0.1526260319562013 -0.15726915274993394 0.20014891874722404
1337312000.0 -0.09887640624649081 0.14558584373798453 0.029672954241583463 -0.15251595390384265 0.03007478193616855 -0.1532880343589924 -0.15655503117419073 0.20150433657411457
1338000000.0 -0.09795124207221255 0.14544927524923007 0.026654109818719105 -0.1529352866938268 0.026814117625365806 -0.15387852482805772 -0.155726056874541 0.2027438291320577
1338688000.0 -0.09695217825966418 0.14525984870091282 0.023504086582085474 -0.15319002095649184 0.02352867892066675 -0.15422202475634797 -0.15493231306929767 0.20362498401124188
1339375000.0 -0.09615128299743556 0.14506262584156063 0.02047147254857847 -0.1535107466449285 0.020318301937293864 -0.15455682831619005 -0.15404518407745313 0.2042193963502659
1340062000.0 -0.09523266441516351 0.1447704498874456 0.017512193123858294 -0.1535717316052219 0.01699999257117205 -0.15468574877056057 -0.15307447533117083 0.2044248664439365
1340750000.0 -0.09457039765085062 0.14455412070716173 0.014550844558400052 -0.15387187952821743 0.013797770736056345 -0.15472667858715372 -0.1522571464977647 0.20441409679642863
1341438000.0 -0.09382438723224557 0.14431701096911054 0.01140223606044207 -0.1539382783694427 0.010614133439459512 -0.15461511536834094 -0.15091431876125608 0.20409195565493443
1342125000.0 -0.09305575843093038 0.14410111392538322 0.008531917065106977 -0.15408726722886326 0.007505616272015358 -0.15453567707518923 -0.14968545187403323 0.20365650666595753
1342812000.0 -0.09248115659592294 0.14409702673059718 0.005459368272447577 -0.15416562202774284 0.004380881111485638 -0.15423269009929969 -0.1478709307348968 0.20314277652478374
1343500000.0 -0.0920724613128439 0.14382081259137208 0.0025051871953809647 -0.15413205958322287 0.0013903962429702166 -0.1539271974388799 -0.14617359527571666 0.20250133743700702
1344188000.0 -0.09147909423516061 0.1439241189797687 -0.00047919736368351814 -0.15396121938380242 -0.0014530531509702165 -0.15350407545135775 -0.14434827778701997 0.2018394365209535
1344875000.0 -0.09105128764197938 0.14395495099875663 -0.0035290176762454465 -0.15377855763486117 -0.004266849143694482 -0.15317349052932908 -0.1421574170968013 0.20145688630053593
1345562000.0 -0.09074581605934973 0.14403354886537936 -0.006465864469930702 -0.15361970920258403 -0.007038557594034282 -0.15272982045774802 -0.13990568345273233 0.2010607781780152
1346250000.0 -0.09032685933063447 0.1442641073595807 -0.009534381579886671 -0.153369156602079 -0.009806117046898075 -0.1523658526393463 -0.13753564579100547 0.20071432907528927
1346938000.0 -0.09004699115231977 0.1443925090413885 -0.012434858960130456 -0.15306971435101685 -0.012539230878630283 -0.15204836027678936 -0.13527524252464565 0.20070146562365476
1347625000.0 -0.08954409094233207 0.14461939378190036 -0.015423215992052836 -0.1525635602760712 -0.015183364575319894 -0.1517085733960792 -0.13275074587383914 0.20070499347532067
1348312000.0 -0.0891160531164432 0.14487747643246449 -0.01827920160378724 -0.15212536826083042 -0.0179178446277141 -0.1514042273947165 -0.13010372851632426 0.20104113931709505
1349000000.0 -0.08869478136876871 0.14506111915741216 -0.021249663037736045 -0.15154087415401696 -0.020569235432249793 -0.1511340543011715 -0.1277016940410468 0.20128840361818415
1349688000.0 -0.08820551740995689 0.14527584663054244 -0.02406749736911273 -0.15094646280917642 -0.023304829559038637 -0.15085359056756853 -0.12558759722376325 0.20186702856453168
1350375000.0 -0.0875900980599515 0.1455354010661406 -0.026897646873864856 -0.15014987523593876 -0.026158773256923 -0.15041577089844987 -0.12298458644066258 0.20272771059256534
1351062000.0 -0.08716659095685175 0.1455748031371835 -0.029779573844746953 -0.14952180670980456 -0.028870556407816744 -0.1499634498125256 -0.12069155468715058 0.20360985272396234
1351750000.0 -0.08652873034245112 0.14570755376907432 -0.032503167969275784 -0.1487936466853223 -0.03174073552591199 -0.149520936645607 -0.1187468711922393 0.20460343175762385
1352438000.0 -0.08592088900016309 0.1457005506561822 -0.035207474022529314 -0.1480022744304301 -0.034701269767889495 -0.14895310787206012 -0.11688764136038723 0.20543123916519218
1353125000.0 -0.08547900048495603 0.1455074178601228 -0.037886722095441486 -0.14723502219765722 -0.037566609323982376 -0.14847694882128312 -0.1150646809867412 0.20637200038834355
1353812000.0 -0.08487258809054074 0.14531531384242055 -0.04054114083689621 -0.14644349366397819 -0.04054709653695878 -0.14766610535922248 -0.11331160369075269 0.20736657293356364
1354500000.0 -0.08432046902023037 0.14507766915452303 -0.04312942238767931 -0.14561588839894032 -0.04339540906796423 -0.14686238823727937 -0.11198410820187393 0.20817029851878682
1355188000.0 -0.08373387250237727 0.14477705969107166 -0.04570553922588505 -0.14474890504090757 -0.046356900214428 -0.14585236235957608 -0.11054304019284199 0.20906020236034012
1355875000.0 -0.08330905165291524 0.14438710559414594 -0.0483473367485315 -0.14378710083057966 -0.049148708467107706 -0.144779797030808 -0.10923283854699553 0.20937191205258363
1356562000.0 -0.08283958779020605 0.1439034148572875 -0.050889849591893424 -0.1427788482795167 -0.052042385969738994 -0.14362032556106838 -0.10804136338807063 0.2098662911956992
1357250000.0 -0.08234576037975073 0.14338942390408185 -0.05349707559114305 -0.14179606963268857 -0.05477656696741569 -0.14237446275315613 -0.1069950741897959 0.21007056146063155
1357938000.0 -0.08191507956608927 0.14293662681603883 -0.056065595160991674 -0.14082401179719356 -0.05755611137473716 -0.14106058366239577 -0.10568894052164655 0.20991697846027974
1358625000.0 -0.081493789503637 0.14241527224586506 -0.05865572256114169 -0.1397917389589036 -0.06027814595422775 -0.13965062292308086 -0.10447883001497073 0.20970168661858513
1359312000.0 -0.08106348831966943 0.14192005190607002 -0.061316679601199325 -0.13860765087527172 -0.0627939963015435 -0.1382805882875383 -0.10322681070544427 0.20912682622210352
1360000000.0 -0.08066796455763768 0.1413540050199701 -0.0638709600631311 -0.13748895640285247 -0.06527669667295291 -0.1369631732240814 -0.10187561304651452 0.20846253021199213
1360688000.0 -0.08019784557664789 0.14095070572513443 -0.06655905493647796 -0.13641922937358414 -0.06778895607251526 -0.13548304406925052 -0.10045725327021436 0.20759570594896365
1361375000.0 -0.07970982747769581 0.1404326283794462 -0.06899606664192437 -0.135091139130021 -0.07008572194172655 -0.13409542167684652 -0.09912875811065215 0.20647907460422546
1362062000.0 -0.07914089935955042 0.13986896499612814 -0.07164475662114039 -0.1337706075033214 -0.07240261105470189 -0.13266972534506996 -0.09736616876311335 0.20530702056018024
1362750000.0 -0.0786849231866235 0.13961547538095306 -0.07424308749452088 -0.13246859262280475 -0.07474058382784231 -0.13131250912994766 -0.09567985570120063 0.20411087687703577
1363438000.0 -0.07800687688291687 0.1391405196967678 -0.0767470361108093 -0.1309678421264913 -0.0769884745244232 -0.129882759003454 -0.09371688980872252 0.20279243596518598
1364125000.0 -0.0773665780221267 0.13871190571373607 -0.07940067584666448 -0.12943594082946625 -0.07930497745646452 -0.12836992898411417 -0.09170162136638225 0.2016518055050193
1364812000.0 -0.07666952846299535 0.1382841530559472 -0.08180785033806758 -0.12798326294703288 -0.08156751844476011 -0.127040395314717 -0.08964148318899497 0.20023199004121847
1365500000.0 -0.07585947138864506 0.1378274415274449 -0.08431601835093251 -0.12627345092067238 -0.08380835746489201 -0.1256900023295716 -0.08723852621499338 0.1990512263036553
1366188000.0 -0.0750958753110713 0.13738597829749508 -0.08681119715327934 -0.12471687661571376 -0.0860425701816071 -0.12419477869794353 -0.08495558503825612 0.1980408909797747
1366875000.0 -0.07427874887128022 0.13699990880525934 -0.08921751191095956 -0.1230085330426498 -0.08833825260037274 -0.12264749699711286 -0.08250836504536051 0.19699203272179855
1367562000.0 -0.07342756981389237 0.13650705153444073 -0.09145097697611022 -0.1212050463371804 -0.09075903190375056 -0.12110533204698655 -0.08001668543039214 0.1960360336972221
1368250000.0 -0.07272490744379549 0.13601728935707302 -0.09369512332195257 -0.1193117882674712 -0.09308091458316535 -0.11947841045134246 -0.07768595765288416 0.1953932775089683
1368938000.0 -0.07190648392821887 0.13552792732816415 -0.09599852114872631 -0.11749536972466453 -0.09540650150382596 -0.11780134054171945 -0.07512031545770272 0.19486724874564776
1369625000.0 -0.07123876636711692 0.13505071282249195 -0.09813787644500702 -0.11562825375960423 -0.09773611552992803 -0.11606802764401587 -0.07292628000935726 0.1942172908991556
1370312000.0 -0.07053009742290618 0.13457166841161108 -0.10018960958222578 -0.11368070906203052 -0.10008501666967323 -0.11424593949493159 -0.07061597921426736 0.19370592926268523
1371000000.0 -0.06999576272822092 0.13405746988519138 -0.10225034454025671 -0.11174925482561428 -0.10226611030137293 -0.11240333023081749 -0.06838255442158009 0.193397150784048
1371688000.0 -0.06939881839086341 0.1335377807116726 -0.1043435142836663 -0.10976003604936907 -0.1045669772459654 -0.11036135435849452 -0.06624011924385367 0.19302520314186475
1372375000.0 -0.06892640017584863 0.1331864954872935 -0.10631216503097742 -0.1078593848124217 -0.1067433950352923 -0.10845432832526754 -0.06430411743504225 0.19262525499284175
1373062000.0 -0.06856603895491327 0.13272903137618108 -0.10817807026345908 -0.10590661561828443 -0.10887956147674197 -0.10639582632315053 -0.06215491672714591 0.19227923454503335
1373750000.0 -0.06810497563236613 0.13219017831061333 -0.11018319001425957 -0.10383605211406598 -0.11080831736241603 -0.10426336820872184 -0.0603498147956584 0.1917399652366992
1374438000.0 -0.06786421325437648 0.13185802709583525 -0.1120618646354013 -0.10179057325805746 -0.11285273096336836 -0.10214006192719825 -0.05858041414260702 0.1912400366178696
1375125000.0 -0.06756842646059076 0.13158472986431966 -0.11391608432675585 -0.09975416961049596 -0.11477341647251169 -0.09994171019039297 -0.056812638048063704 0.19052548752703802
1375812000.0 -0.0673641032095334 0.1312578175214865 -0.11567670096992122 -0.09770436524749654 -0.11659870370390879 -0.09766294467448457 -0.05506776054966422 0.1897717567751236
1376500000.0 -0.06714568554583032 0.130933290509838 -0.11748957952550583 -0.09558399838007513 -0.11839792543307293 -0.09541686491231018 -0.05337332121535774 0.18885220313465134
1377188000.0 -0.06714465658199537 0.1306854965465324 -0.11934010007351972 -0.09345089432095564 -0.12014419626530075 -0.09317823336315814 -0.051444123878258904 0.18793154693967473
1377875000.0 -0.06701970225828112 0.13047258691712627 -0.12111599938500692 -0.09122344136750653 -0.12175418239621655 -0.09089968049264588 -0.04969912293686262 0.186936492916277
1378562000.0 -0.06703481489544566 0.13008616207287937 -0.12284434196685129 -0.08911516759117344 -0.12343373223923725 -0.0886640798305269 -0.047926887651144896 0.18563869612905043
1379250000.0 -0.06689157274464577 0.12981619492386898 -0.12461037739222668 -0.08686725124241551 -0.125096851768408 -0.08631261229658489 -0.045884965009375826 0.1844879686933993
1379938000.0 -0.06686873176652064 0.12954313048839586 -0.12642771636623965 -0.08458434569975704 -0.12670126048213748 -0.08401113253079825 -0.04405231017390478 0.1832641281092718
1380625000.0 -0.0667854193044223 0.1291625415632805 -0.12798549988219857 -0.0822979197637746 -0.1282348748339584 -0.08166859238360503 -0.04210623664838188 0.18197544067635732
1381312000.0 -0.06677443397133107 0.1287157873131427 -0.12961698050712278 -0.07997913428919348 -0.12975417328866923 -0.07929037446656645 -0.03997137457568797 0.1805162444830414
1382000000.0 -0.06675834424595925 0.1283982940819414 -0.1312377739160282 -0.07753600607924163 -0.1313397953918815 -0.07692026668389271 -0.03802451568264565 0.17926140012721947
1382688000.0 -0.06672957767486624 0.1279988527219786 -0.1328710254321227 -0.07514486863039141 -0.13289649397453665 -0.07458991770405471 -0.03592283224132219 0.17806494259585115
1383375000.0 -0.06668247873233611 0.127460794578486 -0.13439194389214487 -0.07266295454310957 -0.13432602687637465 -0.07214559975812392 -0.03370143459987752 0.17694593557263052
1384062000.0 -0.06664691494997212 0.1268777154225437 -0.13584642800736677 -0.07014634285195248 -0.13573456285970856 -0.06964714683958355 -0.031706383660723245 0.17567838778336112
1384750000.0 -0.06676634015833757 0.12636539992190518 -0.13725938728681084 -0.06758285181442403 -0.13720747746822698 -0.06730093632547451 -0.029570429793907962 0.17456664090660448
1385438000.0 -0.06669305940858541 0.12575205192770153 -0.13862741324304223 -0.0650157409935734 -0.1385132606779775 -0.06469920443449036 -0.027592744012193537 0.17356813681480382
1386125000.0 -0.06669436415821049 0.12510391809848687 -0.13998234899068493 -0.062344371935483985 -0.1399360731465271 -0.062140536962162714 -0.025634735345034233 0.17256854244733003
1386812000.0 -0.06662812476007156 0.12448814595760656 -0.1412503652104746 -0.05968608011340815 -0.14125623551666847 -0.0595578233793619 -0.023776658808159983 0.17189686911835544
1387500000.0 -0.06668153224521496 0.12389693233506714 -0.14239522367745377 -0.05702326071507662 -0.1425884723423795 -0.057000529124675424 -0.022126567660842082 0.17094696697512723
1388188000.0 -0.0667815048822326 0.12314119254465658 -0.143639580606233 -0.054291209545577264 -0.14377300919430785 -0.05426831320037707 -0.02047167705666017 0.17028319453042912
1388875000.0 -0.06666590918243824 0.12243815695203063 -0.14476234817777284 -0.05158731416124743 -0.1448891091984706 -0.051703728606242824 -0.019122062458954394 0.16953242857059764
1389562000.0 -0.06655630541854085 0.1218249324518401 -0.14581791037823236 -0.04883759239687436 -0.14596736003384841 -0.048858155068780496 -0.017937564025549524 0.16860406479246237
1390250000.0 -0.06652109695402411 0.121095911380323 -0.14673886915059106 -0.04602048914434675 -0.14694158902464158 -0.0459764832937645 -0.01683061282986657 0.1679490329890515
1390938000.0 -0.06646141730232379 0.1204709815534796 -0.14778498160319664 -0.043173144782307125 -0.1480288680232467 -0.04315816097501398 -0.01591008767430648 0.16721053447030615
1391625000.0 -0.06634379367218705 0.11987253316957 -0.1487108300952073 -0.040456681052088564 -0.14891443904314253 -0.0402966040430417 -0.015084462235042645 0.16625545404367928
1392312000.0 -0.06612223644101625 0.1192070467324927 -0.14953168298010847 -0.03741227395262891 -0.14983354181981642 -0.03738607721779632 -0.01457349814438576 0.1651025908867057
1393000000.0 -0.06603515540617408 0.11872436735568917 -0.15037324750880385 -0.03459991692348045 -0.15062826349881148 -0.03446379701362201 -0.013888093324280293 0.16397431586298006
1393688000.0 -0.06587335571677741 0.11820126457870704 -0.15112799799947546 -0.031735429135108954 -0.1514070154366847 -0.031562765021571175 -0.013441781001266475 0.16265554237802926
1394375000.0 -0.06567210663385273 0.11768700997836568 -0.15176459692757405 -0.0288707711665046 -0.1520285418689012 -0.028583380426874364 -0.013012214827312733 0.16109500598035068
1395062000.0 -0.0653555156179506 0.11730980217380597 -0.15240702136562678 -0.025995505946363007 -0.1526407377184759 -0.0256375582548496 -0.012610409715788666 0.15957797832620782
1395750000.0 -0.0651710015707596 0.11685536412128568 -0.15295464772408027 -0.023107099116006558 -0.1532633045878164 -0.022602542602137277 -0.01220336417489306 0.15789439447148781
1396438000.0 -0.06488158145671066 0.11646913360510742 -0.15356710734409632 -0.020082188113578186 -0.15380925921351965 -0.019581578239153394 -0.011597994858415762 0.1559664245963735
1397125000.0 -0.06458715984301559 0.11620295023623349 -0.15404386898688383 -0.017080420440103456 -0.15423761915533613 -0.016676066627572515 -0.011173002335396889 0.15393669759282042
1397812000.0 -0.0642694101112758 0.11597220558735803 -0.15449356454276283 -0.014150281098461939 -0.15456480934450373 -0.013629504337446542 -0.010517222175540358 0.15186604477594368
1398500000.0 -0.06386992585958155 0.11575993344364405 -0.1548562475318457 -0.011047611943997865 -0.1550036539379611 -0.010647567650867402 -0.009652227835256454 0.14977069430926745
1399188000.0 -0.0634856000774629 0.11565698637838887 -0.15524850261577447 -0.008081647753098374 -0.1553132215055974 -0.007631185956952513 -0.008814752277845103 0.14769869333387142
1399875000.0 -0.06321320083823632 0.11558994874211556 -0.15545731415074204 -0.005090680127113505 -0.15552406411692452 -0.004630357811413681 -0.008049383002839503 0.1454424272573114
1400562000.0 -0.06290728545616381 0.11552198962976849 -0.15571543762939966 -0.002031455916944201 -0.15572926180073254 -0.0016170271692401922 -0.006802293081169896 0.14336374333695864
1401250000.0 -0.06256898337418733 0.11549851184728137 -0.1558910133062 0.0009705894273895087 -0.15588482330814468 0.001441334431002178 -0.0055632685690861486 0.14144058023510186
1401938000.0 -0.06212328232887746 0.11560777782831876 -0.15605654509900518 0.00417561358522964 -0.15594670846883074 0.004353666891389862 -0.004517767090625363 0.13966967217670828
1402625000.0 -0.06188912905690792 0.11551437590724714 -0.15609372485163175 0.007208641978897551 -0.15585536345145712 0.007433400359398431 -0.003238474880281065 0.13779656775964214
1403312000.0 -0.06165304418935357 0.11552540871822282 -0.15594414056493244 0.010223246983891885 -0.1558670491167421 0.010440070613973791 -0.0018732485184092082 0.13604405896525984
1404000000.0 -0.06150513218106313 0.11550692020321136 -0.15594936468792508 0.013402930407066504 -0.15574850958299194 0.013420659568105805 -0.0005369858062371601 0.13480493893789472
1404688000.0 -0.06119482826704151 0.11566832828760508 -0.15579663761346677 0.0165364401444632 -0.15567424806491473 0.01650736396106969 0.00045024027575497183 0.13335689920346872
1405375000.0 -0.06109638610214504 0.11566544677752626 -0.15560793521950017 0.019609695847429554 -0.15546616071275388 0.01943389674032075 0.001618519619963184 0.13208457244006822
1406062000.0 -0.060983977687645914 0.11589275021663734 -0.15526487887849946 0.022592944588763837 -0.1552112056543722 0.02261937377689611 0.0025159291231221887 0.1309962606266743
1406750000.0 -0.060995081371907026 0.11589370962498817 -0.1548943947073934 0.025660773617120724 -0.1549557580053846 0.025678491453735807 0.0031721325031498398 0.13005843686746305
1407438000.0 -0.06090708512526773 0.11604715653877774 -0.1545159421265006 0.028847219665892185 -0.15460735161768113 0.028690256588423533 0.0036886563310811766 0.12927867163970916
1408125000.0 -0.06099651994844325 0.11613275190468896 -0.15407659801251863 0.03180065192821417 -0.1541240386162227 0.03175180074452949 0.003999853267872625 0.1281422908438043
1408812000.0 -0.061082838859654216 0.11626534853950601 -0.1534706297881633 0.03489229142264836 -0.15360842211590037 0.03486642676178587 0.003998973212923524 0.12732771729135048
1409500000.0 -0.06115196712228752 0.1163769883882552 -0.15270752019281925 0.037892054580573604 -0.15305283173599424 0.037888057753312825 0.0036756568277290093 0.1263169107885062
1410188000.0 -0.0612551666435534 0.11655401470993035 -0.15205942597034183 0.04092921565949479 -0.15246238356346128 0.041041325036459464 0.003333564024904109 0.12539307626252605
1410875000.0 -0.061501332985979866 0.11678375107388829 -0.1512415816922932 0.04391784283883064 -0.15173934408005846 0.044182576217659426 0.002643456045860134 0.12418650708079587
1411562000.0 -0.0617062090718762 0.11694106359335889 -0.15051280701600567 0.046940620845447714 -0.15091262292197286 0.04720905674837619 0.0018127797042128617 0.12288087267542341
1412250000.0 -0.061856703165821245 0.1170707824728888 -0.1496210414828449 0.04985362976856762 -0.15003484539217854 0.050284272706265995 0.0008702059543447789 0.12116615121042837
1412938000.0 -0.06197767971201042 0.1173393901432117 -0.14856964829522282 0.052803220437819695 -0.14914471687311953 0.053302566364549955 -0.0001514143639178917 0.11958876791127217
1413625000.0 -0.06209235976108413 0.11746929678210952 -0.14769838848328812 0.05570145778743844 -0.1480916643437974 0.056353649080697614 -0.0015576988398026707 0.11768642333379853
1414312000.0 -0.062159934407075505 0.11771982510707969 -0.14660244608061962 0.05861216366103829 -0.14699215982355202 0.059293054003230684 -0.0026976437510989474 0.1155774819179955
1415000000.0 -0.0623195530016943 0.11793521787189513 -0.14549663886336098 0.06152918708210177 -0.1457300948148051 0.06232249467616046 -0.0036189543670172835 0.11317642364371637
1415688000.0 -0.06232209276599296 0.11805513030514028 -0.1443621202824841 0.06437485455428707 -0.14447512220884315 0.06518279959342253 -0.00479639205472448 0.11084922976571508
1416375000.0 -0.06219304678018367 0.11822212378595531 -0.14308381051615227 0.06737673735807166 -0.14312526958130656 0.06809900097695841 -0.005745522860697268 0.10830268238492866
1417062000.0 -0.0621838062722366 0.11828762687787449 -0.1418713913860522 0.07014091718835014 -0.1417606670558991 0.07094113730618036 -0.006376217969892099 0.10561825772725138
1417750000.0 -0.0619885654775588 0.11835686789135712 -0.140601694426652 0.07309219338816743 -0.14027465923007673 0.07377432258512895 -0.006816471193055354 0.10303987801437736
1418438000.0 -0.06177773686895358 0.11844036188062007 -0.1392316279152694 0.07593073952107739 -0.13888716356615047 0.07662235711384983 -0.007307524553712403 0.10026799697445135
1419125000.0 -0.06153901423871734 0.11838858715213435 -0.1378846980600135 0.07880875687455789 -0.1373698492417314 0.07942616921315544 -0.00734486961354655 0.09767867927062543
1419812000.0 -0.06130660269956748 0.118307895517051 -0.1364691926026338 0.08171300168303298 -0.13587858267078257 0.08220253384533162 -0.007072107699976748 0.09510816603649876
1420500000.0 -0.06107199066739983 0.11824532223612164 -0.13488676729862312 0.08445681543394236 -0.13422680339019627 0.0849247533723011 -0.006813999906778653 0.09283671430609114
1421188000.0 -0.06072635924346835 0.1182739507842415 -0.1332647958621554 0.08731076843655843 -0.13259916485995857 0.08767004067452346 -0.006150243253573465 0.09045391544648891
1421875000.0 -0.06046206884825116 0.11822681203710654 -0.1316706660859728 0.0901429220622412 -0.13097124526334103 0.09025834574968106 -0.005384355182765896 0.08842123475017309
1422562000.0 -0.060022475447556865 0.11808516000639137 -0.129869218465183 0.09284520253932899 -0.1292123140744221 0.09294937908681725 -0.004587221458235533 0.08662976313414171
1423250000.0 -0.05989609452385046 0.11803740380160402 -0.12810387666470768 0.0955831189996894 -0.1275626188383557 0.09551701302665357 -0.003535431232224224 0.08513601270233016
1423938000.0 -0.05947644579637143 0.11811046832947711 -0.12613741128921063 0.09827257664938586 -0.12574294190588559 0.09821871092168989 -0.002367758953121139 0.08369068294789091
1424625000.0 -0.05913666410282167 0.11820184007009166 -0.12421635374331119 0.10102416692302701 -0.1238293568413241 0.10074427447444455 -0.0016500242852156395 0.08277249500767649
1425312000.0 -0.05881294032205021 0.11828795643626909 -0.12219155536516652 0.10351062496224828 -0.1219201495661585 0.1033101477700338 -0.0006855074409825691 0.08216990478727888
1426000000.0 -0.058349824777878874 0.11849711744569763 -0.11999696467322085 0.10607536794465344 -0.11999679785166906 0.10586784856119641 0.00016546390786663622 0.08165570054594322
1426688000.0 -0.057961186540121605 0.11873691588581356 -0.1177128148903877 0.10858214260733583 -0.11794763203578595 0.10821547129185258 0.0005726447918831224 0.08137461771478254
1427375000.0 -0.05743340028759598 0.11914489024747114 -0.11545773187153002 0.11091584841370877 -0.1157931605965695 0.11065738338954109 0.0009038336825251757 0.08137373775672298
1428062000.0 -0.056942563079485684 0.1195499245864148 -0.1131567990445334 0.11319805753564666 -0.11352385001188632 0.11303123177690073 0.0010276237136605357 0.08130518918629442
1428750000.0 -0.056364764740986305 0.1200370563725003 -0.11084402472460163 0.11544603111228025 -0.11133572255469126 0.1153450171338534 0.0006459513886104573 0.08148312422302849
1429438000.0 -0.05574111069025574 0.12049636116385719 -0.10853627498476197 0.1175857148714255 -0.10894716409014947 0.11765814919525128 0.00010769697065946324 0.08187605298937038
1430125000.0 -0.05501678306455899 0.1209956861771658 -0.10607656667190186 0.11962102468576513 -0.10660903668463649 0.11982685468486692 -0.0006552733854059365 0.0818295265961282
1430812000.0 -0.0542921243064532 0.12157313484313148 -0.1036528763318776 0.12174893618666498 -0.10412850205145002 0.12196117793481318 -0.0018582866389608222 0.08195197590165315
1431500000.0 -0.05352495574034537 0.12214226988722349 -0.10136599081083933 0.12365488447515335 -0.10167655404935072 0.12412336358635923 -0.0031771249747653864 0.08193601201575897
1432188000.0 -0.0527120373106443 0.12269299547792999 -0.09892137225652782 0.12562818166669643 -0.09913218675441256 0.1261486899239866 -0.004834061153265828 0.0819088641687395
1432875000.0 -0.05199958368289119 0.12324082369446446 -0.09651987250491015 0.12737476890916344 -0.09664442942093429 0.1281026465269514 -0.006522502801182633 0.08159056572381287
1433562000.0 -0.051287329247168965 0.1236899912493484 -0.09403475146353281 0.12915554904084647 -0.09408284068052661 0.12992400684205255 -0.00846493803098351 0.08102403005314368
1434250000.0 -0.050535596033649946 0.12421391572176596 -0.09159422127342651 0.13092365755944063 -0.0914513663044563 0.13175639237313488 -0.010417369396198558 0.08037747990621455
1434938000.0 -0.04990117683035785 0.12463203974253514 -0.0890884061288401 0.1326711260731129 -0.08890277248914037 0.13350142349120164 -0.012428923836109641 0.07955418221043369
1435625000.0 -0.04918869771486478 0.12510496191840276 -0.08668140063382825 0.1343838973013043 -0.0862746939051221 0.13519551375797775 -0.014160461738869347 0.07836778152596127
1436312000.0 -0.048562155681753524 0.12550028688182557 -0.08411665185715944 0.1360446233288551 -0.08357890345087617 0.13688568379327262 -0.0160290083641947 0.07706945245997357
1437000000.0 -0.04809299760812606 0.12593615238429318 -0.08134756767710374 0.1377323358263579 -0.08090817110635909 0.13848201633860155 -0.017268510732401206 0.07583400956588013
1437688000.0 -0.04763663625434001 0.1261802943670025 -0.07884017328608396 0.1394655794948944 -0.07816593873176017 0.1401143344235538 -0.01853311228726575 0.07436735595102269
1438375000.0 -0.04717870033612449 0.12654916324106918 -0.07606156265782021 0.1409671288920809 -0.07548911760083399 0.14158275261750156 -0.019548959208118097 0.07296010102942839
1439062000.0 -0.04679932607281858 0.12684831399463942 -0.07333099454213131 0.14264012763007342 -0.07262156508035364 0.14310472812843167 -0.020249026715234087 0.07158952717610481
1439750000.0 -0.04641314273890058 0.12726519048661525 -0.07045169523777149 0.14425934218693073 -0.06984024092177812 0.144484506692701 -0.02063902083346944 0.07010879049981106
1440438000.0 -0.04613105915292298 0.1276211955092996 -0.06769072398455564 0.14578841349132096 -0.06697743833487038 0.1459044420414948 -0.02077945797101733 0.06891656274590592
1441125000.0 -0.04580947323767552 0.12799056445914092 -0.06472520671778145 0.14726555854609025 -0.06415425949458546 0.14724756335387879 -0.020605211114699946 0.06773714455468183
1441812000.0 -0.04549047795058731 0.1282567471364165 -0.06179638956785732 0.1486643324575918 -0.061180676152459826 0.14851452740611076 -0.020167232335094386 0.06673061396375951
1442500000.0 -0.045096383437075074 0.1286876240683865 -0.058741520385934255 0.15002283819274742 -0.05831401911711989 0.14982870164930043 -0.01963576451957052 0.06617763700775041
1443188000.0 -0.044800669604159425 0.12909842918887096 -0.05567954589196754 0.1513132931236731 -0.05535904794092503 0.15109058323231175 -0.018907967889282628 0.06574863018820568
1443875000.0 -0.04431319382682368 0.129329970109066 -0.05260820223603257 0.15245646524472906 -0.052401434213781684 0.15219200576741784 -0.01821675313600051 0.06545793315427918
1444562000.0 -0.04386580419613372 0.12969646481509572 -0.04954370617132148 0.15364512627914972 -0.04928691434238901 0.1532910294981822 -0.01743711269438444 0.0655791662576749
1445250000.0 -0.04329787696399812 0.12987364251588088 -0.046384584914340735 0.15455531451431875 -0.046230138728617254 0.1542764205365207 -0.016774199560412973 0.06601765581679886
1445938000.0 -0.04275852174439807 0.13008052342958312 -0.043356957202937835 0.15543958234438332 -0.043182925963956995 0.15525687120978482 -0.01611612953382542 0.06650143641214376
1446625000.0 -0.04212132619522503 0.13012620626023347 -0.04017295620133732 0.15628111394761707 -0.040135650962091554 0.15613104118686674 -0.01566232998727492 0.06732193981761168
1447312000.0 -0.04148936452893791 0.13012490938567686 -0.036974112412451514 0.15699853572294103 -0.03705377242840757 0.15691277738135828 -0.015505101229064098 0.06831044244376078
1448000000.0 -0.040675228827116716 0.13004428780445887 -0.033931527580985325 0.15762429791009244 -0.03381867691177842 0.15773540024225952 -0.015408801206017972 0.06927761189100454
1448688000.0 -0.040064063786445725 0.12989900166323246 -0.030805605563255747 0.15814844508878026 -0.030770012172778312 0.1583786681853876 -0.01585771909663895 0.07062072103525897
1449375000.0 -0.03931312444576803 0.12969288515352384 -0.027663128176259027 0.158669256071319 -0.027539349209449393 0.159009225155082 -0.016482820907993426 0.07177528824458886
1450062000.0 -0.03863657777068095 0.1294257408933645 -0.024526778188757092 0.15903457680163122 -0.024476578518222058 0.15959328767538697 -0.017439942868527795 0.0728889098049981
1450750000.0 -0.03784522956594016 0.12902393540324653 -0.02141991461522022 0.15954272007223505 -0.021306080601622167 0.15989114744097546 -0.018691445411021763 0.07403644830481831
1451438000.0 -0.037115448337409644 0.12860097155705066 -0.01832934841068506 0.15985344149748767 -0.01815029494086496 0.16030214165654705 -0.02023367188976087 0.07499085283507753
1452125000.0 -0.03644373295744754 0.12821834228481893 -0.015216906738527226 0.16022503726991227 -0.015040064468799805 0.16066617074077089 -0.021933876363711635 0.07588716778500888
1452812000.0 -0.03580417408666361 0.12788819878392654 -0.012194617897408099 0.16058684815961113 -0.011899358525625518 0.16090780193200835 -0.023942684165927968 0.07646210601783221
1453500000.0 -0.03509772450811377 0.12745384889000605 -0.009153381817286225 0.16074477444620913 -0.00874577184216591 0.16109872482463172 -0.02599966676387618 0.07684174293710211
1454188000.0 -0.03432195374278572 0.12715946433871278 -0.005969789154263411 0.16102212691951967 -0.005498344955194486 0.1611974206560488 -0.02813005880449955 0.0769745941036092
1454875000.0 -0.03374567480609212 0.12676564050270897 -0.0029127302044130547 0.16114532384214472 -0.002393842402340018 0.16130363082757573 -0.030238576861165167 0.07692362758293628
1455562000.0 -0.032981886105321837 0.1263025791914224 0.000247664038453971 0.16122249903135075 0.0007011155293143135 0.16126569739280003 -0.03218481907564415 0.0766377264595061
1456250000.0 -0.032329211988014396 0.12613189979256825 0.0034336228988746894 0.1612747368689826 0.003862586641737701 0.16123404599191948 -0.03411071435723554 0.07603400054900039
1456938000.0 -0.03155740558525283 0.12585852616836113 0.006564396802291576 0.16121649090033516 0.007047603988985284 0.16108713203499594 -0.03582959064538786 0.0751385284619871
1457625000.0 -0.030843071052931693 0.12568568375387604 0.009811600256483364 0.16119705046666183 0.010242205196986244 0.1610192659423967 -0.03718275534863914 0.07440084386639877
1458312000.0 -0.029945235796627032 0.12548042257173844 0.013074135535153011 0.16101965065116622 0.013358339977649849 0.16088397319425818 -0.03841099323527478 0.07337985602634986
1459000000.0 -0.029216065744251854 0.1252425206395604 0.016277330124556587 0.16087993862965982 0.016619438056672417 0.1606752968962384 -0.0394869604977114 0.07229800627226582
1459688000.0 -0.028277091953586103 0.1250365624958323 0.019634686717708155 0.16053783718742962 0.01976934729054227 0.16039524440221134 -0.03988415776608393 0.07112742587953559
1460375000.0 -0.02733592200046739 0.12479910021192483 0.022829988503112433 0.16010542229200087 0.022967326609160024 0.160073638560838 -0.04028811150560063 0.07001087470063239
1461062000.0 -0.02646924081080965 0.12459682383637731 0.026066084866629056 0.15966054924046405 0.026139511055365387 0.15964824083952206 -0.04042704872790846 0.0690147621256365
1461750000.0 -0.025506944620404107 0.12429344820168056 0.029310456607572626 0.15902272429603784 0.02941064736516545 0.15921488216441895 -0.0400593160184819 0.06820381838015184
1462438000.0 -0.02460184140430186 0.12389606477091247 0.032540555801063374 0.15852650538222815 0.03256934851489126 0.1586547549144533 -0.03971895800178214 0.06751780489242075
1463125000.0 -0.023778179967566645 0.12347434930041945 0.03568834375026885 0.15788137961297594 0.03565852549068727 0.1580734823038289 -0.03904906884916968 0.06682800423924688
1463812000.0 -0.022942718587707734 0.12307808071096528 0.038816406960912216 0.1571701122681873 0.03889625350098358 0.1574542393278772 -0.03841931411970905 0.06640233989060576
1464500000.0 -0.022215820927980714 0.12262619240965003 0.04184017391738104 0.15635514005307363 0.042048456729541425 0.1567846208580818 -0.037615515779337486 0.06643842727797819
1465188000.0 -0.021499992773429524 0.1220348996084224 0.04497430721420433 0.15555472651099028 0.045086193256353366 0.15593543572896423 -0.036844047626203774 0.06631411652145854
1465875000.0 -0.020995861482435325 0.12154173777665352 0.047967582197753045 0.15467224957343004 0.04810327664839983 0.15510948140209996 -0.03609429712057939 0.06657158712178647
1466562000.0 -0.020407827649465908 0.1209809134260632 0.05090641212438734 0.1538869549371261 0.05117435708043383 0.15410644553974553 -0.035398282442229374 0.06711585152242075
1467250000.0 -0.01982650346492173 0.12038720644466892 0.0537617911754634 0.15284941951040304 0.05422857712816738 0.15321265818735008 -0.03489155636467862 0.06788550243242493
1467938000.0 -0.0193672669603046 0.11967421061555687 0.056713898178003444 0.15190289421265127 0.057262101722560674 0.1520722270222774 -0.03462207733081247 0.0686539258307323
1468625000.0 -0.019158849233747936 0.11900223132784116 0.059637367661219264 0.15087417952453763 0.06028409391795327 0.1509764126974614 -0.0343020151237325 0.0693596264788799
1469312000.0 -0.01887446531658488 0.11826513692651587 0.06260724561399372 0.14970712813436793 0.06328599733318864 0.14974703984832582 -0.03447963591134511 0.07022142532353093
1470000000.0 -0.018671416137542206 0.1175634236255368 0.06551310904830134 0.14860045900212288 0.06622665092716414 0.14851189708699353 -0.03479561432370131 0.0710841496625557
1470688000.0 -0.01857843971647528 0.11689303921193117 0.0683558241234678 0.1473856671681161 0.06910823315195085 0.1472142403089177 -0.035513724262949596 0.07200152498472667
1471375000.0 -0.018442089535545287 0.11630637560846475 0.07132927378347427 0.14616066234871894 0.07203638582203911 0.14580799595483723 -0.036193517452746425 0.07251368635479123
1472062000.0 -0.01834470876269694 0.1156408620064235 0.07429089501978792 0.1447337552921451 0.07489608742767521 0.14441291714803167 -0.03698936243037534 0.0731750565103903
1472750000.0 -0.018244353449698866 0.11492294718478098 0.07720694343778954 0.14333050203408454 0.07771412520721303 0.14291165264105904 -0.03815233963364457 0.07354981065412101
1473438000.0 -0.0181838196303358 0.1143260717833504 0.08009871425461032 0.14196267088646677 0.08057613742773787 0.1415022486411191 -0.03919132350544226 0.07379529875687141
1474125000.0 -0.017945239972872222 0.11359105803154008 0.08290373807878856 0.1403802619849897 0.08331932380051976 0.13987133604073562 -0.04029692228007258 0.07363279944679932
1474812000.0 -0.017683397354155056 0.11296079195896279 0.08582477140363852 0.13867870490819637 0.08610430098978444 0.1383407647900965 -0.04109367618380035 0.0732219178986884
1475500000.0 -0.01747682709492006 0.11213899581584842 0.08859957213457884 0.13704320347061302 0.08876213645686332 0.13668000860409707 -0.042261712910843206 0.07268294547115331
1476188000.0 -0.017217566857096904 0.11139719806885523 0.09148878432097862 0.13534573159187707 0.09141423751636413 0.13498484775257272 -0.04313384845608733 0.07187173239590346
1476875000.0 -0.016906576146491145 0.11058801299552634 0.09429457680593213 0.13351914442205712 0.09419722927125578 0.13325725742422598 -0.04352323203600102 0.07071564916996
1477562000.0 -0.016668935052236527 0.10960546089187312 0.09712514819314262 0.13162584998530688 0.09682918939130054 0.13136648308766802 -0.04403821460307285 0.06962625599417921
1478250000.0 -0.01621382932769233 0.10866583185453946 0.09977623132722141 0.12956774658382406 0.0995197251774649 0.12949401654819873 -0.04431539149546953 0.06826076676751512
1478938000.0 -0.015907533439564366 0.10776235855881974 0.10241595535614265 0.1275498124510626 0.10212441988744353 0.12747407301102426 -0.04421332038023998 0.06695119186855407
1479625000.0 -0.015600435773932286 0.1068071046080041 0.10503417825698377 0.12538439874654297 0.10469821906511996 0.12540664052832765 -0.0437722717009827 0.06544765129005865
1480312000.0 -0.015284927604576073 0.10561274948842699 0.10742450093841595 0.12324316321256856 0.10732174042237953 0.12322681174298536 -0.043365613941689224 0.06421543004421264
1481000000.0 -0.014956723306714272 0.10463444591691708 0.11002394603977174 0.12104262922792464 0.10981887671356533 0.1210743315194799 -0.04249737486404501 0.06281242039923199
1481688000.0 -0.01461657433314791 0.10368165412795972 0.11242236287597164 0.11879372714310239 0.11230642001723608 0.11883092266887194 -0.04152871636014935 0.06189565747458273
1482375000.0 -0.014333039322773907 0.10252408230257644 0.11481003406914463 0.11641933998075156 0.11475670715079749 0.11666618641137534 -0.04042698011187595 0.06085740552528372
1483062000.0 -0.014001811545578282 0.10153140724678446 0.117183953915083 0.11420656690761237 0.11721702207634552 0.11427605202396192 -0.03909852605574884 0.0599592650210976
1483750000.0 -0.013717399537325778 0.1004373701254611 0.11953018502004645 0.11183157766729607 0.11964734501838498 0.11205909439858394 -0.037788228211677995 0.05974732762312136
1484438000.0 -0.013445643036646597 0.09941763882459893 0.12163559885150217 0.10946488623602321 0.12200321471184232 0.10958738536773124 -0.03645117346099254 0.058876852216738766
1485125000.0 -0.01320243866716649 0.09843066321887142 0.12384118771323059 0.10696292784636283 0.12419597088596215 0.10726839520070593 -0.03494298049054104 0.058713591309491504
1485812000.0 -0.012877468056493044 0.09748249201550256 0.12584464796474848 0.10446098464287536 0.1264010094294248 0.10470480285907072 -0.0335337037522072 0.05859531842007934
1486500000.0 -0.012655016415112144 0.0965511771628783 0.1279786038342452 0.10207062830201018 0.12846315240508085 0.1023806553104183 -0.032403755484864565 0.058905487515203594
1487188000.0 -0.012348343387882613 0.09572541637815052 0.13004284313617917 0.0996773119962094 0.13047100658588165 0.09980027248619186 -0.03128045726753329 0.059263908105159475
1487875000.0 -0.012102726762696506 0.09496482967557986 0.13211942182434575 0.09713680650259046 0.13249791937434519 0.09730919207116538 -0.030350889233313017 0.059567410727845244
1488562000.0 -0.011886639472379786 0.0941821619841962 0.1339182483100944 0.09460466768842195 0.1344355468073459 0.09472842016380931 -0.029561843134374686 0.060322476100151325
1489250000.0 -0.01161836298864787 0.09334334356753515 0.13582327771745367 0.09205837740732296 0.136329562001402 0.09209271200172407 -0.02899118348272076 0.06091219680791279
1489938000.0 -0.011369034623231399 0.0926574316504492 0.1376513494345892 0.08952113485921052 0.13827728944052206 0.08943936113871315 -0.02873826290115842 0.061472899969214234
1490625000.0 -0.011148828529845724 0.09189272721964697 0.13946457901812315 0.08685258564400285 0.1400654624140875 0.08668022204075605 -0.028564885711524733 0.06186435960332859
1491312000.0 -0.010978385220127687 0.09130268711702284 0.14117797588636 0.08421104075527398 0.1418089061015387 0.0840789392759609 -0.02874725662571672 0.0622125813790267
1492000000.0 -0.010693925729538572 0.09049874548572664 0.14299000553847513 0.08148656297979606 0.14346997081677973 0.08117330614568923 -0.028748223313740242 0.06257094994235755
1492688000.0 -0.010488604424253624 0.0897862538123771 0.14460745865323985 0.07873835712708557 0.14513484407992833 0.07835634173367588 -0.029326948088225557 0.06269757572916713
1493375000.0 -0.01037925594179983 0.08917654678888384 0.14618261666676147 0.0759465514256886 0.14669552341478004 0.07557908570621646 -0.029661753597232828 0.0625028789770383
1494062000.0 -0.010194679503795647 0.08842966437334839 0.1477827729960551 0.07321019906479022 0.14824189461223836 0.07260846974434146 -0.030356258482156562 0.06250090061164412
1494750000.0 -0.010140132383737522 0.08773115950738232 0.14945404336688747 0.07029686886659899 0.14982643282628316 0.06974319067717483 -0.03089545195078132 0.06201062242216465
1495438000.0 -0.010085735519197704 0.08704203688563793 0.15087241909415833 0.06749208979079584 0.15119134955571095 0.06671979991606491 -0.03174855565087903 0.06130360756604176
1496125000.0 -0.010013905840690852 0.08630086983579632 0.15229733141731597 0.0644803402910807 0.15261659063233826 0.06371810253088975 -0.03216854195466462 0.06047942925245453
1496812000.0 -0.010012565871141778 0.08550240300600676 0.1537875057749139 0.061462150014222984 0.15396363914973746 0.06071035456863707 -0.032401127813909136 0.05952771468389798
1497500000.0 -0.01004279912357283 0.08470973676138543 0.15511963143638013 0.0584185580234277 0.15527198624126803 0.05763124016405309 -0.03269316357712273 0.058325239177488115
1498188000.0 -0.010144866570545474 0.08393183414521307 0.15639937716874996 0.055177382610897496 0.15640533379357716 0.05454003385920147 -0.032807540232795813 0.05715210593929383
1498875000.0 -0.010349372315060867 0.08307409877700642 0.1575783987254393 0.052153646163603275 0.15751912783118724 0.051480068050934726 -0.03283490149685236 0.05600685390618466
1499562000.0 -0.010387982610768379 0.08224007165092379 0.15873295775345514 0.04885926811484142 0.15858048541768144 0.04832969448898457 -0.032778613091980664 0.05480975115809314
1500250000.0 -0.01073741932835012 0.08132466762434772 0.15982873587846702 0.045660267472363375 0.15955211982829323 0.04509271285003936 -0.032367473944474826 0.05374751255208624
1500938000.0 -0.010933160939198579 0.08040475976237534 0.16081246276246794 0.04225801716627943 0.1604853773328129 0.04198014175098788 -0.03175608482752101 0.052652583685735645
1501625000.0 -0.011281929833119889 0.07950942670992346 0.16179468059189597 0.03886935791397607 0.16142076445725592 0.03875775006578687 -0.03132417809147513 0.051709743566609706
1502312000.0 -0.011535637668222905 0.07859659279736987 0.16264987183954518 0.03553717259638042 0.16223203552707266 0.03546357048002954 -0.030882037930324843 0.05104977750580407
1503000000.0 -0.011827246325373348 0.07770270087116747 0.16345470157152317 0.032162138076515426 0.1630970288853343 0.03224562630596598 -0.03011969037925975 0.05040546818777519
1503688000.0 -0.012211883724129692 0.07676578788053741 0.16404187583360075 0.028691082626729977 0.16371209236882525 0.028854823898963326 -0.02945068729441432 0.04992103836668858
1504375000.0 -0.012501122634000562 0.07576934772571357 0.1645935046341661 0.025228416244565895 0.1644261903845899 0.025503954691198576 -0.02910421434296701 0.04979633448028516
1505062000.0 -0.012774911486967152 0.0750190360046105 0.16520841164262332 0.021816579106493136 0.16491565229236954 0.022177218466601062 -0.028668797097232572 0.04964587181313459
1505750000.0 -0.013052500865209564 0.07415169115306165 0.16556633702355153 0.01836811300665259 0.16558303110167055 0.018722230540742197 -0.02851408527052275 0.049516984415301266
1506438000.0 -0.013365784264431888 0.07324594901429145 0.16593023208051555 0.014875759041946757 0.16603794761900428 0.015213815245807501 -0.02814748725993099 0.04955493960762236
1507125000.0 -0.013576912717017985 0.07243300591764215 0.16629695163735056 0.01158675532893134 0.16639768567659313 0.011732514279983947 -0.02828643466806796 0.04976292653287948
1507812000.0 -0.013743536450612437 0.0716428525677861 0.1664344245006247 0.008213311511890021 0.16678551075314077 0.008283984747844308 -0.028602641200694497 0.05015556717962847
1508500000.0 -0.013802498355415659 0.0707421695315471 0.16653244943121276 0.0047115733425647545 0.16686708899569125 0.0048820253429550705 -0.02887575727473548 0.05021392363504469
1509188000.0 -0.01397299289350421 0.06993826524964308 0.16644634168071837 0.0013580664864871425 0.1669929169053123 0.0013747760154311918 -0.029690781734719045 0.05031532514632747
1509875000.0 -0.0140951476298496 0.06916001185714793 0.1664464016204239 -0.0019996724463356083 0.16707359043402176 -0.0020028017044662373 -0.03060966099250934 0.05045496972070151
1510562000.0 -0.014076222003701885 0.06836199749066514 0.16640553446746095 -0.005389709206918658 0.16691043797433416 -0.005508342326525932 -0.031528287250669744 0.05053771397052244
1511250000.0 -0.01395799772399474 0.06755162114294486 0.1661187182913633 -0.008627854840546872 0.16685152526081976 -0.008915842139356069 -0.032699074548320176 0.0503916619938239
1511938000.0 -0.013940347249040043 0.06667066581852253 0.16578430283630607 -0.01202645556723328 0.1665682798061349 -0.012356818871076897 -0.033863563898932046 0.0498357869389697
1512625000.0 -0.013864675277144438 0.06592458125044637 0.1655383108194437 -0.015247072486937288 0.166221180057205 -0.015809905899200682 -0.03520911997678636 0.04932454533865109
1513312000.0 -0.013763125277295864 0.06500398921247678 0.16516660847061437 -0.018589311967705167 0.16579551736456713 -0.019201549675161033 -0.0367969644068171 0.04857492453781624
1514000000.0 -0.013655208826482653 0.06421098022477484 0.1648816454695171 -0.021801470584965968 0.1653112389257331 -0.022403702141466853 -0.03823040158827663 0.04765207213521641
1514688000.0 -0.013649337011983575 0.06335504726083013 0.16435986114112808 -0.025038012486238097 0.16459840256220815 -0.025763707830409936 -0.03965243157634177 0.046591829912036274
1515375000.0 -0.013644952503450368 0.06262472880815276 0.1637292106570892 -0.02828007758370144 0.1640147018739984 -0.029061642900186854 -0.041018762953563645 0.04532280035465032
1516062000.0 -0.013698178266018634 0.061849129662622584 0.16346616358802674 -0.031516866464130155 0.1634163226866299 -0.03231379762396435 -0.042508362263451574 0.043935046274187185
1516750000.0 -0.013723622925313655 0.061051103281100354 0.16288708470975463 -0.03481375417422295 0.16274396373934413 -0.035586172476776076 -0.043721390368491264 0.04257162892080998
1517438000.0 -0.013878872631015327 0.06033249966752796 0.16225267129479456 -0.038031711880509224 0.16195490468983634 -0.03884663514911284 -0.04494834381886968 0.0410712427165294
1518125000.0 -0.014050984531095883 0.059727094306301215 0.16144434473960706 -0.041266847746274524 0.16115508924473293 -0.04198384725285254 -0.04591666949859604 0.039579571341822134
1518812000.0 -0.014376056822016982 0.05916058044804702 0.16060149226756898 -0.044628766350314125 0.16019747835875112 -0.045132068301940144 -0.04689114706993658 0.03792836376679788
1519500000.0 -0.014722401998961134 0.05862264455883269 0.15971290611184616 -0.047900433419350456 0.1593381231601205 -0.04841109239875207 -0.04754939216058904 0.03654747082873105
1520188000.0 -0.015103254193774587 0.05817273614507372 0.15874467925960042 -0.051123369858300446 0.15828310553804964 -0.051500127815814686 -0.048251295655555346 0.035167355349819296
1520875000.0 -0.01543813567298298 0.057796480408297116 0.15771038617483218 -0.05437465108274265 0.15726776586296032 -0.05458598124639513 -0.04894228564529508 0.03409198546273306
1521562000.0 -0.015888981390732457 0.0574868534073813 0.15651435641948963 -0.05765254454067303 0.1561271962196668 -0.057825666283727956 -0.04946056272971631 0.03330693034929348
1522250000.0 -0.01637407995522926 0.05730872352382157 0.15517687824383478 -0.06096868803797613 0.15500714961264775 -0.06089564716439657 -0.05011114093482107 0.032461444711344364
1522938000.0 -0.016864239124657274 0.05708907390469383 0.1539330043470005 -0.06407806775887215 0.15379448886920719 -0.06416012263754144 -0.05060376918457944 0.03179941030959693
1523625000.0 -0.017369036809484536 0.05690723404999159 0.15250560061907814 -0.06725628094747806 0.15244523732900248 -0.06725415585055372 -0.05109171616993682 0.03150304844386233
1524312000.0 -0.01780342055026733 0.05679705098219264 0.1509640372496108 -0.07028575475408326 0.15112657533414492 -0.07034866942106743 -0.05173881486801361 0.03139347317357541
1525000000.0 -0.018270270870137433 0.05667851514403177 0.1494563991163264 -0.07347929203309504 0.14962598021436457 -0.07356921464271174 -0.052424596394589844 0.031383525876194814
1525688000.0 -0.01877974170158776 0.05656369908199801 0.14789288153079835 -0.0763656268136431 0.14816176752803714 -0.0765660655668076 -0.053371809675001505 0.031391079458785234
1526375000.0 -0.01930040319761476 0.056425814107029695 0.14628965949533118 -0.07940646157875503 0.1465529022051187 -0.07955992974309523 -0.05414699237903676 0.03150338829982696
1527062000.0 -0.01977422624493956 0.05622938527678156 0.1445522185748528 -0.08230689739188218 0.1447061800037665 -0.08253525172237965 -0.05517466421254447 0.031885995723875946
1527750000.0 -0.02026789609882548 0.05597084822275386 0.14287974264099457 -0.08518709716791488 0.14298331378138915 -0.08546814563213068 -0.056599279979333124 0.03205404542759491
1528438000.0 -0.020689803770216866 0.05573141686413288 0.1410541427636123 -0.0879076100735703 0.1411108015411559 -0.0883184786457989 -0.05787362677640048 0.03224682720039183
1529125000.0 -0.021252205757765402 0.05533376817626767 0.13919628693530794 -0.09066419044998936 0.1392048913752013 -0.091204228274837 -0.059502854686045076 0.03238655494021741
1529812000.0 -0.021868620876417718 0.054968091210075704 0.13721096696546214 -0.09335319043952779 0.137206834868696 -0.09385936927705706 -0.061080945555904445 0.03218918989211505
1530500000.0 -0.02242885218566843 0.05447823522425072 0.13535636844173185 -0.09608533079113626 0.13514192872190423 -0.09664226719641729 -0.06262233660441852 0.03184187202976139
1531188000.0 -0.023115173562694165 0.053999191012657835 0.13343667802537093 -0.09867527052133442 0.13310358636603722 -0.09917797921381641 -0.06451085594723628 0.031586238433396724
1531875000.0 -0.023767192010395573 0.05340906078270276 0.13123671081597268 -0.10130438931034366 0.13105920691939713 -0.1017378270327478 -0.06649447029148976 0.030995819437741677
1532562000.0 -0.024521110275332457 0.05283595430156827 0.12932349967513487 -0.10387619698739223 0.12885938516627748 -0.10418587369612904 -0.06801433845617709 0.030094743934377496
1533250000.0 -0.025233288894227896 0.05215835578631348 0.12709739249613183 -0.10636797606488287 0.1267138794568814 -0.10658143983331894 -0.06986120332151428 0.029234685421190544
1533938000.0 -0.02605691136383533 0.05152122758093784 0.12484071709618272 -0.10886258422539981 0.12447337691830225 -0.10895156586101139 -0.07150143891207836 0.028094988746075515
1534625000.0 -0.026875260836598497 0.05093253695410738 0.122693181405083 -0.11149172504547046 0.12219535990664919 -0.11148386761885587 -0.07323705087731926 0.026789988884076337
1535312000.0 -0.027774089113416767 0.050268764318268246 0.1203154014922531 -0.11391282943184913 0.12004505780742518 -0.1138299757561709 -0.07459510592238167 0.02515387005627488
1536000000.0 -0.02851495810709508 0.049625786762001016 0.11795818918206988 -0.11629833849586821 0.11775471944745713 -0.1161536019122443 -0.0759364193662176 0.023860400963790135
1536688000.0 -0.02945915012648232 0.04901311893114172 0.11554167211035658 -0.11873433702442733 0.11549736123989242 -0.11841730200202184 -0.0773245954433112 0.022330781926430454
1537375000.0 -0.030204376345321197 0.048394530422529884 0.11304745765578429 -0.12093860664191261 0.11320493805594928 -0.12074277274919924 -0.07824089785683183 0.02100513679453087
1538062000.0 -0.030977514817827255 0.04786267619888502 0.11060738962266628 -0.12320713167719193 0.11085273481363485 -0.12295861661198253 -0.0789889785367568 0.019724919334974306
1538750000.0 -0.03169192110945067 0.04736226707484443 0.10804724502137752 -0.12530315585185292 0.10838281859884082 -0.12507103348896406 -0.07949380755928694 0.018472916891232934
1539438000.0 -0.03240426862982364 0.04687263893881676 0.10548821830736875 -0.12735688319628624 0.1059613278978093 -0.12725971279035458 -0.08013078256061494 0.017767073835570486
1540125000.0 -0.033054438073317566 0.04641922792497915 0.10292778871724109 -0.12939743505380094 0.10350277018147279 -0.12943236570083846 -0.08057406470636495 0.016994360782797962
1540812000.0 -0.033623141133304425 0.045868928289968545 0.10027768701322656 -0.13129722968484628 0.10091587161122365 -0.131451227539937 -0.08084838870983746 0.01673958692563781
1541500000.0 -0.03417751799079419 0.04532626601650478 0.09768799167880038 -0.13318365445141866 0.0982367442754208 -0.13347320698275214 -0.08111478566896693 0.01669504842445754
1542188000.0 -0.0345870831029099 0.04482107193002439 0.09504685298219873 -0.13509649935299908 0.09549809846940463 -0.1355307729530227 -0.08138585946135249 0.01690076011901972
1542875000.0 -0.035189794820317685 0.044245895309194434 0.09235442661620993 -0.13675367617285253 0.0927922202885376 -0.13748930645219998 -0.0817203799303592 0.01727949918191324
1543562000.0 -0.035718691774579994 0.043636169969458495 0.0897264320512366 -0.13860064561743982 0.08997936300285132 -0.13938956083336057 -0.08198294180675103 0.017949591849399264
1544250000.0 -0.0361918473812386 0.043005235531008726 0.08705676708383892 -0.1401956793987472 0.0871392572803556 -0.14126066403878917 -0.08255459701025993 0.01894811850110899
1544938000.0 -0.03678935274860897 0.042422422128811615 0.08430527465263757 -0.1418036285522854 0.08416812844103011 -0.14290988910970606 -0.08313465091115084 0.020071626763063496
1545625000.0 -0.037516045447203474 0.04195778901466671 0.08165273759197769 -0.14360929043617912 0.08120144509974211 -0.14466007206887363 -0.08383084557611414 0.021204142591862752
1546312000.0 -0.038171764593269396 0.04134017919441139 0.07887449405926278 -0.14518619296992644 0.07828356421276461 -0.14620982164635477 -0.08489805762483868 0.0225767957998026
1547000000.0 -0.038957866606195095 0.04081932518599932 0.07611310268100877 -0.14683595344887945 0.07535298090234897 -0.14767527042679116 -0.0859633486596954 0.023966553360467494
1547688000.0 -0.03991672531159192 0.04043836913080543 0.07321710823347151 -0.14830055850446208 0.0722972149903899 -0.14914084365264133 -0.0873735481568593 0.025247431522027904
1548375000.0 -0.04083316836277568 0.040082647268137206 0.07032907690059466 -0.1498782384482389 0.06929418658793501 -0.15045144385223944 -0.08863969216627293 0.026763696972279975
1549062000.0 -0.04194878532517161 0.03981779123246724 0.06737238309155988 -0.1513387229845416 0.06618811122013743 -0.1517882743274587 -0.09036820138999256 0.027842728635664664
1549750000.0 -0.043091251407446095 0.03965305927176944 0.06434522557211363 -0.1527080442340503 0.06321924738200242 -0.15298128918279927 -0.09218853169479556 0.028693046579676577
1550438000.0 -0.0442375455421438 0.039619829318449484 0.06116911811914995 -0.15406083019268954 0.060097931362152246 -0.15415636379672829 -0.09389036545088136 0.029510904546853626
1551125000.0 -0.04545814038108464 0.03965174337079173 0.058042668022590165 -0.15544807277939077 0.057110596546331764 -0.15510405771938518 -0.09578886065504925 0.030039204678376688
1551812000.0 -0.04672259503700025 0.039761004633307666 0.05481272024144685 -0.15668603622716357 0.05396744285876537 -0.15621984809822487 -0.09757818661473015 0.03053115486326724
1552500000.0 -0.04802007473366638 0.03997107133238596 0.051510372758750825 -0.15778259933497282 0.05091278677590568 -0.15717442887980346 -0.09942733710818331 0.03069058364009314
1553188000.0 -0.04925112448201563 0.04024688346348946 0.048099523114912696 -0.1588850784524684 0.04779957825201487 -0.15821535172341245 -0.10115740826379459 0.030653714254469912
1553875000.0 -0.050483543545159736 0.04060849534172703 0.044772260701320885 -0.15987593949130535 0.044554644410937025 -0.15911087136913357 -0.10281052843481576 0.03039018901472746
1554562000.0 -0.05175202197676011 0.04092860453728117 0.0413514909814437 -0.16071277064204803 0.04135735693265773 -0.1598827091259062 -0.10444173390348627 0.030005961510927315
1555250000.0 -0.05298637920973731 0.04121087540833211 0.03781723598978754 -0.16158765197131042 0.03810725099353419 -0.1607579898653853 -0.1056932193617214 0.02966952813493052
1555938000.0 -0.05424523051290603 0.041524280411673664 0.034446051313420274 -0.16221760771136506 0.03474906405715523 -0.16152633182166787 -0.10688154812624562 0.029261517273021457
1556625000.0 -0.05545257087491825 0.0417903482985746 0.03093618254125489 -0.16271308366230322 0.03144630823184322 -0.16220758770902463 -0.107813464309442 0.028847896450647982
1557312000.0 -0.056778239344110255 0.04204863757271337 0.02746421679174473 -0.16319510888651068 0.02807189914494662 -0.1628083277669049 -0.10838943804265215 0.028639911198719413
1558000000.0 -0.058091632168200395 0.042181549838828096 0.024104740906533757 -0.16351794976241305 0.024692157185423384 -0.1634327098435978 -0.10896924375143942 0.028431977405006727
1558688000.0 -0.05937751734760101 0.04237248407239857 0.02066807217043855 -0.16371474274012793 0.021233322271440425 -0.1638618250761976 -0.1093192296274312 0.028453863398208414
1559375000.0 -0.06072193751465031 0.042380544339246394 0.017339154657104002 -0.16372954049644425 0.017819507032610152 -0.1642137038556849 -0.10942147887083227 0.028796503526838928
1560062000.0 -0.06220789524751307 0.042419783184370355 0.013956322443609342 -0.163939718261124 0.014366695827787023 -0.1644913250476505 -0.10952021029818078 0.02945504105547112
1560750000.0 -0.06371771347013275 0.04243836324558335 0.010751045286660547 -0.16395546697298596 0.01093012596672305 -0.1646287532810181 -0.10944794774455306 0.030206419604236073
1561438000.0 -0.06527277501547554 0.042405428173152224 0.007340108038377022 -0.16379969117262183 0.007484863360509631 -0.16488356938250645 -0.10926830688467443 0.03129544099261377
1562125000.0 -0.06689020059294357 0.04236096532260813 0.004140698287724304 -0.1637484443731808 0.00411843721237923 -0.16469240504707328 -0.10905871972197187 0.032773275995240186
1562812000.0 -0.06864562091262812 0.042423546226729204 0.000944757785662749 -0.16362451150397536 0.0006971097383099928 -0.1646854708229195 -0.10888143476832793 0.03477983652339054
1563500000.0 -0.07032924977045348 0.04238725876182207 -0.002170701080441693 -0.16342840118075444 -0.0026927634180495233 -0.1644615715392224 -0.1091271371226751 0.03688082239837181
1564188000.0 -0.07205034051232515 0.04248301407788481 -0.005388825952414733 -0.16321805665293926 -0.005974947203381336 -0.16420836070951567 -0.10931496605654037 0.0390239142658861
1564875000.0 -0.07375211444675248 0.042584642684409375 -0.008649850819006563 -0.1630736373984246 -0.009229577061590328 -0.16382198597353093 -0.10982581885430535 0.04131803499347815
1565562000.0 -0.0754918171765066 0.0427501881249069 -0.011743218028115808 -0.1628419754321478 -0.012444069430276943 -0.16325590793456124 -0.11028836464637441 0.04399152730542616
1566250000.0 -0.07707658860164589 0.042997548188547716 -0.014908890223316859 -0.16245832930407728 -0.01564775959590389 -0.1628524367367638 -0.11138079724830884 0.04660955880489285
1566938000.0 -0.07870072902298329 0.04332513138409682 -0.018011975943710075 -0.16214841727327575 -0.018786907386328842 -0.1622774591592074 -0.11248173249243308 0.04904074022199429
1567625000.0 -0.08022448207721648 0.043526951530718956 -0.02110869675405357 -0.1618058574627248 -0.021948932501352946 -0.16169080783480738 -0.11391194241415183 0.05154374520931933
1568312000.0 -0.08172885627986175 0.04391943491200902 -0.024224043543195014 -0.16124273388287652 -0.025054655104691716 -0.1610974449356734 -0.11535472514191907 0.05365471786249725
1569000000.0 -0.08291197372593613 0.04433419067095608 -0.027348802060198633 -0.1607559764962185 -0.02815561163446883 -0.160451660182385 -0.11725308686888467 0.05588234144990586
1569688000.0 -0.08421996808704278 0.04465468247042401 -0.030550613679320493 -0.1601795034403976 -0.031159734194357438 -0.15968752500672842 -0.11900554363145677 0.057830079994671886
1570375000.0 -0.08535113184001283 0.04511701462408404 -0.03368076312977714 -0.15939749632811825 -0.03429359992639385 -0.15900152915073956 -0.12113297144191018 0.05908042902019961
1571062000.0 -0.08641876038949338 0.04552841169920833 -0.0368851954128743 -0.1586776950745441 -0.037333175935595986 -0.1582573295694027 -0.12306159244004933 0.06045657824013932
1571750000.0 -0.08731307687821123 0.04596892704966828 -0.04004135605138938 -0.15775828652993518 -0.04035310475497259 -0.15746242300599492 -0.12506534560635357 0.061353938292006964
1572438000.0 -0.08840916625248103 0.0463576027196534 -0.04315678840605264 -0.15687802746161386 -0.043423820983547405 -0.15658800507489476 -0.1270642231925416 0.06214897719094987
1573125000.0 -0.08919093799149945 0.04677744941811835 -0.04629032944026931 -0.15575412563805283 -0.046557760745561505 -0.15565636436426436 -0.12883631696570583 0.06246181202505862
1573812000.0 -0.09002723956140046 0.04724960445968132 -0.04941611480158579 -0.15463024529621397 -0.04962061951941913 -0.15462229740031685 -0.13041554327018276 0.06261112576681176
1574500000.0 -0.09090619892139698 0.04772888400191212 -0.05264873155090801 -0.15350046554179644 -0.05262565521857369 -0.15359307042608641 -0.13181317301644396 0.06251014244878952
1575188000.0 -0.09177371944654952 0.048240858619489894 -0.05563439314700159 -0.15232097109966852 -0.055757863671635544 -0.1524038741312877 -0.1329488621795355 0.062446607785220605
1575875000.0 -0.09265514750404705 0.04883374928292713 -0.05860427086921628 -0.15105555077211327 -0.058790073653224 -0.15110174162923126 -0.1338912470945885 0.06211779672113216
1576562000.0 -0.0935596822366006 0.04935994117405893 -0.06165849083553023 -0.1495588830493739 -0.06184777486081616 -0.1498327762283125 -0.13435088573053156 0.061918884979292356
1577250000.0 -0.09443099484228253 0.05004084491344758 -0.06453254132608872 -0.14822572081980182 -0.06477429120862074 -0.14835926516179498 -0.1346278553112834 0.061767273241334186
1577938000.0 -0.0952659929554344 0.050755354338155124 -0.06751266563189574 -0.14671003145953967 -0.06763606774390632 -0.14685601898884193 -0.13458503268981514 0.06150578225827443
1578625000.0 -0.09619035754250244 0.051563562791914534 -0.07029625915541712 -0.14528025384094045 -0.07057807058397968 -0.14527882679898738 -0.13424534623657416 0.06164159392260362
1579312000.0 -0.09699945505573478 0.052460367465058874 -0.07310063833846722 -0.14360310661685896 -0.07345611502351142 -0.14363853125078588 -0.13379069391731363 0.06181830608362141
1580000000.0 -0.09790006331014955 0.053416407873254065 -0.07573320305443212 -0.14198933529427382 -0.07615529240073167 -0.14186612834126333 -0.13298325828206026 0.0623608759677119
1580688000.0 -0.09881337195570054 0.05444242395520072 -0.07840514909860448 -0.14027070173313802 -0.07885600108056812 -0.14013214956199177 -0.13212802076381946 0.06330153414462682
1581375000.0 -0.09966442456317147 0.05550702246861433 -0.08104760854973074 -0.13855031038214477 -0.0815673206904472 -0.13838379862053954 -0.1312351221666556 0.06438294838330672
1582062000.0 -0.10047408182466254 0.05674583883423343 -0.0836911970471978 -0.13687050614748184 -0.08405737454858105 -0.13659418285743005 -0.1303617766833413 0.06573759522881766
1582750000.0 -0.10138224506823418 0.057914710193012094 -0.08620173343094145 -0.13517617299136075 -0.08660258005246632 -0.13476229472881457 -0.1294324798714322 0.06739660921223158
1583438000.0 -0.1021514504410466 0.0591711621441515 -0.08872724119646318 -0.13330951840150243 -0.08900262531002943 -0.13295381512530746 -0.12878959749628976 0.06930987344607734
1584125000.0 -0.10279426357976054 0.06045343121781803 -0.09118326506750941 -0.13134608171601309 -0.09146043993053303 -0.13111336985959585 -0.12817448754575447 0.0715214429086032
1584812000.0 -0.10355362683238331 0.06174426663897503 -0.0935691152415065 -0.12948640625146168 -0.09373189961631277 -0.12924786457467172 -0.1277154122295017 0.07377219648274307
1585500000.0 -0.10424703378935264 0.06304036764429273 -0.09590228831699911 -0.12756217563890035 -0.09607054473790473 -0.12736698518807676 -0.12774786061441126 0.0763180830609541
1586188000.0 -0.10490136499924547 0.06428882010673147 -0.09819862988883415 -0.12555704703887022 -0.09832512344950838 -0.12548352042458194 -0.1277497125840497 0.07859738918067795
1586875000.0 -0.1056040663049498 0.06558030487570385 -0.10060531142201412 -0.12354395904832421 -0.10056401652377364 -0.12351419113454844 -0.1283966682462568 0.08093177097825253
1587562000.0 -0.1062531058712249 0.06678848501041217 -0.10277590294687566 -0.12151336115709903 -0.10280081554147966 -0.12157282964588224 -0.1290519845633588 0.0832630177791435
1588250000.0 -0.10682097615235496 0.06798835666624374 -0.10489700231218448 -0.1195277053693793 -0.10499127227349905 -0.11957854744318681 -0.12991946315786762 0.08518203864165826
1588938000.0 -0.1074896863309237 0.06909479883188785 -0.1070329854319383 -0.1174015399778163 -0.10714290125874183 -0.1174595876518522 -0.13123526768373853 0.0871131531741323
1589625000.0 -0.10803079519562724 0.07014590753061066 -0.10920623482748988 -0.11527721495270919 -0.10922842275906641 -0.11533599979558079 -0.13241306735841102 0.08867411813566474
1590312000.0 -0.10859476074507633 0.07117027315443693 -0.11128079214613366 -0.11300054424257805 -0.11132549866761415 -0.11319603687699678 -0.13389122760421848 0.08990699303498056
1591000000.0 -0.10917997660417095 0.07216570816339112 -0.11323322406614032 -0.11087065301294695 -0.11337006123854243 -0.11098127697507913 -0.13519319275312358 0.09085595527189803
1591688000.0 -0.10962993370552115 0.07318365409593881 -0.11535151685938955 -0.10848043226231113 -0.1153962272040673 -0.10873930036254083 -0.13659063065497837 0.09154373400068293
1592375000.0 -0.11011836713992497 0.074126698214999 -0.11718901242146806 -0.10630071936442238 -0.11739230944346886 -0.10637186046666179 -0.1378904453804688 0.09181424877786816
1593062000.0 -0.11071064713784656 0.0751054033590222 -0.11904201988267891 -0.10403162669178671 -0.11944859050260606 -0.10405727773164629 -0.1390851867018408 0.09197699886048913
1593750000.0 -0.11115032522908787 0.07592904684843439 -0.12099524332353336 -0.10159268936430907 -0.12145287689275534 -0.10171634584451897 -0.13982813052625556 0.09182673713932765
1594438000.0 -0.11157360588323056 0.07684585264095396 -0.12285480457794348 -0.09927256121145417 -0.12344136409374927 -0.09920939052184716 -0.14059639964255785 0.09147521554930342
1595125000.0 -0.11204934039816504 0.07762454354687265 -0.12467295473863502 -0.09699737686695398 -0.12521258310141448 -0.09688582899360637 -0.14080405893716258 0.0909124999407991
1595812000.0 -0.11231185577089646 0.07852866470479805 -0.12642097044648 -0.09441888547963408 -0.12712673028510224 -0.09435337817686483 -0.14092957775828782 0.0903731993055415
1596500000.0 -0.11263975255705742 0.07929262649224311 -0.12817456415534487 -0.0919298742999769 -0.12886728691849153 -0.09184027435007522 -0.14058870658452707 0.08975667568886461
1597188000.0 -0.11286796219229754 0.0801463997471392 -0.1299342241875233 -0.08949858169820299 -0.13055676233254154 -0.08938010260788626 -0.13981888915166402 0.08940925609213296
1597875000.0 -0.11315345007107849 0.08090527041544299 -0.13157557244255327 -0.08692449704512233 -0.13228267465954346 -0.08683331085005369 -0.13887323125021983 0.08913984527014164
1598562000.0 -0.11330227167902888 0.08169259040233524 -0.13313917393246227 -0.08437135853928962 -0.13382760440836827 -0.0842376685219128 -0.1376723345194495 0.08892432239752072
1599250000.0 -0.11326060234951352 0.08248106770778628 -0.1348561536241225 -0.0817461980495793 -0.13539937457099563 -0.08165958265865811 -0.13606217016645147 0.08899992293929099
1599938000.0 -0.11341260828985268 0.0832425450821185 -0.13633569242669652 -0.07925357646313622 -0.1369327627750578 -0.07904740701406092 -0.13443805621048296 0.08948255245257486
1600625000.0 -0.11338956259330905 0.08408907897735587 -0.1379098575282218 -0.07665588888084275 -0.13853467488193408 -0.0763388508367175 -0.13259960786794345 0.09017004754404265
1601312000.0 -0.11323770782956376 0.0849134356588693 -0.13940998614668637 -0.07401444348558381 -0.13987889649890614 -0.07376501643320572 -0.1306972890811832 0.0911448589520355
1602000000.0 -0.11311970634022823 0.08568392863594515 -0.14076864168799652 -0.07131622458108786 -0.14114187367321632 -0.07108382353857119 -0.12896952131384162 0.09257844456763106
1602688000.0 -0.1128974339179623 0.0865640872471882 -0.14215946981386948 -0.06878187659965669 -0.14259594804474854 -0.06830774570119867 -0.12694743753385865 0.0947210831015987
1603375000.0 -0.11274325877897273 0.08741920986246049 -0.14352821996809037 -0.06614826631521124 -0.14379715252037611 -0.06561891925303884 -0.12544525512122107 0.09661723170581045
1604062000.0 -0.11259361139184097 0.08825614039378595 -0.14473913047597153 -0.0634708030207412 -0.1450564275985132 -0.06292641946299743 -0.12427473774128232 0.09931930629234187
1604750000.0 -0.11229648374108642 0.08919783278057322 -0.1460255957628769 -0.06084986964490409 -0.14626471395264887 -0.060182613667710716 -0.12292672900331032 0.1019684146796072
1605438000.0 -0.1119404188063986 0.0900546316145394 -0.14724622446693622 -0.05812791559763746 -0.1474177858058219 -0.05748929439254786 -0.12250878309026676 0.10478353534214915
1606125000.0 -0.1115912783669308 0.09104100369504314 -0.14841728088847106 -0.05543599898382488 -0.14846612140373674 -0.054722807254138875 -0.12215715551130459 0.10767309826894762
1606812000.0 -0.1112128785548795 0.09192048120965612 -0.14957343022234845 -0.05274496050790227 -0.14957023392342952 -0.051973558007229824 -0.12182688044139965 0.11089173972850025
1607500000.0 -0.11105809385825938 0.09293233123967758 -0.15072634410193447 -0.05005609171682468 -0.15082705508395375 -0.049170364087416187 -0.12215812161715514 0.11375610493411484
1608188000.0 -0.11050698116700884 0.0938886902062726 -0.1517462438254401 -0.04716219095949862 -0.15164408898082807 -0.046572100476391175 -0.12319950254435363 0.1165136755473957
1608875000.0 -0.11028176323920309 0.0948514732831417 -0.1528164603319559 -0.04435521234376636 -0.15249091989769933 -0.0436817792091611 -0.12390300998312952 0.1189767844318833
1609562000.0 -0.11003726724812334 0.09586898203255283 -0.15385336711721365 -0.04142613708455669 -0.1534418239080864 -0.040840625492238415 -0.12513835092062991 0.12140895186156925
1610250000.0 -0.10963582864735824 0.09671116041639231 -0.15468724572851295 -0.03846370130924207 -0.1541313439840006 -0.0380122662209055 -0.12635278511568315 0.12339125799757338
1610938000.0 -0.10930293534233265 0.09751715387086132 -0.15535295671761817 -0.035491005018403 -0.15491396105122743 -0.035183418937071186 -0.12773247925222406 0.12502420256126526
1611625000.0 -0.10907438181433662 0.09852612283244798 -0.15624374999662932 -0.0323837229284188 -0.15563568353257254 -0.032294496606720464 -0.1293828060961066 0.1260822817817489
1612312000.0 -0.10883641471993834 0.09959731464796032 -0.1567357818186876 -0.029313760633767085 -0.15644854481504028 -0.029353441953168156 -0.13071005749066694 0.1270335471481062
1613000000.0 -0.10866797576430641 0.10052006645379877 -0.1573730725057833 -0.026157789812158903 -0.15693053214900188 -0.026426219212312623 -0.1318335533373208 0.12802465774814642
1613688000.0 -0.10858550370861199 0.10143528299070138 -0.15777620414767674 -0.02305576774516993 -0.15742707606848616 -0.02339806055050302 -0.1326571153657754 0.1280206481336376
1614375000.0 -0.10847330282193068 0.10230780239531238 -0.15808740275983948 -0.019766751432138366 -0.1579258361884503 -0.020257981194311988 -0.13305123984275655 0.12801275968293377
1615062000.0 -0.10841300778701748 0.10342694058506009 -0.15828633090037353 -0.016509017542245503 -0.15836346504713242 -0.017248425379484712 -0.1335483866371114 0.12794245321940143
1615750000.0 -0.10844444506663672 0.10426425357663983 -0.15863986457259266 -0.01347491110205542 -0.15872070329746504 -0.014004455664731266 -0.13342233098998182 0.12753362217422792
1616438000.0 -0.10840694970108586 0.10516896153016468 -0.15857459947125424 -0.010026831942396898 -0.1589600696086785 -0.01079511629608218 -0.13230718541684458 0.12740559194218576
1617125000.0 -0.10842508802549677 0.10624564674888032 -0.15858278659057157 -0.006984784246062394 -0.15922793096201718 -0.007420247659864506 -0.13187728062366671 0.1267652657844391
1617812000.0 -0.10850870142174768 0.10709478042248563 -0.1585432967998988 -0.004031388423773763 -0.15931409217256132 -0.004338999664087686 -0.13110288649290813 0.12686975908098597
1618500000.0 -0.10853010780248933 0.10813059402867684 -0.15834198575792124 -0.0008303924816079275 -0.1593485341937068 -0.000977126788337437 -0.12933858759266745 0.1264626717077365
1619188000.0 -0.10856273917968029 0.1090655158558935 -0.15810763599059072 0.0022603282576875946 -0.15927633123878768 0.002246819443597875 -0.1276750237771436 0.12637169491801717
1619875000.0 -0.10859163454085438 0.11012693502343442 -0.15800794987827266 0.005247579851076237 -0.1592035782415549 0.005565605692545276 -0.12599718792458092 0.12646741291002825
1620562000.0 -0.10855704745096337 0.11097413087689596 -0.1576783105239487 0.008315711386912006 -0.15898121021166228 0.008708881622712607 -0.12392230799684242 0.12679145406690365
1621250000.0 -0.10849393986662641 0.1117173370544971 -0.15745376108513176 0.011215487445985503 -0.15865218479709584 0.01194608495468891 -0.1217144878630884 0.1275048919064727
1621938000.0 -0.10837827880259196 0.11254645875572523 -0.15702891868657756 0.014178165446577524 -0.15817592506713923 0.015030894111879892 -0.11998910717992366 0.12849312782698
1622625000.0 -0.10846166932028933 0.11333129007311747 -0.1568377103923212 0.01681910721170842 -0.15782297691717662 0.018147327376946753 -0.11798507138509017 0.13008643891342345
1623312000.0 -0.10824847381095716 0.11394634736838286 -0.156388202785301 0.019948710388619773 -0.15733267974237117 0.02115152460788939 -0.11648946220499123 0.13155641226248396
1624000000.0 -0.1080638927828566 0.1147218109817619 -0.15616904748738406 0.022718754715956194 -0.15681868615231903 0.02414688619053549 -0.11504487672276678 0.13326148084074935
1624688000.0 -0.10803051530448796 0.11522127135701374 -0.15597599413324875 0.025457664820189643 -0.15639248026170444 0.027100713411355476 -0.11387027651222584 0.1352138828996903
1625375000.0 -0.10774916417535008 0.11583879322816953 -0.15560693544150644 0.028429483387506362 -0.15579438638182058 0.030027911729750115 -0.11278270936871343 0.137781213252601
1626062000.0 -0.10765037151319709 0.11626053593049254 -0.1553799644781906 0.031246915546158133 -0.1552456578257692 0.03292205589824478 -0.11325066926070608 0.14000095896149853
1626750000.0 -0.1075129337849428 0.11678443917463832 -0.1549870904080123 0.034327070145354216 -0.15466144301751567 0.035783359479149845 -0.1130176478063862 0.1427431765515907
1627438000.0 -0.10738985398832941 0.11714767072569837 -0.15460311830171233 0.037107557801648164 -0.1540666484104905 0.03863356751194277 -0.11367734334481695 0.14445552309136359
1628125000.0 -0.10733296981991884 0.11769902789132752 -0.1541678247402433 0.04022851353928944 -0.15340102076411835 0.04143559780162108 -0.1144185793757337 0.14679291854446164
1628812000.0 -0.10720260067572071 0.11822314659702683 -0.15375537683515272 0.043389442794665736 -0.15284291974156106 0.04438738279773516 -0.11590656119458256 0.1490723170703167
1629500000.0 -0.107228834227784 0.11859836100113837 -0.15318505948146344 0.04628049928229546 -0.15207609280306633 0.0471813866376428 -0.11721105467107167 0.15064634521557216
1630188000.0 -0.10706935234309413 0.11922090286166794 -0.15246301037609014 0.04952045898983235 -0.1514232688757617 0.050096921108259335 -0.11888820793931244 0.15209864937565548
1630875000.0 -0.10709750136596903 0.11980648615175195 -0.15175808379523523 0.05264435232499703 -0.1505219603655863 0.05304202899306252 -0.12077466642003008 0.153266263700967
1631562000.0 -0.10697173748343931 0.1204014600136351 -0.15094438202379734 0.05599506680284118 -0.14981692986347472 0.055947924495957375 -0.12284230542682259 0.1545492409663051
1632250000.0 -0.10699289615975137 0.12117441530782373 -0.14979234149748996 0.058959915475837815 -0.14882536333791657 0.05891960009030461 -0.12465949474077516 0.1547450348230957
1632938000.0 -0.1068837593098557 0.12187477894641724 -0.14874911984712785 0.06215499520155633 -0.147893643113945 0.06182672862367203 -0.1266948348494101 0.154958704335976
1633625000.0 -0.10685123997225544 0.12275603248955427 -0.14739520727499134 0.06538497434974469 -0.1467798434431145 0.06479066426494232 -0.12835434953988736 0.1546639134342322
1634312000.0 -0.10668846010763931 0.12359072701142117 -0.14587752484735989 0.06831804149675706 -0.1454884060938527 0.06776763161159946 -0.12992822273290763 0.15409440356612814
1635000000.0 -0.10654533384949248 0.12457284152588313 -0.14432773219625294 0.07146954480804596 -0.14409895448672413 0.07074600426738831 -0.13084497097345513 0.15324714636590794
1635688000.0 -0.10642697217062883 0.1254419935635443 -0.14251845308576033 0.07431784341158208 -0.1427535552091109 0.07359706041479117 -0.1319599868990782 0.15214672923857803
1636375000.0 -0.10627790479017922 0.12644063207922962 -0.14083047131898627 0.07708539285291488 -0.14130110343295701 0.07659755392004208 -0.13230072213813254 0.15105466925989877
1637062000.0 -0.10601789188858392 0.12726928690691638 -0.1390973571015944 0.07968169624557486 -0.1394133000552228 0.07945728644044382 -0.1323945433302739 0.14959064861427962
1637750000.0 -0.10596289591295173 0.12828571523883897 -0.13722077236166572 0.0824875903015903 -0.13767538363836257 0.08221396737611908 -0.13217404928683277 0.14813573668307892
1638438000.0 -0.1057359658970057 0.1291502877877651 -0.13508275250203775 0.0850138979916427 -0.13577464573809153 0.08486925180064195 -0.1313993397896033 0.147020371707943
1639125000.0 -0.10555739484642371 0.13019404339550728 -0.13316120557093206 0.08741751198642621 -0.13379231797197622 0.08758811140443645 -0.13064553918202906 0.14582422448605117
1639812000.0 -0.10552010755872837 0.13101677192585318 -0.13109359324899147 0.08993223080515879 -0.1319975218075855 0.09005843994770757 -0.1294183776262552 0.1448201677008376
1640500000.0 -0.10535551269650192 0.131908709321197 -0.12915577691074143 0.09218465005540695 -0.1298994283465758 0.09264756280465386 -0.12796975477582367 0.14397556440310136
1641188000.0 -0.10546458973605011 0.13278016663753356 -0.12727762731224507 0.0944329146276555 -0.12791402493847098 0.09505100789498823 -0.1266931371034257 0.14355458328148324
1641875000.0 -0.10544403703776947 0.13356695239558114 -0.12541213251447839 0.09665726711112797 -0.12573213618564366 0.09744619460253251 -0.12493796275822273 0.14307603568117835
1642562000.0 -0.10573055849962082 0.1343369794024623 -0.1233011300693829 0.09876208295174053 -0.12393023607307546 0.0995787656954988 -0.12352694394368464 0.14314582320844238
1643250000.0 -0.10603458507412973 0.13503741261424762 -0.12150968316907253 0.10102191056590828 -0.12190066485374444 0.10186993010832161 -0.12222879521922178 0.14382741122219425
1643938000.0 -0.10637519899385697 0.13591157147664826 -0.11952634025970434 0.1031467008859275 -0.11978957723217874 0.10414329364375531 -0.1211988777879359 0.14431680940984798
1644625000.0 -0.10691103380411818 0.13670684300119593 -0.11768122553335188 0.10527931914110542 -0.11781446200300026 0.10634216494123112 -0.12007925758579995 0.14497282111962104
1645312000.0 -0.1074235099230933 0.13748992328449486 -0.11582161848934228 0.1074543175528799 -0.11583136898926844 0.10856585548700246 -0.11920629028974447 0.14611311476840796
1646000000.0 -0.10802295590939248 0.13840960156188792 -0.11381526690592997 0.10977284468933282 -0.11391539610934842 0.1108139093078281 -0.11882789772909289 0.14739993604370136
1646688000.0 -0.10838487390359297 0.13928195682035518 -0.11188494495462477 0.11203111455998277 -0.11168886502309079 0.11306214716011943 -0.11860102125252449 0.14858472692816954
1647375000.0 -0.1090767961382113 0.1401850838855296 -0.10985465976607971 0.11415556870624509 -0.10967437103234723 0.11526064960122044 -0.11861980722381009 0.14996237433175466
1648062000.0 -0.10978271149103326 0.1410620543338907 -0.10778244443527916 0.1164165677449918 -0.10753645592536183 0.117626330461178 -0.11904450120807956 0.15138709470368605
1648750000.0 -0.1102820199452104 0.14202140857846138 -0.10557709653276413 0.11868921046963374 -0.10518477943162019 0.11988007683573627 -0.11943934148573744 0.15277160090624972
1649438000.0 -0.11077836626771796 0.14289914453149546 -0.10342834349809818 0.12096014939180787 -0.10289368302129183 0.1220944924114169 -0.12066100854275363 0.1539405263889201
1650125000.0 -0.11125464727109466 0.1438403616774356 -0.10110978735671879 0.1230687876380046 -0.10047080864236342 0.12427616534225101 -0.12159482321023067 0.15504959891697861
1650812000.0 -0.11176948267863118 0.1448245964663071 -0.09874659624019537 0.1253587819182282 -0.09813842031018263 0.12638484515826534 -0.12273384904869684 0.15575146739712525
1651500000.0 -0.11213270137453663 0.14563778765657526 -0.09637266481783563 0.12749319144692098 -0.09543524714944839 0.12859067511062192 -0.12396806699037094 0.15661160350232178
1652188000.0 -0.11248094055095102 0.14647477350960358 -0.09375141570360658 0.12954274674792662 -0.09270771796146465 0.130498534028742 -0.12486167424676255 0.15722348167675487
1652875000.0 -0.11283370947576388 0.147186084900181 -0.0911478324586195 0.131560707430815 -0.08983620766619473 0.13235301407301547 -0.12581672407546246 0.1574751350015221
1653562000.0 -0.11323893587621363 0.14789994702481798 -0.0885697231699289 0.13351298384470406 -0.08720316974150732 0.1342110481459859 -0.1269565786777284 0.15747785669954714
1654250000.0 -0.1133340137218624 0.1484497424649453 -0.0856302810263558 0.13524400900848926 -0.08422218244214699 0.1358555736269777 -0.12742845566681507 0.15759831736963953
1654938000.0 -0.11370196065443935 0.14899258759964107 -0.08281386971200544 0.13712452422932236 -0.08143169219063541 0.13730501362523082 -0.12819058427607938 0.15723446398691315
1655625000.0 -0.11393446415637079 0.14956788021485898 -0.07990523003151244 0.13883637257696582 -0.07849827388764119 0.138872702740569 -0.128481082426574 0.15670742544303742
1656312000.0 -0.1141384749729663 0.15003319623655273 -0.07687326918642155 0.140388286879253 -0.07561884081608665 0.14010216435822198 -0.12858495479064946 0.15648657316919004
1657000000.0 -0.11445065744975186 0.15037834357056917 -0.07399722040693683 0.1418070154054071 -0.07283016034200104 0.14136178750381342 -0.12830880599053354 0.15588848057928145
1657688000.0 -0.11489298760775762 0.15103556419726036 -0.07102734404042672 0.14330832802041213 -0.07002057432192864 0.1425780524237336 -0.12782051863023128 0.155478007306186
1658375000.0 -0.1151040357568704 0.1515685675390122 -0.06790533539577695 0.1447480022806351 -0.06710780771595247 0.14377843039728413 -0.127418904787132 0.15524111132641613
1659062000.0 -0.11551795769130017 0.15213421465670202 -0.06488163549607262 0.14583347227850707 -0.06427019460493918 0.14498291959496537 -0.1263091439415921 0.15504308709670514
1659750000.0 -0.11579292271748713 0.15281719450414596 -0.06173328300490493 0.14704007302526784 -0.06143079778910568 0.14603977687581463 -0.12533356577538812 0.15510714742227766
1660438000.0 -0.11619305674689696 0.15363964598562807 -0.058745732814903494 0.14817780790222038 -0.058727975383925095 0.1470813337819298 -0.12436951202527646 0.15521847914459586
1661125000.0 -0.11653696795287326 0.15447080596580112 -0.0555269660886738 0.14913344493947764 -0.05588559136672486 0.14825845898399284 -0.12290485862730352 0.15574203874144893
1661812000.0 -0.11677682970411077 0.15538426345295234 -0.052589038131789126 0.15010155780514126 -0.05315635237102916 0.149415092312474 -0.1217726303799886 0.15647980963639735
1662500000.0 -0.1169791402994654 0.1565455008509218 -0.0495813804175225 0.15102382526688612 -0.05025986777462002 0.1504940177988232 -0.12054569032956289 0.15741362867605227
1663188000.0 -0.11730030212981782 0.15762830966582925 -0.04646434056896169 0.15182903640931944 -0.04751011784183183 0.1515604605480475 -0.11960201407589738 0.1586629139512774
1663875000.0 -0.11743426457013643 0.158752467439804 -0.04342405377126036 0.15269174072776057 -0.044623155105167935 0.15253168802077635 -0.11868274808441512 0.16024175783671574
1664562000.0 -0.11757113275253177 0.1600599086488159 -0.04053194989050917 0.15333618067477967 -0.04157101293755811 0.15358987274430663 -0.11780858949161935 0.16198303119986546
1665250000.0 -0.11765135475515777 0.16140206422673403 -0.03747557647128124 0.1539456231724367 -0.03857311616149703 0.1545275373249562 -0.1172329098580013 0.16385990001013123
1665938000.0 -0.11769937369699791 0.16264420861900072 -0.03451479816548617 0.15455063098781474 -0.03550295527576984 0.15537603369945086 -0.11692686682284546 0.16614811083488593
1666625000.0 -0.1177476744846865 0.16392281367900124 -0.03153721944358076 0.15495150778719244 -0.03229738108865596 0.1563569083325927 -0.11692778539738428 0.16833153287177496
1667312000.0 -0.11775486718168962 0.16530749862705782 -0.028454015994797216 0.15546869712994849 -0.02896814967125887 0.15701989924540108 -0.11698618048508494 0.17062956333767312
1668000000.0 -0.11794645271253086 0.1665416065929985 -0.025555687684007507 0.15582689112412176 -0.025748061880413117 0.15765471586551003 -0.11730726839852325 0.1729946891728969
1668688000.0 -0.11784688847082987 0.1677828951446556 -0.022622252377049356 0.15623523663784689 -0.022367819259728656 0.15815462228267424 -0.11770602738095273 0.17526056036909074
1669375000.0 -0.1180085132158046 0.16925257733788723 -0.019633451431598063 0.15662385209274743 -0.019065546171095016 0.15860824877171292 -0.11843097340643592 0.17750709024633626
1670062000.0 -0.11802736750003855 0.17053451647864673 -0.016499689805022883 0.15689358785654564 -0.015540640417206979 0.15879089197419693 -0.11911642254686694 0.1797255214421682
1670750000.0 -0.11824346882543568 0.17179052535799458 -0.013487721778652621 0.15729929793490732 -0.012271407805389017 0.15894808679903533 -0.11985892670730296 0.1819988137501345
1671438000.0 -0.11860592934915483 0.17296653348521707 -0.010686541963553597 0.1575225441737017 -0.009033581596025245 0.15893721058855345 -0.120916417856406 0.18374234460621644
1672125000.0 -0.11878672182070327 0.1741572840923282 -0.007564376846808243 0.1577536841281091 -0.005674409845515423 0.15885176847094212 -0.12164234393886343 0.18538313636471726
1672812000.0 -0.11924655893420684 0.1756160539022446 -0.004547506859659138 0.15799659894540202 -0.002414501038858543 0.15872267984780267 -0.1223645303518758 0.18723788224236862
1673500000.0 -0.11974580696778997 0.17693351999102516 -0.001471899571098502 0.15811258834569536 0.0006687866608349127 0.15863491912390526 -0.12298800805768079 0.1888882248180486
1674188000.0 -0.12035902756771387 0.17829584857853387 0.0014574269514355674 0.1583047510668717 0.0037952471025138644 0.158382141084673 -0.12352995293190017 0.19014487711878764
1674875000.0 -0.12064725353382184 0.17961986415131437 0.004629283654221414 0.15842779982133587 0.0068131833249791525 0.1579950240073008 -0.12394804124656553 0.19148324613943243
1675562000.0 -0.12127353084616144 0.18108098701674585 0.0077393149242995325 0.15840820371363662 0.00977824374384728 0.1576689725168194 -0.12415453896911459 0.19281123576934087
1676250000.0 -0.1217651812638913 0.18252142962452214 0.011004678518506797 0.15836851789909 0.012641273597153783 0.15726233199842518 -0.12414742690817067 0.19392580752905078
1676938000.0 -0.12220267353288501 0.18399309164623284 0.014222942254256415 0.15830743664879351 0.015558717168351862 0.15692374749498994 -0.12421048403515907 0.19515005443560804
1677625000.0 -0.12265313521503504 0.18559089165283452 0.017480417766049007 0.15799064064030932 0.018533581821240857 0.15660940905058815 -0.12406006590366853 0.19621215383107216
1678312000.0 -0.12300532389625501 0.18698254995508976 0.020756584786436265 0.15777355194975715 0.02137117864926395 0.15617730395122154 -0.12362907708430465 0.19761764454251451
1679000000.0 -0.12342274530709159 0.18847209781129964 0.023961904480650015 0.15728456224982507 0.024331903793966204 0.15574448101340838 -0.12320955138031421 0.19916066441471675
1679688000.0 -0.12362269700273112 0.18996694575059295 0.027387375661554095 0.15681694455700265 0.027289753265318975 0.15551057419956799 -0.1229066062627255 0.20061915300431515
1680375000.0 -0.12385281790585194 0.19128460345955137 0.03078734911711313 0.1561984194461672 0.030314065740266027 0.15502494783195267 -0.12236035226183588 0.20254209131674572
1681062000.0 -0.12387840339343596 0.19265094031644026 0.03390034363947769 0.15540330017376178 0.0334602933097582 0.15447729313321085 -0.12180032748768771 0.20388620428569007
1681750000.0 -0.12399449924756792 0.19403515351381512 0.03715096863722689 0.1547150180402757 0.036505108584201765 0.1540704401674652 -0.12158437399788306 0.20596461868820937
1682438000.0 -0.12398445308981317 0.1953201543081394 0.04049452551676254 0.15375058638923522 0.039689122770196636 0.15340684626799103 -0.12141010796412585 0.20798485031937874
1683125000.0 -0.12403356876720605 0.19660216144264683 0.04367067188410855 0.15269209595911923 0.04276534580439517 0.15266675549424957 -0.12086852711617573 0.20991023209169907
1683812000.0 -0.12375088496899614 0.19759799635946224 0.046744758840314996 0.15149901981572858 0.04598824175072108 0.1518165525262407 -0.12106917588320316 0.21228285270181366
1684500000.0 -0.12354113632471916 0.19891018171268698 0.04978346686354597 0.15041914146800175 0.0492448871439317 0.15092625211141183 -0.12132187243370167 0.21450409088359879
1685188000.0 -0.12324254718416902 0.1998603030492884 0.05287914465812186 0.14899747671341035 0.05234803972039376 0.14990506499347228 -0.12116883223410652 0.21703088735588302
1685875000.0 -0.12323584821558056 0.20106971861661907 0.055670629349048734 0.14789179471304156 0.05546047539550064 0.14870677514605302 -0.12172588665443294 0.21919211930931884
1686562000.0 -0.12300224267595868 0.20223282313894672 0.05851459141721471 0.14653494860096797 0.05842326066081488 0.1473957663105036 -0.12216074023599464 0.2213597624000833
1687250000.0 -0.12263344283029544 0.20328433911226781 0.061217930945170904 0.14490658477932628 0.06158611725231575 0.14603671923352587 -0.1229443943175938 0.2234522255526387
1687938000.0 -0.12211067643969113 0.20452586396131373 0.06401708930494036 0.14361920218023413 0.06453889727177257 0.14450426281318968 -0.12338786746908904 0.22559908777899093
1688625000.0 -0.12172978683004085 0.20565157085380625 0.06661455697296412 0.14202797030479086 0.06741582726032076 0.1430254556416472 -0.12404237166129174 0.22753148727629377
1689312000.0 -0.12136111850380506 0.20684508838149812 0.0692134206809374 0.14065632510331233 0.07021014015159728 0.14141620249903003 -0.12459690950131372 0.22930978244140424
1690000000.0 -0.12084638058814677 0.20827654350972732 0.07170772331898337 0.139142181050458 0.07281913547501949 0.13982670706065609 -0.12553832136782916 0.23089065695987424
1690688000.0 -0.12020940406907073 0.2097466232616117 0.07431522657592007 0.13759323727766362 0.07552823500329768 0.13810556344822814 -0.12581921812025224 0.23244073107337657
1691375000.0 -0.11949465349382471 0.21122930878729432 0.07675365072522405 0.1361917278671559 0.07801863483472031 0.13646447018921234 -0.12645834418623092 0.23382194022527156
1692062000.0 -0.11880031943053446 0.2127449877878433 0.07936947645898315 0.13464870110326474 0.08060920065235876 0.1346589915699992 -0.12701730800006195 0.23517275211790167
1692750000.0 -0.11798749176882972 0.21439208247086167 0.0818251528748318 0.1330057092963386 0.08294132679644602 0.13295150399224306 -0.12672478618952876 0.23601285058640722
1693438000.0 -0.11715285509253616 0.21595115783273064 0.08424035225347987 0.13139955936808148 0.08537093810294845 0.13111115216269156 -0.1265072790207857 0.23693569443018755
1694125000.0 -0.11637343412863241 0.21773632367585777 0.08676154049045809 0.12970195204774876 0.08786716202698863 0.12932464460827484 -0.12613178457313515 0.23781407701756818
1694812000.0 -0.1154061397921984 0.21945685016835914 0.08928495710425316 0.12811470282248685 0.09008587702035899 0.1275835142696444 -0.12578237636347503 0.2389484081090747
1695500000.0 -0.11441610972672836 0.22121047905173016 0.09172485151632805 0.12629490002485613 0.09234979770450853 0.12570726116442993 -0.12487635930588006 0.23970570379983286
1696188000.0 -0.11346888044019415 0.2231589916293468 0.09406009469143983 0.12447786672360656 0.09479718068160226 0.12384866800293785 -0.1237433712202575 0.240433054072087
1696875000.0 -0.11235956666616367 0.22495853355659948 0.09643958706565134 0.12268057142762122 0.09708443096945017 0.12206465323663544 -0.12270654304058619 0.24161552796669278
1697562000.0 -0.11138142165803519 0.22675799669355787 0.09887428977229779 0.12073877030341111 0.09933581680623875 0.12014360229623254 -0.1217205792787065 0.24273697799483493
1698250000.0 -0.11040670246657038 0.228643244031108 0.10107734500220036 0.11869243271686247 0.10161229710023495 0.1182945648133675 -0.1205585358424558 0.2438522629806659
1698938000.0 -0.10935650242296219 0.23047691560205497 0.10345478301139353 0.11661626203906786 0.10387732000680154 0.11603542252480015 -0.11909784007669585 0.24499344033763765
1699625000.0 -0.10849475680986953 0.23224834613996884 0.10575927221051906 0.11445447162221675 0.10602900328349178 0.114041187134699 -0.11780326949785909 0.24659152702743767
1700312000.0 -0.1073122258329249 0.23423887483602027 0.10788061894199866 0.1122837444998121 0.1082368454747616 0.11191426663574226 -0.1164344106521144 0.24812232023805286
1701000000.0 -0.10628592257289812 0.2361482091645059 0.11030656701589867 0.10992000430574249 0.11040203350391332 0.10961514610823953 -0.11482326248906294 0.24965824814021315
1701688000.0 -0.10555768734634656 0.23807484659616324 0.11233463048078922 0.10765645693876646 0.11260968948061119 0.10744904138209486 -0.11390396583521353 0.251666829911829
1702375000.0 -0.10454877912279183 0.23979954274419665 0.11441916702721186 0.10545714415135325 0.11457800802008389 0.10519181695878076 -0.11267996315888973 0.25337815115763623
1703062000.0 -0.1036816944194462 0.2417245871407068 0.11643653765041347 0.10300533809548036 0.11665308154339869 0.10273877202679507 -0.11155975407256416 0.2551489506221626
1703750000.0 -0.10271939756232523 0.24375095218727352 0.11827602501753345 0.10057346553299916 0.11863723428754128 0.10030612445936045 -0.1106798087032857 0.257337449960555
1704438000.0 -0.10189220150833479 0.24545000607098671 0.12020634408343861 0.09816104140791965 0.12059626717002485 0.09787087814452147 -0.11002373711814824 0.2591536374835155
1705125000.0 -0.10108849111514762 0.24733933891139134 0.12216585339109146 0.0955217523465595 0.12246800633492477 0.09537405591584168 -0.10928784125031837 0.26074730180392763
1705812000.0 -0.10021992929983677 0.24923014815827135 0.12378516076214041 0.093148319244468 0.1242628791873829 0.09278860143290019 -0.108933065917795 0.2622970634425727
1706500000.0 -0.09924491900474666 0.25092541131106455 0.12552393403456857 0.09068216556805324 0.12604175604676582 0.09026936785607502 -0.10837883245143412 0.2640944392817998
1707188000.0 -0.09821775134575766 0.25264909584852224 0.12722161845562366 0.08807639443799059 0.12763076315758048 0.08773612573329903 -0.1078873236795739 0.26537015075846204
1707875000.0 -0.09733740415950295 0.25438748837067493 0.12880719301043245 0.08548659966736205 0.1292077466142532 0.08518246822745928 -0.10744111011284321 0.2667154392409437
1708562000.0 -0.0964263374691086 0.2560418286423327 0.13037854221303977 0.08296198487806863 0.1306978049651202 0.08252794111028539 -0.10714749063058397 0.26760589294883974
1709250000.0 -0.09541602971626433 0.2577055216934597 0.13185547602321374 0.08026489554357574 0.13231621040228428 0.07986827832918826 -0.1063872435893437 0.2682866861224272
1709938000.0 -0.09437025630132685 0.25928722891704814 0.13339325510828814 0.07769357092183088 0.13371508235392798 0.07720505323354178 -0.10544939277355271 0.2689120928398628
1710625000.0 -0.09331818668171539 0.2608151288987468 0.13474118912456176 0.0748755310520123 0.13500729752353216 0.0745007362566221 -0.10437714481378263 0.2694737446284632
1711312000.0 -0.09211114024882656 0.26232551198400195 0.1361831474807119 0.07209375612192455 0.13635916025941525 0.0716829606447295 -0.10304185477875825 0.26973421998905855
1712000000.0 -0.09102461073786136 0.2638657164195925 0.13745577466063336 0.0694757809194498 0.13750044462238895 0.06898072444556361 -0.1018822984741087 0.270079863798114
1712688000.0 -0.08997494079135872 0.26530308735828856 0.13856478956166016 0.06665519595530876 0.13874473091161868 0.06623655360186638 -0.10001699938703021 0.2700636776131025
1713375000.0 -0.08859624309706908 0.2667919031211835 0.13975476358105818 0.06387305450865298 0.13998483397266953 0.06359001976514375 -0.09793991678905695 0.2703401324305008
1714062000.0 -0.08729494528964991 0.26831224293810624 0.14103892531611645 0.06115322165150914 0.14103198957216864 0.0607505698478727 -0.09547110954114267 0.27044465559988345
1714750000.0 -0.08583483407127288 0.26959146196286604 0.14197997584478303 0.05822400077993694 0.14201835112888153 0.05788207556201062 -0.09257008031838072 0.2710316132765781
1715438000.0 -0.08458348492392585 0.2709926897634854 0.14301529972438567 0.055463259002855696 0.14301278446728513 0.05507440382417488 -0.08976834693896522 0.271439488576149
1716125000.0 -0.08288379046668304 0.27219180076620786 0.14398197474733326 0.05242435543567227 0.14399340250477966 0.05219635984992977 -0.08664527489342387 0.27251193392071943
1716812000.0 -0.08130080520188586 0.2735957700008317 0.14489600838624317 0.049546308934915864 0.1447953617440583 0.04934935719491607 -0.08343978296076537 0.2734633401927649
1717500000.0 -0.07995756195005181 0.2750756199673235 0.14550752316568255 0.04670917617448653 0.1456871169810899 0.04653548103302855 -0.08017620758900751 0.27490096911257045
1718188000.0 -0.07801633140356824 0.27625866001975236 0.14626756088054854 0.04379571335384506 0.14635243867351022 0.04367261787409852 -0.07716623655052787 0.2762243758903526
1718875000.0 -0.07621442942361678 0.2776925077260198 0.14689066901688158 0.040819135582690916 0.14707816533981952 0.040824895588233844 -0.073736372578699 0.27805346900566225
1719562000.0 -0.07439352053116337 0.2788535909218588 0.14747923332891508 0.03797470341854854 0.14774964276923955 0.03802068453503766 -0.07079066061707534 0.28005704131880027
1720250000.0 -0.07244508984383179 0.28044686415765774 0.14798170888069326 0.03505390428244196 0.1482827492530189 0.0350912905991068 -0.06761410608896784 0.2821444414475622
1720938000.0 -0.07058213706418257 0.28177246948245216 0.1485595767398251 0.03208686425485984 0.14891874165619998 0.032281834898510435 -0.06509511907724987 0.2848269082455113
1721625000.0 -0.06855265558077106 0.28316868758580316 0.14885511066439341 0.029352715579685783 0.14941297072176934 0.02928831345037685 -0.06228307004347673 0.2876617210349491
1722312000.0 -0.06653586793727607 0.2846322471220658 0.14929396960225502 0.026397351195296806 0.14990563633821263 0.026381550927163867 -0.059784542589161736 0.29031860452018327
1723000000.0 -0.06457741038168631 0.28610223824532693 0.14963117063759493 0.023582582830006825 0.15027134773969236 0.02352578001564273 -0.05784925450608114 0.2929677500455294
1723688000.0 -0.06246768915824747 0.2875231585176344 0.14988627480051347 0.020629370095164638 0.1506825004637315 0.02054571422837639 -0.055939565914796645 0.2957287249661406
1724375000.0 -0.06041358310391524 0.2890702237929138 0.15010061017196344 0.017839551150032107 0.15094363204393235 0.01758053971312202 -0.054528770700049495 0.2983144975505874
1725062000.0 -0.058312132000863 0.29071567112152136 0.15037913040150505 0.015004189151395333 0.1512725488789404 0.014643176334828058 -0.05322464208247209 0.30100190108806785
1725750000.0 -0.056364039475007954 0.29236038424607613 0.15044322988137526 0.012216453757412113 0.15151455733458274 0.01175686008292261 -0.0522864173069012 0.30299884660861764
1726438000.0 -0.05431116295237834 0.2937600515424655 0.15072164090815357 0.00932203014422259 0.1515076650932865 0.008809537013302724 -0.05130648226809767 0.3052994296406181
1727125000.0 -0.05214193733057718 0.29547392000258565 0.15072258988791407 0.006704659832729564 0.1515652861864973 0.0057820234364480225 -0.05063916691689927 0.30709223222236687
1727812000.0 -0.050229522288609635 0.2969637032872266 0.15067346501241047 0.003823616690203688 0.1515963010855585 0.00283246754523068 -0.049872646522300695 0.3084369991334262
1728500000.0 -0.048297964839161406 0.2988482215991421 0.15065449885877424 0.001010149915089943 0.1513598209059533 -0.0002982587762872097 -0.04907337037884251 0.30926069587725274
1729188000.0 -0.04627152525787925 0.3006491576950801 0.1507493923330075 -0.001837920839085575 0.1511655610390609 -0.003251837997587861 -0.04824376215608538 0.3100473470247825
1729875000.0 -0.04389944114331255 0.3019478569804754 0.15053555303314925 -0.004655128935135414 0.1508582861622446 -0.006167641687672849 -0.047399558198490746 0.3104248584236978
1730562000.0 -0.04207748374518187 0.30358179165485355 0.1503334482641156 -0.007498609773086489 0.1505332455738586 -0.00897434377786887 -0.04619725898622526 0.31043411551385225
1731250000.0 -0.03990934338441381 0.30539477308186697 0.150228124324849 -0.01032514718012622 0.15020363235771247 -0.01193457267002821 -0.04456973467859566 0.31042369725989466
1731938000.0 -0.03795077201620483 0.3069003011881895 0.15003131873759562 -0.013242845509474495 0.14968533921790855 -0.014777031482299018 -0.042891341728248725 0.3103763584318061
1732625000.0 -0.03568395252458988 0.30864455728643747 0.1497137734868677 -0.01627326904830647 0.1491727498298255 -0.017541973906383863 -0.04107387172172506 0.3098467841038938
1733312000.0 -0.0341270129366198 0.3099788016303631 0.14941365663905715 -0.019117050316339063 0.14858791551530195 -0.020273212764759192 -0.03851995467113481 0.3094081713506783
1734000000.0 -0.03202868476262804 0.3112998562166548 0.148959320634343 -0.02203307820090405 0.1479412947078715 -0.023013901293368874 -0.03584465396705864 0.3091061600210887
1734688000.0 -0.02976672238576416 0.3127621057509091 0.1485598164700778 -0.025051935740387932 0.14744243519096506 -0.02580600832873765 -0.03299520428000406 0.30862481599697406
1735375000.0 -0.027901442590614257 0.3140033074765676 0.14797481420039607 -0.028036833201627594 0.146813233113286 -0.028491596628231947 -0.029645714434172386 0.30839402945390026
1736062000.0 -0.025780546917340063 0.31517573770885 0.14729107823940654 -0.030964542862415796 0.1462796553366447 -0.031190046224907984 -0.02628535907446877 0.30875643464350844
1736750000.0 -0.023938991770292496 0.31633482777616 0.14662937139293136 -0.03392337629710522 0.1456404711528683 -0.03381074533528087 -0.022894569083108662 0.3092042961349193
1737438000.0 -0.021920583989242078 0.3172475756536502 0.1457768488936295 -0.03685964533413993 0.1449399945402234 -0.036459848446798025 -0.019305297433806812 0.30971389323955373
1738125000.0 -0.01991938771151652 0.3181159693595383 0.14497782202469545 -0.03981845310515453 0.14425422453921696 -0.039282291267515396 -0.015862265507968078 0.3106775877562846
1738812000.0 -0.01802781951863897 0.3190503529293363 0.14404396201190453 -0.042515462046421516 0.14353824696323567 -0.04207421456144017 -0.012110415077843785 0.31201941348079826
1739500000.0 -0.016109455828015245 0.3198984781251559 0.142983411353811 -0.04556123200419669 0.14282259686888 -0.04480112888476038 -0.008689359572386033 0.3134061049414499
1740188000.0 -0.014047873530239471 0.32073764176224984 0.1418797679837931 -0.04828549525861251 0.14191137016873617 -0.04764115256374463 -0.0052641919417267665 0.3155472869904188
1740875000.0 -0.01213482557213125 0.3214602626947234 0.14075186205343962 -0.05089694070158546 0.1409823924515406 -0.05032730529918617 -0.002579453290647047 0.3173751116458917
1741562000.0 -0.010097976507232652 0.32220233626272426 0.13953629865867362 -0.05366120219879333 0.14003824125307127 -0.05312173718108554 0.00018319370117426885 0.319688757506858
1742250000.0 -0.008040650873635731 0.32292541882159465 0.13843149270811153 -0.05636377609147599 0.13907842825820974 -0.05598150694065556 0.0023951636761984775 0.32261590555000125
1742938000.0 -0.005771476538508241 0.32352448823661156 0.13694867898591273 -0.05885673947834747 0.1379546518274223 -0.05870855519089125 0.0045686025664156615 0.32457983281436725
1743625000.0 -0.0038003072405702193 0.3242737776993596 0.1356605379862535 -0.06129509310964835 0.13677677278601047 -0.06128245573789976 0.005879270478199325 0.3274204496786055
1744312000.0 -0.0014533653807609485 0.32463125568313855 0.13439307832441502 -0.06367698455782167 0.13558354473623344 -0.06392761809376334 0.007301593459387268 0.33040174465784766
1745000000.0 0.0007943463212463616 0.32505037800741765 0.1329475683397791 -0.06600790284687416 0.13410783088212994 -0.06658007149911091 0.008119451775078924 0.33235520499828536
1745688000.0 0.0031020954590958738 0.3256397379890054 0.1316983868076735 -0.06834435381049211 0.13282623511812047 -0.06907168040900159 0.008593800720755506 0.33462075802323504
1746375000.0 0.00541717806708951 0.32598535071502227 0.13030255758255094 -0.07052348556557048 0.13125080057914243 -0.07165550640861279 0.008805788002133965 0.33621788073219117
1747062000.0 0.00795631305963043 0.32629099706689285 0.1288035644281984 -0.0726902476003734 0.12985760757958562 -0.07392873479457031 0.008527053353969445 0.33764191803670296
1747750000.0 0.010406057914553814 0.3269286022194273 0.127585919053912 -0.07483937926702887 0.12843088670818922 -0.07640809323572896 0.008531142946219004 0.33856196429824037
1748438000.0 0.012759875988220561 0.3268278213419875 0.12631175501615424 -0.07704892253444535 0.1266720319029977 -0.0785045118706441 0.008687771242757235 0.33903310665809006
1749125000.0 0.01515520373645099 0.326912867236144 0.12477684341514689 -0.07887502539466601 0.12518410115514653 -0.08062233924868695 0.007966028732101145 0.3388634781924018
1749812000.0 0.01770940957218331 0.3273698383062084 0.12373748099971917 -0.0810221828024943 0.12358672106093008 -0.08281536090057104 0.007797701059298241 0.33854094046998673
1750500000.0 0.020210397457624565 0.32732064585439297 0.12221965217237638 -0.08302276456457472 0.1218834172174664 -0.08476712358575092 0.008398979518848175 0.33789935297253376
1751188000.0 0.022716224745415643 0.3274320509138847 0.12112819201290606 -0.08526278218195539 0.1204597858564745 -0.08684448645648207 0.00858126837220238 0.3370810326367472
1751875000.0 0.025172587077009072 0.3275881477359681 0.11962261624371112 -0.087402600537605 0.11872614319366369 -0.08888760119394787 0.009464950145827458 0.3351871664881283
1752562000.0 0.027660586994016495 0.327500516960931 0.11832393747947628 -0.08956942139412602 0.1170230440432138 -0.09090784890916473 0.010703767650754521 0.33319604964243127
1753250000.0 0.030012565614196296 0.3277651230033242 0.11669892043583945 -0.09176727884116272 0.11552764190979915 -0.09286025887214813 0.012294799330909248 0.33127970257513584
1753938000.0 0.03241709226827265 0.327765237909948 0.11519285609374914 -0.0940570889205463 0.11384288819070527 -0.09489384641732455 0.014269879677742984 0.3293703214883104
1754625000.0 0.03490373639676172 0.32771390718918936 0.113510743456036 -0.09630402207848454 0.11218569922055718 -0.09703559805379752 0.016981112248978737 0.32727108543539124
1755312000.0 0.037041033613664565 0.3279000069815215 0.11175461126553578 -0.09851764021281603 0.11048048845901719 -0.09904674715597321 0.01934314389562076 0.3254492450780811
1756000000.0 0.039305764441024266 0.32788361817916223 0.11007047972183999 -0.10090157766630323 0.10875926408966313 -0.10101068773044157 0.022502052575018906 0.32357432620240156
1756688000.0 0.04156616634639834 0.32816710073437905 0.1078599375633166 -0.1030852550632152 0.10683638703755553 -0.10319896483247609 0.026032742467126526 0.3217885974360381
1757375000.0 0.043711367845494925 0.3282742995058783 0.1058028054287938 -0.10546010656488976 0.10488342320947504 -0.1053531299988198 0.029584073111111726 0.32058212498857425
1758062000.0 0.046153194540449805 0.3284188380613131 0.10370490133361569 -0.1075440612700747 0.10287667223236174 -0.10740336573796105 0.03328891719852568 0.31957347147234194
1758750000.0 0.04830236339753492 0.328391126656587 0.10155092988771652 -0.10969782187166735 0.1007969681789663 -0.10947888438017597 0.03696575012466096 0.31866720892864614
1759438000.0 0.05054242462102388 0.32869573853597744 0.09904821488935922 -0.11183119580242812 0.09857795371024368 -0.1114986452354258 0.04123091141548956 0.31815476237510976
1760125000.0 0.052639978995957376 0.3288101044055274 0.0966893361576283 -0.11388407698665486 0.09626383499593526 -0.11353323993182846 0.04487685729303505 0.31786310089564934
1760812000.0 0.05487284285106175 0.32881781036463065 0.094143573062246 -0.11575656558950446 0.09394293668823478 -0.1154865290042603 0.04873635091047093 0.31812220414522935
1761500000.0 0.056901584605558636 0.32879916617943217 0.09163621315376876 -0.11758919022512075 0.09142465835619659 -0.1172516448957551 0.05209108084999414 0.3183508899875465
1762188000.0 0.05910777278650161 0.3287125156390932 0.08905700577577784 -0.11930571966319867 0.08898438875556237 -0.11901415738810621 0.055250398180892585 0.3191674100556775
1762875000.0 0.06133127997719562 0.32851707217489956 0.08656318604141912 -0.12088625445274598 0.08645935216821046 -0.12066000821637028 0.05798096900541772 0.3200758541687106
1763562000.0 0.06328836505635649 0.3281900104619561 0.08387042920566716 -0.12236285719801339 0.08390006510647367 -0.12221001388822879 0.06127437170291885 0.3209521681885864
1764250000.0 0.0656104701977146 0.32758054178054147 0.08129717557866986 -0.12388944283306909 0.08139799319989012 -0.1236484638513667 0.0633620743632363 0.321892170021356
1764938000.0 0.06726562839124889 0.32713996592187466 0.07872395542070999 -0.1251396005477723 0.07894093068015968 -0.12495322380414169 0.06496114767022697 0.32286296666740777
1765625000.0 0.06933137852063775 0.32676403424533484 0.07615926291789164 -0.1264925722135093 0.07654649690674711 -0.12641404625427813 0.06626366183334845 0.32342629486818597
1766312000.0 0.07094978341637649 0.3259899651533189 0.07373614360228103 -0.12752508924450298 0.0740948853238011 -0.1276215463863898 0.06752187989570926 0.32425939751909233
1767000000.0 0.07281718923694278 0.32544515953066083 0.07139356272820509 -0.1288230234318455 0.07162783299986039 -0.1289627148437059 0.06829835862059758 0.3246382596766426
1767688000.0 0.07460490732689552 0.32443762967656775 0.06899617145412869 -0.12987030193567525 0.06926580639231521 -0.1301525763413597 0.06894067744499917 0.324939241948473
1768375000.0 0.07646763772258786 0.3236437275034469 0.06651104839200668 -0.1309598703122354 0.0669712407883814 -0.13137645561388767 0.06927747953597752 0.3247392419799652
1769062000.0 0.07809600184449313 0.3225681884890608 0.06402152694883784 -0.13213116276963083 0.06455575363406227 -0.13253558982298494 0.06983706204462013 0.32386766220344676
1769750000.0 0.07992088723209584 0.32179292689690536 0.06176960009364694 -0.1332029760493037 0.062220226975865454 -0.13392058453199623 0.07004584554903862 0.3229812087730432
1770438000.0 0.08153673503933546 0.32080719213884035 0.05949229954685643 -0.13427261729981718 0.05989234022639042 -0.1350487730604126 0.07040334444712051 0.32175251748145606
1771125000.0 0.08324419256227891 0.3198311124545769 0.0571858391927319 -0.13541957488596457 0.05748672234385061 -0.13637907815060474 0.07104868338282862 0.3201269735275011
1771812000.0 0.08501552861515704 0.3189336072180184 0.05493539428169182 -0.13658976270399495 0.055048056425583546 -0.13753449463338271 0.07175902074636037 0.31820817496271475
1772500000.0 0.08656933324133756 0.3179217975683807 0.05250464819707614 -0.1374134411140956 0.05261964821192471 -0.13878238360029463 0.07270945611128886 0.3159640507073031
1773188000.0 0.08842211620029927 0.31679889771746905 0.050235393382271 -0.13863759912604914 0.0499554655128461 -0.13987409943677243 0.07403331948150381 0.31390127558107744
1773875000.0 0.09020813016314709 0.3159230855776596 0.04776887897407314 -0.13973628661986504 0.04730692797729093 -0.14101541891910507 0.07560224227985342 0.3117655509341217
1774562000.0 0.09204015917692011 0.3149419670457822 0.04525402966513631 -0.14077336301638016 0.04464604567351327 -0.1420870105018473 0.07775878091412552 0.30965929865926417
1775250000.0 0.09393323635689153 0.31383559314035786 0.042862680808818755 -0.14188451247620784 0.041732976305842516 -0.14307481551505064 0.07985872464378918 0.30747708534997614
1775938000.0 0.09595044670360423 0.3128574125536107 0.0400814542544728 -0.14284688006733773 0.03889671519318433 -0.14388992055629443 0.08217228118940507 0.3049918131765751
1776625000.0 0.09788881702047066 0.31190792705859105 0.03722357953770072 -0.14372555968968492 0.03599745289457882 -0.14475126497496119 0.08515068083810791 0.30344313287486474
1777312000.0 0.10010789129109463 0.31098322670326456 0.03447955064620156 -0.14479177602253682 0.03293607945166832 -0.1454275424898401 0.08777430349020643 0.301795819149975
1778000000.0 0.101889403204902 0.30974699891176977 0.03169470644394051 -0.14554502770385097 0.029948682746817917 -0.14598715816697275 0.09137890887075113 0.3003020626668031
1778688000.0 0.10396856369972972 0.30888237096293114 0.028709594264243698 -0.1462540026748542 0.02711296560835763 -0.14654253153587068 0.09410052400556737 0.29940707552049534
1779375000.0 0.10608863818221699 0.3077265156584797 0.025871334273901314 -0.1469144827135698 0.02409086136126064 -0.1469165151099238 0.09735102276840654 0.2983647240977449
1780062000.0 0.10799323376510395 0.3064954955353603 0.022817881446604682 -0.14746395585769442 0.021193040577152898 -0.14722237174782601 0.10043285470767896 0.29790279224230864
1780750000.0 0.10997526157529092 0.30546682252631413 0.01963010782229244 -0.14789259930569584 0.018236314361029397 -0.1473973163871995 0.10372242359866783 0.2975577866587411
1781438000.0 0.11202320099171499 0.30429584570686874 0.016664021093975263 -0.1483949129680598 0.01540730580150198 -0.14762341577692997 0.106365729074875 0.2975067105284257
1782125000.0 0.11385722701508545 0.30342440073468524 0.013592496336220788 -0.1487030421613303 0.012636248352454358 -0.14779669303979642 0.10926544484750102 0.2977602587085614
1782812000.0 0.1155559553343025 0.3024052825162481 0.010620277514740359 -0.14891001591544112 0.009819397338755814 -0.14795749754781554 0.11174166928539117 0.29825656295520686
1783500000.0 0.11721208810899607 0.3014921149339041 0.007626735903253506 -0.14895918359993465 0.007252248418362679 -0.1480044866466419 0.11388152510995278 0.2987094416210265
1784188000.0 0.11890108874740693 0.3005931590867395 0.004574495482724609 -0.14911223751758973 0.0044719749476287264 -0.14801194077365554 0.11588484029943014 0.2993608185299226
1784875000.0 0.12045214327200723 0.29974525961318216 0.001540948735140682 -0.14908278771349304 0.0017926362663371461 -0.14813843122247303 0.11749033104006357 0.3000771479982937
1785562000.0 0.12196310838400469 0.2987990481145009 -0.0013906032856449678 -0.1489789095181275 -0.0009620599167971125 -0.1480863885527036 0.11877355450500371 0.30076846020351156
1786250000.0 0.12336988768675834 0.29803750504883353 -0.004297232781229474 -0.14889552235255263 -0.0036980409868247357 -0.14812025275478038 0.11987198189983543 0.3013350916352696
1786938000.0 0.12481378036544939 0.2972691019681954 -0.007215248365140862 -0.1485550617241158 -0.006504425435538054 -0.14821717591643202 0.12044516180202589 0.30198343905466357
1787625000.0 0.12635367101616524 0.2965350396781154 -0.010066330476200607 -0.14842152767330083 -0.009308300785165454 -0.14815778194075666 0.12093175763417291 0.30221657580832356
1788312000.0 0.127528282083922 0.29591315932735934 -0.012883402992623635 -0.14806182599702453 -0.012261092362399886 -0.14825194455501556 0.12101075722659971 0.3022577891373432
1789000000.0 0.12896455036492277 0.29514262980974987 -0.01579912078623368 -0.14768673305789015 -0.015190469855790192 -0.1481196542123093 0.12124589009515248 0.3018595575686909
1789688000.0 0.13026587770138953 0.29448680237993413 -0.018676328045944483 -0.14747030755828566 -0.018288007300672243 -0.1479169082511743 0.1214220583759483 0.30132825384893713
1790375000.0 0.13147083184212913 0.29389683407217 -0.02160377252023841 -0.1470049258391273 -0.021229202036488076 -0.14783393137370818 0.12151065477747093 0.3005489286401343
1791062000.0 0.1329997223862131 0.29329074264386074 -0.02448113589133898 -0.14659710801651893 -0.024393409102094445 -0.14750037822177642 0.1217218008617504 0.2993379744544893
1791750000.0 0.1342748566536342 0.2924962036050409 -0.027387085162983937 -0.14611540303523568 -0.02747860281105614 -0.14710062802455778 0.12216890643831639 0.29818343371740746
1792438000.0 0.13559607966083784 0.2916368951581916 -0.030263624490196962 -0.1455245236782903 -0.03057288535273795 -0.1466074220477068 0.12231438984589801 0.296730492856991
1793125000.0 0.13677334312909825 0.29099367298616763 -0.03308019141972851 -0.1449364306073163 -0.03364631374230247 -0.1460634214238684 0.12324796236329298 0.29502427575280454
1793812000.0 0.13808387328029176 0.29006249709650006 -0.03599916858259617 -0.14423538012878998 -0.03668722620644968 -0.1453745502826563 0.1241677032339354 0.2936835422259025
1794500000.0 0.13927649195193692 0.28898626145572287 -0.03878712123201415 -0.14347701279001224 -0.03967670672204929 -0.14455871881239668 0.12522302476672165 0.2922829305413862
1795188000.0 0.1404565352878089 0.288259477631238 -0.04175241794553405 -0.1429426016057122 -0.042616115895201596 -0.14380093722986825 0.12650048110586024 0.29095820129699307
1795875000.0 0.14158209341302308 0.28716048713939646 -0.044490834930080145 -0.14205548856289985 -0.04558868170924759 -0.14282516536359968 0.12802990046375806 0.28962233833317763
1796562000.0 0.14273744158531082 0.28630748012331925 -0.04726076996277798 -0.14125787643716897 -0.048389618998725924 -0.14171821487255937 0.1292906853528593 0.28835866038226043
1797250000.0 0.14377372296235386 0.2850904417070934 -0.04998333131976809 -0.1402166070866786 -0.05125648552111678 -0.14052450022205107 0.13106922984367445 0.28705765998165694
1797938000.0 0.1449549033456108 0.2840747798983496 -0.05274010945886984 -0.1393502602719653 -0.05399918300435712 -0.1395250206106912 0.13254117763482837 0.28615890238686864
1798625000.0 0.14618004618119965 0.28304256636857883 -0.055588051924331285 -0.13841853735115153 -0.05673306402401262 -0.13825307817166507 0.1341023377467368 0.28558556898661575
1799312000.0 0.14710641532268623 0.2817851815524221 -0.05825490026469291 -0.13737510873548217 -0.059349890759741064 -0.13694135943894978 0.1357178281120593 0.284485790406709
1800000000.0 0.1483512153820764 0.28079699681251064 -0.06105123831897463 -0.13615092388223557 -0.06204336190180743 -0.13576278978648745 0.1373699666341189 0.2843474153165627
