! Created with skrf 1.9.0 (http://scikit-rf.org).
# Hz S RI R 50.0 
!freq ReS11 ImS11 ReS21 ImS21 ReS12 ImS12 ReS22 ImS22
700000000.0 0.1741366797566993 -0.8546269813991259 0.04014447555971064 0.04432180982233546 0.03886885050457414 0.04753631939701264 0.14098079425579269 -0.8292011982720872
700687500.0 0.16828639370179502 -0.8544765408097185 0.041206062281476774 0.04344652624862755 0.04067061575844993 0.04681649042831574 0.1355809893223317 -0.8293259620130466
701375000.0 0.16264465745964796 -0.8543575685858087 0.0421837493594816 0.04248244462241419 0.0424373039331315 0.045898138279462555 0.13009559746481575 -0.8293107356570503
702062500.0 0.1570456438305393 -0.85433092129124 0.04318985711242873 0.041658058499493306 0.04425065469841776 0.044881266155705514 0.1243786426927427 -0.8293907651543181
702750000.0 0.151427784964129 -0.8541154718566027 0.044135200130091375 0.04086317581502232 0.045912210513927194 0.04369127691389582 0.11873342697451585 -0.8293522543627005
703437500.0 0.14585467752689185 -0.8540365216369837 0.04509953222738284 0.040147093755270355 0.047492725201541255 0.042430580537549084 0.1130257998216408 -0.8293673666424697
704125000.0 0.14009194102332836 -0.8536929556849777 0.04605342579843545 0.039492544034119906 0.048908726025177186 0.04104369116464659 0.10743036932925598 -0.8292582002190796
704812500.0 0.1344480664288534 -0.8534303711985993 0.04711962454034401 0.03871277687019384 0.0502194510362824 0.03961938050060474 0.10158484693500967 -0.8290431647849386
705500000.0 0.12890508675019507 -0.8532146353358 0.04821804202213592 0.038093817349977264 0.05135142265837749 0.03817328820400038 0.09587269332202629 -0.828932628195276
706187500.0 0.12308616592797436 -0.8528333071909115 0.04932026899922034 0.03739614367147428 0.05235408234780409 0.036781330805328485 0.09000803828739104 -0.8285174595160855
706875000.0 0.11751565472915734 -0.8523382379523378 0.05047804108396835 0.0367193454574827 0.05320316107148346 0.0354275969340493 0.08411824465344166 -0.8281553127935379
707562500.0 0.11187380266814899 -0.8516807501945056 0.05169618077865184 0.03600706460297714 0.053975013167916315 0.03415951168968242 0.07838107532076329 -0.8277700445960777
708250000.0 0.1061011986257464 -0.8508304393323072 0.05296054155788732 0.03519967645544756 0.05465377071031107 0.032939484780010644 0.07255442239444929 -0.8270995187012337
708937500.0 0.10023646610954894 -0.8501793738719574 0.05425594628445184 0.03440713851466579 0.055362817064417855 0.03184496264013996 0.06685493249544454 -0.826393962033544
709625000.0 0.09460965094596673 -0.8493430136560757 0.05559787939446634 0.03346852011540633 0.05603200170752483 0.03090559360078596 0.0612235675280245 -0.8255301025253383
710312500.0 0.08882330679084857 -0.8482194696645936 0.05696567771841625 0.03252341549595468 0.056769704481713895 0.030005478981406895 0.05550138855019417 -0.8245369337724754
711000000.0 0.08296362855553835 -0.84684968252148 0.058255088860239806 0.03144081624077639 0.0575608870168611 0.029113364619060732 0.04974795961356999 -0.8233818299053535
711687500.0 0.07713831703236135 -0.8458025791962309 0.05964221391013153 0.030304903123147632 0.058474819393696024 0.028289633707866642 0.04396432880035226 -0.822433364413638
712375000.0 0.07117170670470445 -0.8445533308803451 0.06097499634743255 0.02909876046115801 0.05947120407931562 0.027456823896600077 0.03814992298622521 -0.8212764337012031
713062500.0 0.06535466777090197 -0.8430178441244977 0.0623135846753076 0.027772844156113 0.06053848564120375 0.02659747570854523 0.032516968179536115 -0.8199974768127798
713750000.0 0.059470535358926886 -0.8414370131296732 0.06359020120974847 0.026382054774679274 0.06168790711516081 0.025608137409556243 0.026836550657805068 -0.8188032449322444
714437500.0 0.05348655778827282 -0.8396316871096311 0.06484755525778997 0.024875372612375553 0.0628778106839064 0.024600124872700663 0.02130668302926646 -0.817628104490413
715125000.0 0.047484702841386554 -0.8379239439036401 0.06591551399781127 0.02337093573333925 0.0641389389136684 0.02346610762154513 0.0157053691304577 -0.8162441971506987
715812500.0 0.041692180078380825 -0.8359339390120673 0.06708166793413896 0.02165835090903249 0.0654082699223064 0.022220007331635535 0.010120223391912327 -0.8148709991957216
716500000.0 0.03586424446506511 -0.8340476590773346 0.06810643691211404 0.020029003729430568 0.0666800836001181 0.020841218998867077 0.004603099829422076 -0.8134299697253858
717187500.0 0.030011294140974837 -0.8318389879486559 0.0690332485459834 0.018283673087430903 0.06794405622623731 0.01932924783067529 -0.0008362839495516092 -0.8119019797604513
717875000.0 0.024047464105999204 -0.8295899147678285 0.06990155542134867 0.016544788875625938 0.06909851031381242 0.017739022802616824 -0.006370394373723413 -0.8102295985560458
718562500.0 0.0181999062133158 -0.8274302458091167 0.07072882350698848 0.014786690099500215 0.07024487879409697 0.01602974427764989 -0.011725054760442997 -0.8085813485991548
719250000.0 0.012614250295706772 -0.8247963014481844 0.07141559889034123 0.013083692077180095 0.07123324760959669 0.014301667949577412 -0.017285414797377906 -0.8067874696213033
719937500.0 0.006925280242352497 -0.8226891592824664 0.07211658212898607 0.011360468235890382 0.07222502716002209 0.01248994181101794 -0.022604408477355623 -0.8048627910608367
720625000.0 0.001239488583339989 -0.8198491240638375 0.07277682648713926 0.00961948552657018 0.0731090235359179 0.010587677472692339 -0.027936359943613764 -0.8028125085999261
721312500.0 -0.004090479613542685 -0.8174383534046464 0.07347429462631389 0.007897494443669327 0.07390734573318684 0.008696791363914021 -0.03325336928048471 -0.8007763706486961
722000000.0 -0.009484551752237714 -0.8148737200697127 0.07416036895683979 0.006079099437771643 0.07468071749309217 0.006717969671045986 -0.03874623074998977 -0.798415541867814
722687500.0 -0.014827384983900056 -0.8126574337794918 0.07473928486362313 0.0041179977137458836 0.0752663289333867 0.004609728739485234 -0.04450724177580742 -0.7963378929054538
723375000.0 -0.020315706434352473 -0.8106238038802134 0.07516209142078102 0.0022291197661315765 0.07567262156194995 0.002566606229438658 -0.05007265410484656 -0.7939487859175528
724062500.0 -0.02613036587956376 -0.8083957676503845 0.07549566983439343 0.0004332950449368191 0.07595600561583879 0.0005929683822474744 -0.055946354970564036 -0.7916149190387606
724750000.0 -0.031954761266063114 -0.8059670599806825 0.07581757013623056 -0.0013594385683253123 0.07622078831939139 -0.0012074536829702251 -0.06152691890237845 -0.7889751006947263
725437500.0 -0.03758567826698461 -0.8033095883914522 0.07616797489217812 -0.0029401298819364406 0.07646623282889235 -0.0029015695626378834 -0.06746198905222157 -0.7862530304153288
726125000.0 -0.04312851857376965 -0.8005101324592124 0.07663660699881855 -0.004650759991997718 0.07686349911381178 -0.004545414235057009 -0.07308723550366207 -0.7836810222818923
726812500.0 -0.048765135732813034 -0.7977259810246476 0.07713710555230308 -0.006341322696338968 0.07732696163216021 -0.006218608187471265 -0.07890417782185563 -0.780885020617986
727500000.0 -0.0542772300861574 -0.7949504390673541 0.07763763092564857 -0.008127467705861554 0.07783252947447317 -0.007951650123708394 -0.08450658420499473 -0.7780520944869999
728187500.0 -0.05953391601189641 -0.7921830378841316 0.07819461486080491 -0.009945512039668104 0.07842414296050407 -0.009734970136723304 -0.09029419384695893 -0.7752709969270509
728875000.0 -0.06487942283506284 -0.789384485668806 0.07876234759016552 -0.011789127542354812 0.07905865125660819 -0.011609619009488162 -0.0960894592241004 -0.7723617898033275
729562500.0 -0.07002742073024784 -0.7866324719729508 0.07930647292905676 -0.013849769487211719 0.07970816205305897 -0.013580531543078901 -0.10168757013942602 -0.7693567816188017
730250000.0 -0.07528644521331279 -0.784032914802664 0.07981006067141234 -0.01594489593468914 0.08027436553151533 -0.015757666312889104 -0.1074785483326909 -0.7662741891694903
730937500.0 -0.08045299644874593 -0.7813279813370259 0.08021086315867221 -0.018181234429979515 0.08080074467843955 -0.018033163585677157 -0.1131443051158329 -0.7631821121708208
731625000.0 -0.08598688879606375 -0.7785812754170273 0.08062684387502256 -0.020479964576403744 0.08128817154369665 -0.020424564668999924 -0.11912560326814728 -0.75990808982083
732312500.0 -0.09133811796786126 -0.7758529014895211 0.08090298360641714 -0.022834510419291455 0.08157660301281101 -0.022892628227511362 -0.1251658377157764 -0.7567063453757467
733000000.0 -0.09677273842991538 -0.7730588445086843 0.0810715065371387 -0.025209998314962602 0.08179523088545876 -0.025426713213664402 -0.13097462231819446 -0.7534986669477272
733687500.0 -0.10222631965107595 -0.7700655653100151 0.08108420127118873 -0.02759559006422853 0.08180926194126167 -0.028018769622644844 -0.13684847348917056 -0.7500428816779736
734375000.0 -0.10747486147533415 -0.7671813581528348 0.08108113663641611 -0.03007890065657272 0.08172773573166302 -0.030551829523921496 -0.142590441669348 -0.7465530402914461
735062500.0 -0.11281620452869731 -0.7640203203979811 0.08103704393885222 -0.032422932575959636 0.08155304416371585 -0.0332026434845172 -0.14820026472071549 -0.7432959910245786
735750000.0 -0.11804701806774347 -0.7607392868275975 0.08083157797704982 -0.03487189865510389 0.08122573809959723 -0.03577381513735464 -0.15385449538534252 -0.7397740220330046
736437500.0 -0.1230268619382849 -0.7575021729887425 0.08055561493023304 -0.03735684899357912 0.08080389240299579 -0.03833530652415854 -0.15910235512012574 -0.7362203156433593
737125000.0 -0.12825659321986926 -0.7540149863535586 0.08027441586217395 -0.03980840257877138 0.08027015962840142 -0.04090490983521833 -0.16444067733770815 -0.7326018949111955
737812500.0 -0.13313637957294572 -0.7507369271213273 0.07987914641113357 -0.042325166144378715 0.07964349503226094 -0.04341563464691361 -0.1695695720768794 -0.72893379850528
738500000.0 -0.13783504934803728 -0.7471461181549521 0.07943471946226631 -0.04482186372084896 0.07897057771149424 -0.04590263458385807 -0.17468060946995337 -0.7252005947207139
739187500.0 -0.1426085445297423 -0.743519887976766 0.07887765934530977 -0.047295716336224654 0.07820166515786695 -0.04834269518207882 -0.17945629596640758 -0.7212456264401691
739875000.0 -0.14748431942217477 -0.7398758656780903 0.07822877587039301 -0.04982454938330225 0.07732750568460792 -0.050686547062991485 -0.18404485876763094 -0.7172100190004814
740562500.0 -0.15188329395938036 -0.7360171899320896 0.07741922541380625 -0.05237632897854149 0.07639817217017698 -0.053046472720246235 -0.188749979145701 -0.7130135759676303
741250000.0 -0.15617123466272198 -0.7320077686377321 0.07666908148135275 -0.05479080395337875 0.07549613040982356 -0.05527880596140496 -0.19328987185538501 -0.708836603762536
741937500.0 -0.16043942496293742 -0.7282199016297999 0.07579762160778669 -0.057325463058760656 0.07450588392430929 -0.05752023642330584 -0.19790387102834028 -0.704408571012652
742625000.0 -0.1643005136980847 -0.7240486621449905 0.0747350107013274 -0.059806053704749236 0.07348461607326352 -0.059676991755289226 -0.202341092377379 -0.6996875513927493
743312500.0 -0.16845534355992617 -0.7200111645669721 0.07364507866044973 -0.062348441295051245 0.07240000666460927 -0.06193408203979147 -0.20695051512456858 -0.6951833958029529
744000000.0 -0.17213827204291415 -0.7158357399259145 0.07250231388091383 -0.06487813210422579 0.07132736598177562 -0.0641628360461547 -0.2113847647037039 -0.6905224661505491
744687500.0 -0.17581605490552735 -0.7116982623466322 0.07134832416325829 -0.0673003892009703 0.07024614994134197 -0.06639544782755985 -0.215735728375226 -0.6856892770321401
745375000.0 -0.1794863435714435 -0.7075399543017817 0.0699610792944981 -0.06973389343050738 0.06905700010403884 -0.06866781100262219 -0.22002757461158107 -0.680745850720157
746062500.0 -0.18275507613325645 -0.7034360682323074 0.06849232780733934 -0.07227625531030123 0.06781684596552842 -0.07094078280188895 -0.2246433732591132 -0.675851063979281
746750000.0 -0.18613167682619372 -0.6992873014483533 0.06696533669729958 -0.07473412742917901 0.06653171595795862 -0.07326812464837995 -0.22906096323110625 -0.6710906185634221
747437500.0 -0.18909483040926947 -0.6950980887089362 0.06530595244188646 -0.07712976458566977 0.06513039132480736 -0.07562911320054966 -0.23345170549011848 -0.6659790134353398
748125000.0 -0.19243614359830205 -0.6910538517136773 0.06348534429031116 -0.07957424410282476 0.06360333958381052 -0.0780320640577242 -0.23775498204298934 -0.6608404903468944
748812500.0 -0.1952386556497671 -0.6870592113834529 0.061614375966894064 -0.08190680148445466 0.06201369760867378 -0.08037586547782744 -0.24221370525268074 -0.655728588972389
749500000.0 -0.19820407063849843 -0.6832716718304321 0.05957117327598546 -0.08425709190745062 0.060256190730388154 -0.08279321273217195 -0.2467459104362583 -0.6503325578796076
750187500.0 -0.20097856629004435 -0.6795584481612627 0.05746398662437207 -0.08643634489976096 0.058434870466369526 -0.0851552883349746 -0.25108703264068843 -0.6449186281635699
750875000.0 -0.20409970543014813 -0.6758647971441896 0.05520686059276053 -0.0886366632858171 0.05646579098027399 -0.08756546537944117 -0.25536082327375176 -0.6393344747606788
751562500.0 -0.20716425311235162 -0.672270172894237 0.0528917646816326 -0.09072819477506598 0.05431783304287921 -0.08985078447936354 -0.2595990527336186 -0.6336740877629787
752250000.0 -0.2104065163498533 -0.6686466166257072 0.05038407078632313 -0.09262877491282835 0.052007047539366996 -0.09209951822912481 -0.26379349465936786 -0.6281381046227917
752937500.0 -0.21396573329248753 -0.6650357822333751 0.04787323179428736 -0.09445124363986236 0.049622069266442345 -0.0942919561816485 -0.2677844409892057 -0.6225694577670153
753625000.0 -0.21751559015468963 -0.6609817971965172 0.04528154867489867 -0.09612985311584249 0.0471015894979472 -0.09628216871026193 -0.27184587712092506 -0.6169269614263752
754312500.0 -0.22127027921653217 -0.6568889013591296 0.04273380130231707 -0.09765183036116148 0.044586067547571946 -0.0981917542677634 -0.27559603220402357 -0.611322684734186
755000000.0 -0.22468678638190892 -0.6524329084932764 0.040269168002447585 -0.0990841645850173 0.04196683214933883 -0.09998621552159871 -0.2792058487183362 -0.6058559897300156
755687500.0 -0.22790181125401698 -0.6477381125537188 0.037784579235373504 -0.10046415825173868 0.03935748360649872 -0.10170789598607372 -0.2827851260161726 -0.6005691651787978
756375000.0 -0.23097298618389445 -0.6428726349244696 0.0353984843174721 -0.10173855016449242 0.0366765964502293 -0.10341654566545536 -0.28623814444977064 -0.5952179233241601
757062500.0 -0.23382526871537823 -0.6381462658894411 0.03298316623244645 -0.10318495167051915 0.033965942466449295 -0.10503651295398095 -0.2895999147119275 -0.5900661196071996
757750000.0 -0.23633783720815701 -0.6333958605777678 0.030631375648486895 -0.10444637126155648 0.031229965741522883 -0.10656244551937759 -0.2925444705430643 -0.5848569464078186
758437500.0 -0.23889758870923417 -0.6288333681901201 0.02817950175388499 -0.10577201516440957 0.028361533022340867 -0.10798186237824542 -0.295563718342786 -0.5794300139784783
759125000.0 -0.24125785833961627 -0.6239847220407979 0.025782452078112715 -0.10705237894073694 0.025437906279477476 -0.10927890222019565 -0.29836255205129886 -0.5742602550289646
759812500.0 -0.24317976597433918 -0.619360256403544 0.023341361909787302 -0.10836606867667006 0.022471649330524708 -0.11046711050467702 -0.3008435089836953 -0.5687816341577989
760500000.0 -0.24544593102246962 -0.6149174164340107 0.02091115138301817 -0.1096248245081681 0.019560018169221163 -0.11159038823895383 -0.30319497240798393 -0.5634823523048672
761187500.0 -0.2474667521082102 -0.6105920417312127 0.0183107442383053 -0.11086425931504591 0.016603144711142853 -0.11246655202793546 -0.3051556042708717 -0.5578124200628619
761875000.0 -0.2492402377203427 -0.6060434474154291 0.015750220393174568 -0.11213495052010014 0.013670000084290066 -0.11337369451497818 -0.3072883173082454 -0.5524290664528669
762562500.0 -0.25104882331702943 -0.6020902101034382 0.013065940277832989 -0.11339260325983891 0.010727619048405771 -0.11414809970010151 -0.30907157070101615 -0.5467099342073675
763250000.0 -0.2526960346607735 -0.5978282953871323 0.010345281659025145 -0.11462791772508064 0.007849086139502604 -0.11484208482430554 -0.3107919086860282 -0.5412177413095843
763937500.0 -0.2544814005099498 -0.5938945287713726 0.0074625965723067785 -0.11580910604044864 0.004961734661797038 -0.11551816972737101 -0.3125183959225012 -0.5355243719461279
764625000.0 -0.25616527789217963 -0.5897502339957589 0.004506146816174212 -0.11691824087801825 0.0020858849101482043 -0.11604527977302076 -0.314074382079068 -0.5299109903950668
765312500.0 -0.2576813965775564 -0.5858277173581395 0.0013689881433340868 -0.11797907588518784 -0.0007725019824328613 -0.11660746548182041 -0.31551151482233314 -0.524165327955963
766000000.0 -0.25935831123784964 -0.5819839838401453 -0.001861538984532084 -0.11893845320810402 -0.0036126996420702 -0.11712160509676292 -0.31701442175045574 -0.518437325691912
766687500.0 -0.2608224381031189 -0.5780882618252522 -0.005164532716573578 -0.11981312612560095 -0.006475618149046563 -0.11765985294913829 -0.31826709185199425 -0.5126542523276908
767375000.0 -0.26225229743518 -0.5743069302092105 -0.00857968328088177 -0.12063648436628599 -0.009374903922429534 -0.11816908787177641 -0.3196150019526504 -0.5068176843852561
768062500.0 -0.2635701998115703 -0.5704485342552442 -0.012013743987941663 -0.12121819929847485 -0.012304601128598141 -0.1186632132725386 -0.32073079583604197 -0.5009161575338326
768750000.0 -0.2649938253998271 -0.5666845010439597 -0.015699109066205367 -0.12175227283663807 -0.015353940961872637 -0.1191801436975146 -0.3218923551466995 -0.49511614337497545
769437500.0 -0.2663638445097863 -0.5628350223573113 -0.01930834710096415 -0.12213939721106916 -0.01848152558982363 -0.11963228332423306 -0.32295168389739976 -0.48897249546154736
770125000.0 -0.26773479617836143 -0.5592057206974713 -0.02311840158283035 -0.122251189938532 -0.02171876909562366 -0.12009127346409866 -0.3240728515110594 -0.48293785211490264
770812500.0 -0.2692123382071382 -0.5555281945874416 -0.026844273127104815 -0.12223736983238997 -0.025011288642676134 -0.1204828973183299 -0.32506005172832503 -0.47688640946425587
771500000.0 -0.27046338421503807 -0.5517464892996841 -0.03063388994752821 -0.1220026288643969 -0.028514332704371786 -0.12072387025662037 -0.3259430934578035 -0.4707852441549058
772187500.0 -0.2718356959270691 -0.547980418342962 -0.03443542157225162 -0.12167941701383195 -0.03207888489336551 -0.12089102828047688 -0.32686938786050956 -0.4646796249815989
772875000.0 -0.2732607042979161 -0.5440802573970013 -0.03822947703910861 -0.12113278349572977 -0.03578498011973038 -0.12095508032105412 -0.32769172018730663 -0.45849654941253287
773562500.0 -0.2746132342096296 -0.5402620498873132 -0.04192396113616749 -0.12048108319574481 -0.03957034171603291 -0.12080842123949637 -0.3283959255785489 -0.4523902808597077
774250000.0 -0.27616652168139205 -0.5362501682759048 -0.04558933157534111 -0.11969898688393263 -0.04343046830367517 -0.12048470236209209 -0.32911582795705324 -0.4464332272921188
774937500.0 -0.2774081430425103 -0.5322688512895473 -0.04924420014586869 -0.11864515080378978 -0.04725302236754442 -0.11998896272623928 -0.3295427574868252 -0.4403380190446362
775625000.0 -0.27855919740222856 -0.5283302671210255 -0.05275752962111239 -0.11767670544223402 -0.05113110088990128 -0.1192769020045885 -0.32993913243818784 -0.43454995352022546
776312500.0 -0.27987168037285803 -0.5240467936833634 -0.05623812199251464 -0.11653192570040359 -0.05500948629305235 -0.11836012419392028 -0.330305222113988 -0.4286329898559618
777000000.0 -0.28104983275781126 -0.5200619576482548 -0.05953476237431197 -0.11522237096994768 -0.058757327757462695 -0.11725644151180249 -0.33035585507312215 -0.42282187096084467
777687500.0 -0.2822547599197 -0.5157756858122474 -0.06278345118397201 -0.11399252132030331 -0.062461836372280616 -0.1160253735156781 -0.3302437472158983 -0.4171053142515665
778375000.0 -0.28327662719063096 -0.5114862482890943 -0.06589580943877976 -0.11270030848001213 -0.06603641316127701 -0.114649092854138 -0.33005884314348494 -0.41144325457639375
779062500.0 -0.2841872886298667 -0.5070715553086119 -0.0689275440699013 -0.11135278273128522 -0.06947771336254507 -0.11308422139475767 -0.32948631013580726 -0.4058310348415332
779750000.0 -0.28512112669357814 -0.5028361305344486 -0.07205626745300775 -0.10999317952078233 -0.07285068910223808 -0.11153054066993898 -0.32883846637436254 -0.40022771180197875
780437500.0 -0.28576461892185595 -0.49844952994778485 -0.07499812241168058 -0.10874439407344107 -0.07603662247653029 -0.1099530693101348 -0.3281454895961367 -0.3946905398777942
781125000.0 -0.2865733705092246 -0.4941125197879321 -0.07799871580978728 -0.10734340898712003 -0.07920316608354296 -0.10832881583567756 -0.32708920136843894 -0.38932026875542086
781812500.0 -0.28693621762944926 -0.48992262648653717 -0.08101114698593326 -0.10597476524086416 -0.08226059818594958 -0.10676629904609411 -0.32593994738284626 -0.3840255269069249
782500000.0 -0.287621952234665 -0.4855948835406253 -0.08409438584311342 -0.10466041828157994 -0.0853290481965063 -0.1051988974109691 -0.3245749292338529 -0.3787861472309746
783187500.0 -0.2879450035313199 -0.48135096234886976 -0.08713102593500961 -0.10330078027094658 -0.08838336274128761 -0.10357027584204619 -0.3231201924238615 -0.37363031813413494
783875000.0 -0.2885199486639501 -0.4771426648588189 -0.09028215903135639 -0.10193676806306871 -0.09146411417988767 -0.10195463078428303 -0.32156812241513827 -0.36827131935573754
784562500.0 -0.28867248293163605 -0.4728627840995139 -0.0934253646844352 -0.10032737951123205 -0.09456932713372943 -0.10030401415905589 -0.31993745218044967 -0.36321973017791276
785250000.0 -0.2889826556392171 -0.46865321065078963 -0.09667495806268617 -0.09877729512180458 -0.09771847813360526 -0.09852736783708498 -0.31808016271102935 -0.3580930757110638
785937500.0 -0.2893970769534908 -0.4645241077366028 -0.10002455064798697 -0.09712051242920025 -0.10097153299220094 -0.09670734581556195 -0.31616003543513754 -0.3531500723273541
786625000.0 -0.2895743597251571 -0.46033311474902966 -0.10339189982592267 -0.09523691998623998 -0.10425539479055716 -0.09478585452845176 -0.31418299686654716 -0.34815346880850223
787312500.0 -0.2897622565701851 -0.4561194342500309 -0.10680777174885915 -0.09317299588781265 -0.10759911140498757 -0.09264679538659783 -0.31199764929714985 -0.34320334973569333
788000000.0 -0.2900251029951503 -0.45200315204379254 -0.11031529423624563 -0.09091856951084579 -0.11104184914098678 -0.09033836252353548 -0.30976993168347594 -0.33831530522898867
788687500.0 -0.2901633461848445 -0.4479374250663467 -0.11377397588621607 -0.08858668690596426 -0.11444744473337223 -0.08784260976000907 -0.30742452076748417 -0.33336857264370534
789375000.0 -0.29019304999500023 -0.4435301507455561 -0.11722860350200599 -0.08587010517782298 -0.11783405045396421 -0.08504137624900603 -0.3051510148691459 -0.32853395965224114
790062500.0 -0.29030327948389223 -0.43933219456883116 -0.12072296125985288 -0.08306888543313852 -0.12118440223611344 -0.08207417966304903 -0.30270988306486085 -0.32376293952283347
790750000.0 -0.29026569637205635 -0.4351070756969467 -0.12409820863182205 -0.08005063347291021 -0.1244812015494493 -0.07889766963727798 -0.3001542658561998 -0.31894940092497387
791437500.0 -0.2901254746179093 -0.43084772961287304 -0.12727285492679824 -0.07679084296621264 -0.12753723331196204 -0.0754902344369556 -0.2975630976272017 -0.3142995589922214
792125000.0 -0.29004464547536146 -0.4265284773087646 -0.13041683672591653 -0.0732724448487619 -0.1304642265967572 -0.07189196159728063 -0.29479628299457605 -0.3096808689550505
792812500.0 -0.28981681006005394 -0.4223106020242407 -0.13343923397606647 -0.06956325011415894 -0.13320836312386708 -0.06816303974717478 -0.2919523462137497 -0.30506466614200867
793500000.0 -0.28927815338925733 -0.41815955686044715 -0.13622631029896023 -0.06566023155266 -0.13574337478432774 -0.06426847402231212 -0.28907421176857195 -0.3007000676656239
794187500.0 -0.28877696804201447 -0.41410450248596203 -0.1389638016963031 -0.061640069793878004 -0.1381121735436415 -0.060272310903736734 -0.28604843348760683 -0.2963112879454813
794875000.0 -0.2883007504161281 -0.4101064757893983 -0.14141288492452903 -0.05748728566924672 -0.14030989893404622 -0.056235197894915934 -0.2830352281922855 -0.2921509616574747
795562500.0 -0.28751214971786676 -0.40607462469684513 -0.14374492782456164 -0.0532147355508744 -0.14225862122047092 -0.052152529615069436 -0.27995881477195333 -0.28819257791152014
796250000.0 -0.28681017052708535 -0.40230435325346303 -0.14585228344462312 -0.04885746429439365 -0.14407089986142185 -0.04814505661374446 -0.276762704257326 -0.2843411806646255
796937500.0 -0.2860520998544873 -0.3985812817737271 -0.14779863003005003 -0.04444332337188484 -0.14575939537669544 -0.044072104911064634 -0.2735985618223817 -0.28062350008898457
797625000.0 -0.2853218992552479 -0.39493996451674196 -0.14941286561973383 -0.039965635605524276 -0.1472859387477365 -0.040070036872392974 -0.2701732800800574 -0.27726229780921724
798312500.0 -0.2845016297519571 -0.39137854823767043 -0.15097994547578217 -0.03548363746682645 -0.1487527868183043 -0.03609317848976794 -0.2668128957493977 -0.27401102845471104
799000000.0 -0.28379706351925477 -0.38785154188014964 -0.1521964864632886 -0.0309377534173968 -0.15013425238007924 -0.0320832536916424 -0.2633613859410642 -0.2710266173510232
799687500.0 -0.2830704437697434 -0.38446279569544606 -0.15331067740119442 -0.026467690697825882 -0.15157860829649492 -0.028154494202044137 -0.26000435309902903 -0.268160458405115
800375000.0 -0.28234821262873494 -0.38109914031750036 -0.1542826187054688 -0.022063878550136272 -0.1528659305090048 -0.02412718496513772 -0.256494310361614 -0.2655500429259382
801062500.0 -0.28183309257808253 -0.37786746092411433 -0.15514050404138158 -0.01773172068309907 -0.154226379007418 -0.02006654161771118 -0.2530064319439808 -0.26313309200301666
801750000.0 -0.2811502457432026 -0.3743996727292171 -0.1558108844248155 -0.013318935832436358 -0.1554818485025944 -0.015916198434135248 -0.24966617241426756 -0.2609939796770655
802437500.0 -0.28063163488473125 -0.37106354850693213 -0.15651838176286664 -0.009072792515817149 -0.15673837971470617 -0.011721572670685099 -0.24631036162449332 -0.2590478469386766
803125000.0 -0.2801672579755028 -0.3677135718884575 -0.1570027108893317 -0.004792814923627928 -0.1579168703874975 -0.007328722530789746 -0.24300690914876383 -0.25716288132347176
803812500.0 -0.279595342264746 -0.36437733134984396 -0.15740632841004462 -0.0005460464268034281 -0.15891977676407315 -0.0028577484306956287 -0.23969769680164235 -0.25563836275825197
804500000.0 -0.2790456629497169 -0.36100944024082693 -0.1578348112775865 0.003732309801582772 -0.15983205361374295 0.0017615151619971732 -0.236530186033781 -0.2541689224023122
805187500.0 -0.27851510908762844 -0.3576550455841826 -0.15813726760183042 0.008027567166860714 -0.16054197748222146 0.0065243534875958666 -0.23347097191782165 -0.25269638508247805
805875000.0 -0.27801580122605074 -0.35426434423240183 -0.15836248423072968 0.012286690209850045 -0.16102978696693726 0.011320631922737178 -0.23043490100419886 -0.2514762117887303
806562500.0 -0.27732907683844277 -0.35089350191043905 -0.15853599351327552 0.016630484198000724 -0.1613893173814476 0.01629799737007767 -0.2276498305107644 -0.2504117819913126
807250000.0 -0.2764820558896337 -0.3474970557022663 -0.15864477492507167 0.021014542675952517 -0.1614187562904656 0.021273705240132307 -0.2247563363480077 -0.2493692158931453
807937500.0 -0.2757831891074997 -0.34423717203050047 -0.1586730431503873 0.02548191051696277 -0.16126920722785326 0.02632262305867436 -0.22192653666540513 -0.2485909621819313
808625000.0 -0.2750724000863238 -0.3409942781321637 -0.15856614066505986 0.029960296438941828 -0.16091743336622308 0.03138280512201729 -0.2190937383354768 -0.24767644999505858
809312500.0 -0.27431991465536143 -0.33770294275892426 -0.15832109991964527 0.03465103546806802 -0.16022900172801055 0.03641648238323538 -0.21649436761291307 -0.24685430191475055
810000000.0 -0.27339261745762555 -0.3346250435080544 -0.15794645317259623 0.039318123769041924 -0.1593903608807232 0.04138330390238142 -0.21385932548749156 -0.24615008201573152
810687500.0 -0.27250734928693615 -0.33153806266977637 -0.15740162847531813 0.04393349693577075 -0.15827108914665017 0.04629802511519062 -0.21123282708817115 -0.24541557500370187
811375000.0 -0.27163162537995594 -0.3285827985970808 -0.15665331486441647 0.04867685649166066 -0.15695864524615105 0.05119356421153159 -0.20863780529713208 -0.24494615608124773
812062500.0 -0.27073432844413964 -0.32568802780451894 -0.1557146267432895 0.05335942335030456 -0.15550017306374034 0.055863183551060125 -0.2060640296112651 -0.24423540095241833
812750000.0 -0.26979240269865623 -0.32275758190327036 -0.15455489330219316 0.058175577265771064 -0.15381964885360647 0.060534722369951555 -0.2036683277752163 -0.2436954127708331
813437500.0 -0.2689673038854367 -0.31996111377785974 -0.1532676224926526 0.06292812393321327 -0.15201181004667394 0.06502682771687131 -0.2012439771482042 -0.24323719911464597
814125000.0 -0.2680890014669047 -0.3172903107227921 -0.15171500449710051 0.06767253291832324 -0.15010164601240228 0.06946840390479958 -0.19873597271298468 -0.24286659301051472
814812500.0 -0.2672213283467042 -0.314469161664928 -0.1498999613886449 0.0722720605385323 -0.14804667756765855 0.073719121596026 -0.19653181937964898 -0.24244231775574765
815500000.0 -0.2664888307377022 -0.3117457854466708 -0.14807097471205644 0.07695315807479251 -0.14590433504074926 0.07784420376523636 -0.19429207077404756 -0.24208928113289915
816187500.0 -0.2657450957650407 -0.30890455436980224 -0.14593076373748487 0.08149930892792541 -0.14377583342561817 0.08189258896182136 -0.19216299972592152 -0.24188341508824493
816875000.0 -0.26482474442188414 -0.30619009682365783 -0.1436426618000299 0.08602483855550402 -0.14153464951529326 0.08589698862774382 -0.19023824831364974 -0.24170417896198465
817562500.0 -0.2640957474227442 -0.30343342884041 -0.1412113499957895 0.0903979691038828 -0.13919974367898907 0.08976058391355475 -0.18822734494585203 -0.24159661631605092
818250000.0 -0.26327860147728094 -0.3005766271533216 -0.1386446145285251 0.09469633344301825 -0.1368403147756292 0.093565374971648 -0.1864268458882164 -0.24151366176011185
818937500.0 -0.2624820095175313 -0.29784790431363134 -0.13595141284035783 0.0988312831566812 -0.13441118910622118 0.09739275318774339 -0.1846836979978256 -0.24144433886100225
819625000.0 -0.26154457997238045 -0.2950249327768591 -0.13298181674934875 0.10283200079667412 -0.1319383971197609 0.10111449342046255 -0.1829979796517564 -0.2414241039986578
820312500.0 -0.26049734017249837 -0.2922209390389556 -0.13003521928706666 0.10681365422509297 -0.1293690026972579 0.10490141141967296 -0.1814855668027752 -0.24143671794417007
821000000.0 -0.2593697247270756 -0.2894263587352513 -0.12697218050600617 0.11049328385497023 -0.12673604617366446 0.10855241607338251 -0.18013014382424938 -0.2413763950259996
821687500.0 -0.2582751754405368 -0.2867348794404622 -0.12374127746799878 0.11415473163443482 -0.12396370144507532 0.11221944472647773 -0.1788107044323768 -0.2414498545379762
822375000.0 -0.25715298348927135 -0.28400002792378487 -0.12046775065522283 0.11772090146182969 -0.12101464832162231 0.11588083996362751 -0.1776799687557956 -0.24148384393633326
823062500.0 -0.25603821540172567 -0.28128791868544006 -0.11705811186534933 0.12106498933502655 -0.1180219784301903 0.11952721347096676 -0.17676720371435475 -0.24143748860617203
823750000.0 -0.2546891666582567 -0.27886155153316694 -0.11353148314845803 0.12434697636554787 -0.11478096723228758 0.12302970084456737 -0.17575996525472096 -0.24140363812630508
824437500.0 -0.2534142418853053 -0.2763287803367199 -0.11008071286532 0.12734556369041838 -0.11146048607179322 0.12647212349346212 -0.17497858901151708 -0.24148165860000326
825125000.0 -0.25216496432163005 -0.2739744408524616 -0.1064339257474427 0.1304040428380097 -0.10799432800188487 0.12984485909257382 -0.17427458958707645 -0.24150516112131887
825812500.0 -0.25082440227044905 -0.2717236067450621 -0.10283516457986397 0.13326359602001409 -0.10438489504870829 0.13316755062448998 -0.17370104010358564 -0.24156023223374387
826500000.0 -0.24954400510872277 -0.26947734902814735 -0.099083755364425 0.13605213800649618 -0.10062186228931402 0.13628890804709276 -0.1731766944022259 -0.24158834532882623
827187500.0 -0.24818030531236193 -0.2673872650816843 -0.09539569351275869 0.1386532834840617 -0.09676829799206316 0.13916020017100605 -0.17255847158133786 -0.2416565564849205
827875000.0 -0.24681584782716032 -0.2652854310643529 -0.0915534388588837 0.14121623036229922 -0.09278602140492749 0.14192323926345768 -0.1721142851775361 -0.24176509293663742
828562500.0 -0.24560517042067245 -0.26314832600764304 -0.08770389777214613 0.14357433080286933 -0.08874421053026318 0.14455452496283333 -0.1717039550862734 -0.24174888479899007
829250000.0 -0.24427125934905905 -0.2611977997037569 -0.0838679392496534 0.14590000282085117 -0.08459635347822152 0.14694937510308118 -0.1711668794484459 -0.24194065369432494
829937500.0 -0.2429926215175782 -0.25925572184944223 -0.07979817348796815 0.14812156630516154 -0.08040349348798588 0.14916072817211568 -0.1706224717182405 -0.2419980278754271
830625000.0 -0.24170980796600747 -0.2572567912471629 -0.0759142798151814 0.15014504113007662 -0.07622511746726268 0.1512525920690931 -0.17008575865909153 -0.2420279940249895
831312500.0 -0.24056749123012527 -0.2553476235996846 -0.07184206493815863 0.15217115804779757 -0.07194854403900966 0.15321476495207878 -0.16959963210310938 -0.24208961017687836
832000000.0 -0.2392570098637549 -0.2535563659077028 -0.06777132491769837 0.1540478692535116 -0.0677071213206085 0.15501682450876547 -0.16912310590718535 -0.2421031284057393
832687500.0 -0.23799996083964522 -0.2517224040748132 -0.06360227461115797 0.15585380854845668 -0.06342331050713759 0.15672184833054384 -0.16854600936603886 -0.24220128281763526
833375000.0 -0.2367773591294909 -0.24988615630381575 -0.059484348129332155 0.1575186738159208 -0.059148363117283234 0.1582440257498696 -0.1679373779201502 -0.24225369298839422
834062500.0 -0.23552178940905083 -0.24816306753035183 -0.05531332740479703 0.15898855651176225 -0.0549335005327276 0.1596451423884395 -0.16722247320582842 -0.24218445011696915
834750000.0 -0.2343200647185804 -0.24649040708429437 -0.05109241262023216 0.16047406631102193 -0.050657953252028716 0.16101141326886217 -0.16670292301289596 -0.2421669575398732
835437500.0 -0.2330721927445441 -0.2447513266463704 -0.04686877745563179 0.1617778864784791 -0.04633633050241841 0.1622053915361879 -0.16604451855693592 -0.24204171157595528
836125000.0 -0.23181558292642046 -0.24308014545727952 -0.04255339719014717 0.16295839684964164 -0.041987614531447434 0.1632551803874464 -0.16548773675638223 -0.24208633086104533
836812500.0 -0.23052926778243765 -0.2415238971696485 -0.03823603629173665 0.16402779286463254 -0.03773974763589254 0.16425199060127404 -0.16479228077651742 -0.24186729621460118
837500000.0 -0.22930104458730483 -0.2399999022737945 -0.03388259772729106 0.1649892876979454 -0.03338189330520344 0.16521814830786366 -0.1641474725350132 -0.24176945556697013
838187500.0 -0.22813375326365165 -0.2386206738609319 -0.02948548615459836 0.16590077802990733 -0.02906554730615961 0.16604985078815815 -0.16350977551554016 -0.24160459935950584
838875000.0 -0.22695987098494905 -0.23713464489544833 -0.025128849004926856 0.16666396845603504 -0.024720946899708864 0.16672256855210651 -0.1629368747761186 -0.24140615508787544
839562500.0 -0.22580866640018923 -0.23587348844027164 -0.020726642525046433 0.1673356348363913 -0.020312529377620448 0.16735751271978042 -0.1623375454442903 -0.24116893775427647
840250000.0 -0.22472755492183613 -0.23459007795830603 -0.01632281000954459 0.16788088867554488 -0.01596794741497803 0.16781515572885708 -0.16187862333303354 -0.2408459306469856
840937500.0 -0.22368011686613518 -0.23343033946985772 -0.011837686626690193 0.16827548768711667 -0.011606160583819646 0.16823154766753354 -0.16128721488289582 -0.2406442437673974
841625000.0 -0.22252492490980275 -0.23229066277541724 -0.0074118364465279845 0.16853176693882974 -0.007230104914508033 0.1684499496219437 -0.1608663720672168 -0.24023084999946692
842312500.0 -0.22163858516201473 -0.23120799902176445 -0.0029726256253423834 0.1687352549610832 -0.0027846427674349124 0.16856278982466322 -0.16052806190092994 -0.23986200423827714
843000000.0 -0.22069197807227398 -0.23017328346232113 0.0014208505466726474 0.16874195968481565 0.0016438862579121788 0.1686303361579164 -0.16018350709601376 -0.23951913216813525
843687500.0 -0.21973592601448802 -0.22918917528491087 0.005875370011831158 0.16871792413692918 0.006054193360367666 0.16851251902476358 -0.15986596535856862 -0.23911218170569165
844375000.0 -0.21882409096326985 -0.22817293069792177 0.010370901696047813 0.1684976072481434 0.010462130302950927 0.1683127300854839 -0.1597866444273804 -0.23871311216304517
845062500.0 -0.2180162249826882 -0.22718930576291688 0.014866178742463682 0.16816577976096353 0.014901116846355356 0.1679949381047197 -0.15972329880599448 -0.23835094793122116
845750000.0 -0.21711540986573588 -0.2262664990704542 0.01919595600590075 0.16774255524427073 0.019309412900366564 0.16756983942940096 -0.15967920370187302 -0.23793501007535311
846437500.0 -0.21641195804975788 -0.22523505384822415 0.023547748530079616 0.16719685943086648 0.023658749080444182 0.16699568364348658 -0.15960028736537882 -0.23761363953990303
847125000.0 -0.21553283267976311 -0.22424742334183415 0.027984596031111676 0.16655941151159648 0.02802093509078046 0.16632829259362608 -0.15966546908795767 -0.23729026502719433
847812500.0 -0.21481620174796115 -0.2233477778540028 0.032328735127988784 0.16576494904876415 0.032345552399196086 0.1655900274488409 -0.15977693454864794 -0.237086302366588
848500000.0 -0.21400303604776402 -0.2222136132840563 0.03666344899501569 0.16481945554917585 0.03661706808590246 0.1645779012195983 -0.15985524848632202 -0.23689820489514066
849187500.0 -0.21317441844880317 -0.2211007756333252 0.04094348172001502 0.1637509080889519 0.04086436521235875 0.1635906095027027 -0.15984220408274255 -0.2368394603224409
849875000.0 -0.21239961924307008 -0.22005056152100738 0.045175674377940074 0.16257313192463396 0.045155460597853546 0.1624547287930555 -0.15986798679676842 -0.23675093622582383
850562500.0 -0.21145870671563208 -0.21886384156017075 0.049411619931115765 0.16133908542035513 0.04933008073346014 0.16119927821979835 -0.15980190287951193 -0.23664858492355903
851250000.0 -0.21043902121051347 -0.21766617800005902 0.05362386412919365 0.1598997744566915 0.05353103769357896 0.15976164307075955 -0.15970011055480302 -0.23669393675069827
851937500.0 -0.2094237009287459 -0.21644897231736893 0.057864359238932656 0.15846727722190035 0.05763962036080634 0.15827442593854799 -0.1596335397839124 -0.23662766589293613
852625000.0 -0.20815453946970297 -0.21533565266975352 0.06189351490852947 0.1568496893799531 0.06162194092051753 0.15663100548418907 -0.15944951942254482 -0.23675898846452348
853312500.0 -0.20696888564249108 -0.21416998599873743 0.06597933076380855 0.15504354235952936 0.06571072210086813 0.15483672201724857 -0.15923611157695802 -0.23673417156659154
854000000.0 -0.20560155167115965 -0.21311751105760257 0.06998124390131522 0.15311658994041671 0.06959773922444525 0.15292590957119248 -0.15898072528162926 -0.23674547102958843
854687500.0 -0.2040836207592512 -0.21209751618373432 0.0738577039391086 0.15102382559041094 0.07346443366663914 0.15090305810508517 -0.15867279907050286 -0.23674512670443504
855375000.0 -0.2027417889346995 -0.21123088020165617 0.07764061757827008 0.1488571498864226 0.07713476660152677 0.14880137009382233 -0.15838012328681828 -0.23670943724586402
856062500.0 -0.20120858704045508 -0.21049343810853952 0.08126045860582615 0.14670789034222134 0.08078348890004772 0.1466063715508265 -0.15798649555727468 -0.23669108357025098
856750000.0 -0.1996819760535534 -0.20978724534825402 0.08488953842425477 0.14417977470263496 0.08430106028662279 0.14430100021505174 -0.1577384502575699 -0.23662873770465415
857437500.0 -0.19815799758826644 -0.20919069001563603 0.0883201047729299 0.1417520011692692 0.08769763066629321 0.14199508874672698 -0.15742580435240447 -0.23653389106153358
858125000.0 -0.19676612180832498 -0.20871450239070236 0.09165188957132053 0.13930751751474374 0.0910757591684178 0.13966197832152674 -0.15713291935200427 -0.2363806323920259
858812500.0 -0.19536112883279752 -0.208219510590046 0.09485481715228326 0.13674933617128773 0.09429704266335556 0.13725218322937247 -0.15682233583543267 -0.236177288832377
859500000.0 -0.19403026836324158 -0.20772876587898256 0.09804126459398478 0.13414172573628846 0.09748462163707922 0.13476868624536995 -0.15657095985151598 -0.23589086980177212
860187500.0 -0.19275264597897232 -0.2073611698303548 0.10109320407630794 0.13150232401903036 0.10055598282065271 0.13235977278890437 -0.15624579278088996 -0.23571118941116675
860875000.0 -0.1915458034044798 -0.20702977031145045 0.1040103464680739 0.1288452062975819 0.10373636837718193 0.1298220202587175 -0.15596237990991862 -0.23542125292402472
861562500.0 -0.190411227439896 -0.20666406279381447 0.1069776798590197 0.12618672458342955 0.10675255911327138 0.12723191272726878 -0.1558370086528767 -0.2350592894278859
862250000.0 -0.18930315339839998 -0.20635006505751347 0.10960348358121368 0.1235276722003039 0.10971525893983072 0.12463782052397822 -0.1556759573638359 -0.2346154700830163
862937500.0 -0.18834072101381563 -0.20595641706262124 0.11237574770789169 0.1207523479914627 0.11269887077884824 0.12194253698978921 -0.15565529422961663 -0.23420286765096401
863625000.0 -0.18739768505998988 -0.2055453979192169 0.1151527036687047 0.11799739453395193 0.1156962396142595 0.11918031515577594 -0.15563080840465343 -0.2337679336410008
864312500.0 -0.1865258808546972 -0.20507892324955412 0.1178157788607027 0.11524114901975983 0.11860777974864774 0.11637054064043113 -0.15574815263601205 -0.2332672347145217
865000000.0 -0.18565326798925183 -0.2045511993500174 0.1204185957960444 0.11238594827750192 0.12143898812290684 0.11337677052345312 -0.15607836405160447 -0.2328577035577825
865687500.0 -0.18481251907101118 -0.203950567722193 0.12298178845874028 0.10951759297032419 0.12426677085409214 0.11031256062692701 -0.15642911518261415 -0.23234939488749473
866375000.0 -0.18392483008353797 -0.20330325680142367 0.1255921448588774 0.10651846800064925 0.1270587902466604 0.10707724485641892 -0.15679751156008043 -0.2318733012553759
867062500.0 -0.18307758058813287 -0.20256980586894235 0.12809525912921796 0.10349411445032411 0.12972713686794543 0.1038279183373567 -0.15736215184875169 -0.23145847197982442
867750000.0 -0.18231405701878867 -0.20185945526326868 0.1305714687862939 0.10048916734802181 0.13228482358741847 0.10040695220226524 -0.1579299663376233 -0.23106283695238136
868437500.0 -0.18129214157943324 -0.20096001753937828 0.13301954595317703 0.09737981406822249 0.13469146561830853 0.0968841934710915 -0.15863557385933097 -0.23069563418283348
869125000.0 -0.18036604051711944 -0.20012688519584798 0.13539867594586627 0.09411378365310284 0.13707209617104543 0.09328774230318214 -0.1593624918043356 -0.23037229533636439
869812500.0 -0.17939304263605158 -0.19922957227534555 0.1377069989574544 0.09084924426418492 0.1392302809199001 0.08962524616274888 -0.1600630262798897 -0.23002221908565507
870500000.0 -0.17841131349499173 -0.19844141934937357 0.1400136704487687 0.08744019410101007 0.14122659155814413 0.08593800838899279 -0.16073015985656883 -0.22971478120105138
871187500.0 -0.17718042882207993 -0.19757538448528358 0.14219347027967122 0.08405049503529342 0.14307594313524669 0.0822831114839637 -0.1613885603712896 -0.22935184501074465
871875000.0 -0.17605839529229383 -0.19678982918491925 0.1443345827494482 0.08054213497694102 0.14470838449629614 0.07856142396389788 -0.16193653179296136 -0.2289542795970392
872562500.0 -0.17481138605582147 -0.19616359305619305 0.14630680807333762 0.076941480351159 0.14626467750247107 0.07481843155264661 -0.16250653157552036 -0.22854641777616302
873250000.0 -0.17353294013094478 -0.19535841278953078 0.14822778101579986 0.07325820915739788 0.14765291843136083 0.07117194122169075 -0.16297177703230764 -0.22810314399818712
873937500.0 -0.17235309142779945 -0.19488267182767052 0.15001154334944214 0.06949236038941771 0.1490080042914639 0.06760431264057211 -0.16333968407012306 -0.2276245561929789
874625000.0 -0.17115155492671266 -0.1943933451552778 0.15173401052329358 0.06573998260968655 0.1502013808253587 0.06412423873376467 -0.1636099316090666 -0.22710615802531417
875312500.0 -0.16989745280364085 -0.1939633619101614 0.15329205407887472 0.061878076918730714 0.1513573460018336 0.06060347050244423 -0.16379320087535695 -0.22659135732454597
876000000.0 -0.1687897276656656 -0.19356875521146674 0.15467130855342376 0.057986897951312955 0.15249852286261129 0.05717141448342959 -0.16397520139039873 -0.22605886042913462
876687500.0 -0.16763991921118448 -0.19319363839445028 0.15595048361426603 0.05403677517198511 0.15363320911802636 0.05382945354199329 -0.16392151699966281 -0.22544495665449057
877375000.0 -0.1665656098564695 -0.19272406713642645 0.15715033771859724 0.05008810571513148 0.15475264750579162 0.050452570861572996 -0.16395771048009936 -0.2248521423929974
878062500.0 -0.1654384666789866 -0.1924805763255137 0.15809749550469773 0.046161946358639315 0.15589775281668453 0.047058911805760044 -0.16391624474452915 -0.22424039619211375
878750000.0 -0.1643219071127296 -0.19206168026138978 0.15900722038412238 0.04209286032492311 0.1570331207210333 0.043598881576148364 -0.1637507495845676 -0.2236112427316935
879437500.0 -0.16340211167849927 -0.1916401518018253 0.15973844573779816 0.0381330037561867 0.15819609081880748 0.04009071649992963 -0.16353566608560113 -0.22296596197698007
880125000.0 -0.1623127013327891 -0.19120862651445514 0.16031649160626574 0.03419809473130727 0.1593065257846804 0.03653207144274855 -0.16343380528857715 -0.22233374722567883
880812500.0 -0.16125889059063056 -0.19070005099290635 0.16080524468109905 0.03025822505291902 0.16032856844932272 0.032869413509510115 -0.16304087432175185 -0.22174944778007508
881500000.0 -0.16011072640876203 -0.19015490008359487 0.161118172691667 0.02641255088443298 0.16129939302176674 0.029030312738392638 -0.162911618074231 -0.2210583498681833
882187500.0 -0.15884170405675394 -0.1896877211381066 0.16135796752027445 0.022528632071261174 0.16215052691369172 0.025064971024913035 -0.1627300427063279 -0.2202956925601701
882875000.0 -0.15754510052541237 -0.18916808753652506 0.16155991126160818 0.018694787416080445 0.16289351381199318 0.021092361903622226 -0.1625763376168908 -0.21965641998402125
883562500.0 -0.15620870910873755 -0.18867226730737688 0.16173564107544108 0.015041389571711868 0.16356278695678064 0.017027781825170004 -0.16256734932016612 -0.2190111784477624
884250000.0 -0.15471475687884273 -0.1881409462263505 0.16175654261653977 0.011301966982040123 0.16389377910512987 0.012837812466849135 -0.16262889093779373 -0.2182499664583439
884937500.0 -0.15315204291297624 -0.18767205951533739 0.16171931808413817 0.0075920907884993085 0.16414587348442639 0.008569453118883423 -0.16278625417982148 -0.21749994447404572
885625000.0 -0.1516131520949187 -0.18739240265542637 0.1615870958238309 0.0038971940850055934 0.16418635926979708 0.004281626015151962 -0.16299893616301447 -0.216734901688479
886312500.0 -0.14992109123815067 -0.18705808314144956 0.16143516027772659 0.0002873253948232 0.16402139012456055 0.00011070269271467762 -0.1633623542540297 -0.2160384316380349
887000000.0 -0.14831429010616984 -0.18693685945402969 0.16117751566627758 -0.003331752523293508 0.1636858852146833 -0.004073744802282347 -0.16374141809347562 -0.2152010378461341
887687500.0 -0.14655258438754634 -0.18692516770539325 0.16097562820677047 -0.006872799367805163 0.1631591687948913 -0.008176878923941377 -0.1642873210758011 -0.2144635115239994
888375000.0 -0.14494346020375107 -0.1868682417787083 0.16061134769217242 -0.010648663496107935 0.16249696723513807 -0.012342385854715537 -0.16486718617617932 -0.2136981132786393
889062500.0 -0.14325688568139897 -0.18695008829921517 0.16026298992079138 -0.014141755597710736 0.16169403467576252 -0.016238520709956777 -0.16539671506228776 -0.21294752213503704
889750000.0 -0.14159127905040156 -0.18709791479261165 0.15979980508004746 -0.01782195520892069 0.1608159724273049 -0.02002100155651885 -0.16605539388438498 -0.2120862419702451
890437500.0 -0.1400639826230206 -0.18739763896805864 0.15934932306916127 -0.021343987281557533 0.15983162891663016 -0.023711506027515365 -0.16668789129785597 -0.21138471382151564
891125000.0 -0.13852672297178473 -0.18772030092251085 0.15884241973489568 -0.02499134367283406 0.15873944781322394 -0.027252763666227097 -0.1671848892006843 -0.21055625073011067
891812500.0 -0.13720088383529339 -0.1880141265495892 0.1582172490201075 -0.02860623505234477 0.1576532285712498 -0.030683704013325847 -0.1676410316467309 -0.20982539547336954
892500000.0 -0.13590007652106886 -0.18831418435079866 0.15756399295479878 -0.032201885898555306 0.15660116937677562 -0.03405436780419575 -0.16802535116955566 -0.20905855582721994
893187500.0 -0.1356506789416566 -0.1886024801655518 0.1571224375262128 -0.03627288799937053 0.15576208123460317 -0.037776735173196775 -0.168796858945825 -0.2082715233568905
893875000.0 -0.13446011335408836 -0.18900952510816252 0.15645203146347192 -0.0398587938274996 0.15466857030431264 -0.04097516254304124 -0.16915908191275233 -0.20758102297258235
894562500.0 -0.1334334606386271 -0.18918271507958573 0.1554283236295906 -0.04352057043501624 0.15373216862109484 -0.04416801795621791 -0.16927736167337282 -0.2066779983816643
895250000.0 -0.1323502489202727 -0.18927841782877736 0.15458080079710448 -0.04718731849566023 0.15269976745644318 -0.04734005832728449 -0.1693320019089218 -0.2061541404495188
895937500.0 -0.13123582965598798 -0.18937680364264464 0.15348544392859467 -0.05080454663090722 0.1517984404792348 -0.05058442726832717 -0.1692860985979696 -0.20544294182698936
896625000.0 -0.13032337091391166 -0.18948826478452607 0.15222303652676275 -0.05436539663875723 0.15076425689103834 -0.05382304348797591 -0.16910690167005873 -0.20483748099911456
897312500.0 -0.12919128698482021 -0.1895068829154708 0.15087176514746795 -0.05796054731920096 0.14975442231404404 -0.05702023818915978 -0.16873457100860495 -0.20413271159290636
898000000.0 -0.12816577084480263 -0.189564373942252 0.1494725245688241 -0.06158033665974629 0.14867727890726398 -0.06045425776777579 -0.16840829256431278 -0.2035107513572307
898687500.0 -0.12704792225588823 -0.1895421913044788 0.14796894975610292 -0.06518255314686117 0.14748066249036232 -0.06385016830413753 -0.16804372117798705 -0.20291203540232636
899375000.0 -0.12593448576464972 -0.18972373075966478 0.1462332222621403 -0.06855855013216586 0.1461696991878511 -0.06724470977084064 -0.167545130612849 -0.2022482912298389
900062500.0 -0.12474972231946928 -0.18976438862019337 0.14445829500323726 -0.07198204180777541 0.1447005357704974 -0.0706939885234076 -0.16715635999811088 -0.20164330299461736
900750000.0 -0.12366731775691908 -0.1900782731218165 0.1426753801391025 -0.07528925464197724 0.14308869956749792 -0.07411413798801851 -0.16667747030292782 -0.20103727295259913
901437500.0 -0.12243912880541999 -0.19042076167170904 0.14058160401934772 -0.07845904065796203 0.14132624024530932 -0.07755116603438227 -0.1662907190143915 -0.20039718356803493
902125000.0 -0.12139236621384904 -0.19080485828855542 0.13853559912643687 -0.0815661327310557 0.1393683092430284 -0.08086712274340434 -0.16591776564398517 -0.19985916039953863
902812500.0 -0.12041605735368416 -0.19134092782321832 0.13632244359824477 -0.08460549721697337 0.13719169676108545 -0.0840975114314864 -0.16562773337776018 -0.19922165801039632
903500000.0 -0.11951598259665931 -0.191812445932999 0.13413381608959052 -0.08751408229222662 0.13492325853990317 -0.08728633431926891 -0.16538514334655774 -0.19864122282030813
904187500.0 -0.11875681010440729 -0.19250947332285834 0.1318870962460824 -0.09036859762669854 0.1326270581032859 -0.09040981758806509 -0.16523788140191903 -0.19799664382618654
904875000.0 -0.11799375868243503 -0.19312364433002654 0.12951447091175708 -0.09310535758385309 0.13014429399863467 -0.09328428537767851 -0.16517641351353915 -0.1973509684267445
905562500.0 -0.11742450666301672 -0.19380072153933037 0.1271768139584191 -0.09575316279814916 0.12768174782681044 -0.09603129372434109 -0.16526337103408253 -0.19673503120071065
906250000.0 -0.11700033340978447 -0.19453890556655737 0.12470650898582607 -0.09829229092479476 0.12509354953278745 -0.0985954672550655 -0.16529371906740134 -0.19602679134116638
906937500.0 -0.11664892758790976 -0.1951103507860039 0.12234312706937167 -0.100740789795216 0.12251410700982257 -0.10112234454760706 -0.16532446618527738 -0.19531736697480048
907625000.0 -0.116366832061477 -0.1957671725048987 0.11982374480836151 -0.10316675326474241 0.11999791065528032 -0.103412252210658 -0.16542032849178065 -0.1944951003962405
908312500.0 -0.11625915783642393 -0.19632562190241676 0.1173930567578325 -0.10556711212855449 0.1175293046574747 -0.10579971282095017 -0.16559405423240317 -0.19370370048356558
909000000.0 -0.11618153537034033 -0.19672487690508345 0.11493242062981184 -0.1077768150591118 0.11506779602757337 -0.10796241768307614 -0.16570074459529546 -0.19286295522973776
909687500.0 -0.11616249991438285 -0.19722712453078262 0.11243288268506511 -0.11004481596845114 0.11267055943230461 -0.11015031300306656 -0.16579916125455174 -0.19204984583945428
910375000.0 -0.11609231804529059 -0.19759432812752792 0.10990029579185996 -0.11227851817575771 0.1102866685032591 -0.11218459907169309 -0.16589010855772077 -0.19107629496447576
911062500.0 -0.11613117470892753 -0.19784947033767702 0.10757570204685393 -0.11438960499992631 0.10799864992987894 -0.11443159760644113 -0.1659884771332254 -0.1901855193522219
911750000.0 -0.1160498770143665 -0.19822774352356592 0.10513480998007922 -0.11659871624082305 0.10563593888834419 -0.11659974266568138 -0.166024015137945 -0.18922491201097238
912437500.0 -0.1159911179626424 -0.19843607040068656 0.1026857819360651 -0.1187430539434079 0.10334391642621535 -0.11879311423945818 -0.16594932835552656 -0.1883928374688757
913125000.0 -0.11587698145651652 -0.1986743651174077 0.10029209479257843 -0.12080009486028112 0.10097490748974285 -0.12095229315753821 -0.16594738571211595 -0.1874597238019719
913812500.0 -0.11581783893921059 -0.19897662671145094 0.09782131486533464 -0.12290030483958064 0.09850819192410191 -0.12321364524237254 -0.16581609466539737 -0.18659526096848092
914500000.0 -0.11565002737813689 -0.19920883908947343 0.0953979792046734 -0.12490819570539353 0.09593276249508255 -0.125460586360761 -0.16557346519701813 -0.1857363710253971
915187500.0 -0.1155115307121602 -0.19957587254680728 0.09287188851232699 -0.1270871075998331 0.09331960759520769 -0.12774863748709478 -0.16538930841462177 -0.18493323917126378
915875000.0 -0.11535600189747049 -0.19995979791687038 0.09025385708878417 -0.12907739609125624 0.09058861082632878 -0.12998980089463244 -0.16506470219699504 -0.18408230505185905
916562500.0 -0.1152024897180174 -0.2004160364418572 0.08766116575318533 -0.13115529765426442 0.0877559295801693 -0.13215268285345072 -0.16472051261630358 -0.18342347236597595
917250000.0 -0.11510568245584847 -0.20085874689698666 0.0848943040927283 -0.13311644701341185 0.08486039355013192 -0.13424131446754603 -0.16429671437413837 -0.18259030933005654
917937500.0 -0.11501625488824564 -0.2013508511016753 0.08216734100443386 -0.1351934680597434 0.08184158539308277 -0.136265231049063 -0.16391364439139341 -0.1819199906623949
918625000.0 -0.11510381376053509 -0.20194626897445447 0.07927346931658953 -0.13707027432476157 0.07880672996124465 -0.13813316128511086 -0.1633988398770861 -0.18133240126928324
919312500.0 -0.11519692614282016 -0.2024881718601231 0.07633282441798968 -0.1388732428959063 0.07554538184116157 -0.13982716143825863 -0.16288410422823602 -0.18063504797728502
920000000.0 -0.11537835637618549 -0.203041813894923 0.07328521189912235 -0.14065712342438966 0.07241665090458355 -0.14136510583133907 -0.16245700716501366 -0.1800573231947961
920687500.0 -0.11558879311862039 -0.20357743369095793 0.07027363107164036 -0.14223170300895216 0.06921549007252295 -0.14279772011413616 -0.16193765358451928 -0.17949327751023658
921375000.0 -0.11594776027137875 -0.20409321858550977 0.06712611466186513 -0.14388857699831814 0.06607061711006589 -0.1441230973465105 -0.1615400398663382 -0.17890648683541688
922062500.0 -0.1162997176994482 -0.20454673481767432 0.0639182089218152 -0.14532911335768386 0.06286347462867872 -0.14538456166580185 -0.16110653284301857 -0.17829422785968607
922750000.0 -0.11676942515291898 -0.2048870125296843 0.06077024226938396 -0.14677876210254504 0.05971529726626394 -0.14648647383855057 -0.16079023283474275 -0.17768676861760047
923437500.0 -0.11716420447310515 -0.20521049999040755 0.057600340351417874 -0.14803030385294005 0.05660871106804729 -0.1474969956738517 -0.16046658516444479 -0.17699782672148806
924125000.0 -0.1177092185534959 -0.20547180294966022 0.0544290907839982 -0.14923811374322343 0.05364943479985539 -0.14856246329970013 -0.1602273773863026 -0.17639652255174176
924812500.0 -0.1182354624423043 -0.20577155933449734 0.05120460821982671 -0.1503447033952162 0.050612023326637855 -0.14950008462236958 -0.15987657221365825 -0.1757444974016986
925500000.0 -0.11863209572772487 -0.20586640890238309 0.04805207251855123 -0.1513543077033171 0.04759516429052027 -0.1503556101385879 -0.15966950293840707 -0.1749344343430775
926187500.0 -0.11914655922486621 -0.2059194227049972 0.04482705593474561 -0.15227561291104652 0.04464178872251343 -0.15120697108641032 -0.15949058036058725 -0.17434534553931866
926875000.0 -0.11950627732152637 -0.20601259384210888 0.0416630176753604 -0.1530817197794264 0.04166865958156619 -0.15208841411884258 -0.15918095317365588 -0.1736382222393599
927562500.0 -0.1198397620413753 -0.2061184809774055 0.03839379528894458 -0.1540559870693961 0.038706239977132226 -0.15304168170018986 -0.15892574134026063 -0.1728735816941181
928250000.0 -0.12019306091377296 -0.2060713290491993 0.03519727554498795 -0.1548366017840807 0.03573681324192149 -0.1539401695185392 -0.15859292589625984 -0.1720826113302991
928937500.0 -0.12054411228599811 -0.2062020936536161 0.03198346356451472 -0.15555419825761416 0.032767627148844826 -0.15486706755729177 -0.15831603634538316 -0.17128431501821734
929625000.0 -0.12079209902698766 -0.20632988646190495 0.028803992050543334 -0.15624704181133384 0.029650384459774123 -0.15577334905719564 -0.15790372933598354 -0.17055024883510136
930312500.0 -0.1210923726730556 -0.2064456278205679 0.02555633679406359 -0.15691503928376374 0.026553351958568863 -0.15676040999038787 -0.15745507447245996 -0.1694618861187235
931000000.0 -0.12141169093421805 -0.20662073004024434 0.02231907611047716 -0.15753009386076894 0.023381098979064246 -0.1575547779828761 -0.15696418189341468 -0.16858707670376527
931687500.0 -0.12165733486725372 -0.20675439054663117 0.01899840273698613 -0.15807860182216835 0.020105563414078688 -0.15843649998927578 -0.15645412713738477 -0.16773504843272302
932375000.0 -0.12209321563319539 -0.20701122518086532 0.0156878452889711 -0.15866595814927625 0.01669572669146332 -0.159197780664356 -0.1560293284051989 -0.16670533666135012
933062500.0 -0.12237923501359083 -0.20716828238351442 0.01239261466205543 -0.15911956052227738 0.013228849655203987 -0.15987906855634434 -0.15535526673025415 -0.16601273879175577
933750000.0 -0.1228032367759759 -0.20747281212287952 0.009061169539965507 -0.15953077222539538 0.009745618316269614 -0.16053906294794398 -0.15459218186901297 -0.16498232964069215
934437500.0 -0.12336612500303083 -0.20776689593433847 0.005686747559308389 -0.1600089218505588 0.006189233923640001 -0.16105235754712635 -0.15391559720714837 -0.16417048296129108
935125000.0 -0.12391948258759086 -0.20802531021717788 0.0023190791711061257 -0.16031923226940428 0.002579803758180523 -0.161440362267376 -0.15312301353392566 -0.16336553341261537
935812500.0 -0.12454385721333046 -0.2082508224784481 -0.0010353063551441595 -0.1606481624200605 -0.0010121422488246397 -0.16177950623916118 -0.15240966993358004 -0.1624576188065287
936500000.0 -0.1252108571625766 -0.20837540077203504 -0.004380330711336967 -0.16089758294760678 -0.004622750523791647 -0.1619724251889295 -0.15153572074384092 -0.1616510063088307
937187500.0 -0.1258405254880458 -0.2085351072714898 -0.007844134808433016 -0.16116271777084143 -0.008367146016756399 -0.16212010807881508 -0.15076609017534073 -0.16091130396487163
937875000.0 -0.12649263263016408 -0.2087511881383575 -0.011262728912024289 -0.16121609547112228 -0.01192849860395275 -0.162058282825749 -0.1498983508242734 -0.16029870669530208
938562500.0 -0.1272278038380168 -0.2087623816405017 -0.014740734007591924 -0.16129749742852473 -0.015514734642486474 -0.16192327182445118 -0.14913393694858101 -0.15963502585933104
939250000.0 -0.12794736122603284 -0.20886143945682475 -0.018228726029285974 -0.16123167108611877 -0.019040092014571033 -0.16172129075540884 -0.1483146947375256 -0.15904911468053687
939937500.0 -0.12866932430246353 -0.20875500216112317 -0.02169435421890022 -0.16118138951376845 -0.022584153041144965 -0.16144455161779964 -0.14767145372083296 -0.15859772410008569
940625000.0 -0.12925752223642137 -0.2087499922453339 -0.025172843591733763 -0.1609894166675982 -0.026045913406437023 -0.16106120674524177 -0.14686567533829376 -0.158147424384303
941312500.0 -0.12994755156689575 -0.20877189108613964 -0.028681408504728712 -0.16069174994736976 -0.029512861759225347 -0.1606815814849834 -0.14618463013069127 -0.1577303828784439
942000000.0 -0.13051104267089544 -0.20867261575192156 -0.03225174459333401 -0.160338003318709 -0.032906580445270166 -0.1601713549429282 -0.14544537460317206 -0.15736637028393544
942687500.0 -0.13110749900358062 -0.20862444087893417 -0.03571464465737089 -0.1599462474570614 -0.036273471776750346 -0.1596027273204414 -0.14485989107315247 -0.15717709364344745
943375000.0 -0.13169139474947128 -0.2086489059479423 -0.03927696686019623 -0.15947587863228974 -0.039767676120261664 -0.15911772140300343 -0.14423229412105587 -0.15700363586609764
944062500.0 -0.1322105610430719 -0.20852435214584003 -0.042694493915503 -0.15890133554812486 -0.043122069898958344 -0.1584758173103694 -0.14360805252811099 -0.15692421438849286
944750000.0 -0.13276074846147065 -0.20863104500662227 -0.04627389779279719 -0.15826818032382559 -0.04649671108701494 -0.1578516147424963 -0.14301851423127934 -0.1568752555484216
945437500.0 -0.13325857587612194 -0.20850360323729383 -0.04981089829714968 -0.15754477896549032 -0.04995105077102024 -0.1570950007363654 -0.14246760985815743 -0.15694849864535473
946125000.0 -0.13380698054506507 -0.208492608154464 -0.05335262096692598 -0.15679847613875122 -0.05334907094417771 -0.15634055991322593 -0.14196339568325037 -0.15708607392888752
946812500.0 -0.1342459325362777 -0.20870381540116137 -0.056847300474534214 -0.15597192915751615 -0.05682417994976876 -0.15556619067080285 -0.141290199399004 -0.15723210198521703
947500000.0 -0.13484946766371306 -0.2087389563925457 -0.06043146496996493 -0.15498693896602417 -0.060226971775820204 -0.15475937234823853 -0.1406888454617691 -0.1573654903627802
948187500.0 -0.13537888739988843 -0.20877256336521052 -0.06384053560632572 -0.15403448395077846 -0.06375290598589971 -0.15377837969025035 -0.13997428702650697 -0.1577251728818636
948875000.0 -0.13600172865680732 -0.20887814260198012 -0.06740921542878754 -0.15283094864494942 -0.06725229871552564 -0.15280402679398097 -0.1393135534825408 -0.15793116680675778
949562500.0 -0.1365386457981802 -0.20901653496956987 -0.07088797828932691 -0.15173688569034488 -0.07077622317506063 -0.15163415520814424 -0.13868304916417415 -0.15840223089972538
950250000.0 -0.1371384427513879 -0.2090377388835264 -0.074411462021418 -0.15042345147252797 -0.07427882726872004 -0.15041402589673797 -0.13798487228922673 -0.1587184561793348
950937500.0 -0.13775727268859708 -0.2091368615872046 -0.07788722750644947 -0.1490672325333528 -0.07779724524869618 -0.14908336405801237 -0.13726300906616032 -0.15912737103036717
951625000.0 -0.13841222126927702 -0.20919635751451318 -0.08126455971376358 -0.14760393564624028 -0.08124665236655094 -0.1476781290532219 -0.13641948082293873 -0.15965054167556275
952312500.0 -0.13905214863968948 -0.20925773047248855 -0.08465332565358853 -0.14612030524955072 -0.08474563558346478 -0.14613432640255405 -0.13567223125391503 -0.15987568758609058
953000000.0 -0.13963220907881121 -0.20942301105605257 -0.08814137818837389 -0.14446819010659093 -0.08816124743526667 -0.1445337631061761 -0.1349868747474563 -0.16035676820393935
953687500.0 -0.14024024995032136 -0.20947565185477257 -0.09150904828612383 -0.1427601832761755 -0.09160894599516699 -0.14285874649762229 -0.1342052138896393 -0.16059185953816024
954375000.0 -0.140716759568946 -0.20962077914737584 -0.09492893678779457 -0.14108732845696959 -0.0950071485755448 -0.14109247164252364 -0.1335656976662703 -0.16101406469315285
955062500.0 -0.141466333889912 -0.20965340665410534 -0.09831904405889282 -0.1391828105704554 -0.09839014947612117 -0.13925818678909202 -0.13288698699278428 -0.16136232771504247
955750000.0 -0.14188287095575638 -0.20974652410202405 -0.10157975947618972 -0.1372853331474922 -0.10164887562938951 -0.1372877952044316 -0.13222771559063015 -0.16167775757063577
956437500.0 -0.14239106438909332 -0.20985478774720087 -0.10493125974183766 -0.13533248177959364 -0.10498806969649586 -0.1353361326105929 -0.1316635322103022 -0.1619503215376363
957125000.0 -0.14293734955972204 -0.21002262017507564 -0.10814915200924122 -0.1332303112581999 -0.1081884615130236 -0.13319790799388465 -0.1311211870838242 -0.162145339843345
957812500.0 -0.14349825685507725 -0.21019562461081956 -0.1114181822830562 -0.1310815247693463 -0.11147499814033687 -0.13106702320542116 -0.13059083646606712 -0.16243193866999495
958500000.0 -0.14393094163132894 -0.210381151303569 -0.11463799553325095 -0.12883364120827207 -0.11467159570233251 -0.12872587539914285 -0.13038825825012815 -0.16273204374752928
959187500.0 -0.14434717316852982 -0.2106284115285802 -0.1177417672166635 -0.12662336573917515 -0.11776066705230105 -0.12653639736006023 -0.13004468747780878 -0.16290658812191366
959875000.0 -0.1448819893544697 -0.21076443792818178 -0.1208761448329174 -0.12415324312059418 -0.12096130603345376 -0.12409162660450171 -0.1298751622314572 -0.16323497418222258
960562500.0 -0.14530775724174502 -0.21106479216703142 -0.12400054301910757 -0.12166173991783376 -0.1239974342007942 -0.12164058594942785 -0.12971862729830802 -0.16350141322604167
961250000.0 -0.14579769293586992 -0.21137015224215278 -0.12702365239812055 -0.11910325181659408 -0.12707076323666347 -0.119124643899844 -0.12965069371604604 -0.16382978552073674
961937500.0 -0.14620035525108943 -0.2116353300478363 -0.129954111698076 -0.11647972256687393 -0.1300020509151051 -0.11645571291688198 -0.12963225856645888 -0.16426844995679085
962625000.0 -0.14655313469994394 -0.2118348396581348 -0.13295043207620894 -0.11366527703676536 -0.13292031342382338 -0.11368769778960765 -0.12967645121729027 -0.16473492413084434
963312500.0 -0.14700171605632883 -0.21212608752776266 -0.13580054916412193 -0.11079730073474546 -0.13583136679978988 -0.11092591712948341 -0.12977945958215148 -0.16520695481614528
964000000.0 -0.1474719593512968 -0.2124740539366103 -0.13865972514755476 -0.10787625577325757 -0.13863263391360298 -0.10803469264943344 -0.129944728778539 -0.1658388541517192
964687500.0 -0.1479860715286673 -0.212737216096839 -0.14142206866001258 -0.10486690031799152 -0.14136991152529318 -0.1050489177005187 -0.13001076198287728 -0.16651836801233547
965375000.0 -0.1483313814673256 -0.2131417643691812 -0.14408980246009642 -0.10179531773038224 -0.1440693357401702 -0.1020143886078481 -0.13013855590688347 -0.1673708428731104
966062500.0 -0.14875065307433358 -0.21344690928526983 -0.14673248628667668 -0.09867423660921573 -0.14669323193970343 -0.09881881038450276 -0.13026350619563262 -0.1682282960156885
966750000.0 -0.14921463095384152 -0.2137980450276646 -0.14925835758991954 -0.09542618999355394 -0.14926538934947722 -0.0956499547064281 -0.13036603884838643 -0.16921741413517788
967437500.0 -0.14969712040913888 -0.21417969631799305 -0.15169218999357964 -0.0920959025427526 -0.15166947385373744 -0.09232340513612854 -0.1304700007998767 -0.17022976150518093
968125000.0 -0.15021126925992107 -0.21464104166072495 -0.153971878015625 -0.08880959063206119 -0.15398892405279596 -0.08900896492244524 -0.13056453497515144 -0.17141250865641935
968812500.0 -0.1506863912927095 -0.21507298378636028 -0.15632046816407769 -0.08547093609793047 -0.1563037896315165 -0.08558313018588085 -0.13063763184907048 -0.17253275368254614
969500000.0 -0.15131454594300853 -0.2156022708060129 -0.15845609832524163 -0.08195048402062347 -0.1586573859949007 -0.08222819728517468 -0.13069340497917628 -0.1737376071224199
970187500.0 -0.1519343745459813 -0.21614908020481272 -0.16068003431882716 -0.07854135199482842 -0.16082041599732777 -0.078781020032518 -0.13078687194697108 -0.17497057859280526
970875000.0 -0.15261148703832816 -0.216628483884099 -0.16272210977986398 -0.07506989132611976 -0.1629837715864219 -0.07526955502784051 -0.13076841479073797 -0.17611030460539653
971562500.0 -0.1533471926574235 -0.21724067061448984 -0.16468472400886466 -0.07142476873167349 -0.16506167956836623 -0.07171560572301322 -0.1308785454991406 -0.17724977909889908
972250000.0 -0.15412129035758376 -0.21771634335129472 -0.16662812782504008 -0.06788039197851217 -0.16708308426443863 -0.068108587324619 -0.13098261641982203 -0.17832126801829384
972937500.0 -0.15506136285335317 -0.21822515424644767 -0.16848426510007944 -0.06423427566526807 -0.1690529803664911 -0.06444031410783022 -0.1310019659112323 -0.17931121715357992
973625000.0 -0.15604247268219423 -0.21873161248199122 -0.17034458649159834 -0.06055411783263393 -0.17094545516562423 -0.060744756768505576 -0.13108263886711577 -0.1802174651712103
974312500.0 -0.15707064678558097 -0.2190852394475155 -0.1721318712088029 -0.0568535979743858 -0.17290492613641423 -0.05692347452121474 -0.1312980831389982 -0.1810527263215841
975000000.0 -0.15810791552767722 -0.21936981070705225 -0.17392426385807525 -0.05302188823538133 -0.1746942520457867 -0.0529809674734801 -0.13155325516874214 -0.18171345857857565
975687500.0 -0.1592577655208564 -0.21965328874542583 -0.17568287794330975 -0.04916232755094868 -0.17646592174668435 -0.048996583409696336 -0.13173064585429994 -0.18224872313247187
976375000.0 -0.16032887381395675 -0.21989634963457344 -0.1772884441050179 -0.04515447517046077 -0.1781017459754844 -0.044902296362539736 -0.13205893920260708 -0.18263313088867833
977062500.0 -0.1614734500679355 -0.2199941851405328 -0.1789328213515025 -0.04113349463695135 -0.17966045310219542 -0.040647558592316446 -0.13246592837613408 -0.18308340824699385
977750000.0 -0.16260509580532953 -0.21999657132985134 -0.1804234678888334 -0.03698890544589898 -0.18107101323421737 -0.03634442281644473 -0.13289914587187862 -0.18321909717945006
978437500.0 -0.1637385704464816 -0.2199655492537469 -0.18179106343359389 -0.03274376459355567 -0.18233713598026274 -0.031882906121389706 -0.13334158938160398 -0.18324714865046968
979125000.0 -0.16480250444512676 -0.2199396513972537 -0.1830087638758659 -0.028439531500961797 -0.18337941527138563 -0.02738320686942762 -0.1339566788546089 -0.1832607851085721
979812500.0 -0.1658640345822971 -0.2197564500358563 -0.18430908778182462 -0.0239439131345548 -0.18437767955923517 -0.022785672789176314 -0.13456963307817876 -0.18316578241548429
980500000.0 -0.16683382644521264 -0.21977679463892139 -0.1852709585444465 -0.01943145084127824 -0.18514924853417974 -0.018101652775597634 -0.13524978342706337 -0.18308359155469747
981187500.0 -0.16786023788807636 -0.2195142100138231 -0.1861598066396449 -0.01478010026410746 -0.18577118458854902 -0.013376639202251064 -0.1360295183647282 -0.18297070155626377
981875000.0 -0.16902915913866978 -0.21953384203320497 -0.18691869183100493 -0.00998185821757116 -0.18623307199263722 -0.008681819928476192 -0.13674106645784415 -0.18292459901061325
982562500.0 -0.1699961262770256 -0.21935516103569333 -0.18756942918014657 -0.00524450600890936 -0.18652661682925373 -0.004051409520583177 -0.137518091715279 -0.18281044392562928
983250000.0 -0.17112597838255433 -0.2192968984579048 -0.18801401836482842 -0.0004247916633107023 -0.1866670994982807 0.0006052955934787331 -0.138357237242927 -0.18298458450895416
983937500.0 -0.17235120116640879 -0.2191401403605346 -0.18816141421139276 0.004601913339545909 -0.18661717590242874 0.005192671109286566 -0.13918643130615596 -0.1830818003709719
984625000.0 -0.17371929428115818 -0.2190308832429803 -0.18817092063172852 0.009552171754635687 -0.1864293727067472 0.009693126177044544 -0.1399367153781802 -0.18328556583192737
985312500.0 -0.17500443808626107 -0.21887484976821078 -0.1879032907371105 0.014521718353942835 -0.1861856334785908 0.014169491884330851 -0.14082979266090004 -0.18360080054501382
986000000.0 -0.1765456567722508 -0.21864607258374702 -0.18752481716307473 0.019362904229890145 -0.18579677926806845 0.018535840811691483 -0.14162651537017465 -0.1839414382928489
986687500.0 -0.1780264699337774 -0.21827672770864104 -0.18692739680454284 0.02431413659249018 -0.1853968864729481 0.0229210411133123 -0.14245507462433857 -0.18457274722808611
987375000.0 -0.17961621430026947 -0.21792592726775983 -0.18617971490344867 0.029025132853115816 -0.1849429842488376 0.027176775259879504 -0.14330403766405142 -0.18510555090528708
988062500.0 -0.18113921895438043 -0.21739846154781808 -0.1852784595095809 0.03369665531973821 -0.18440833164298248 0.031527958120293395 -0.14401057667980352 -0.18583687426637438
988750000.0 -0.1827959304116619 -0.2167379337925462 -0.18425148701725785 0.03831296530143904 -0.18389593107837213 0.03583210908042939 -0.14477382731778587 -0.18653804328347345
989437500.0 -0.18435534107592633 -0.21596009803143318 -0.18302872560655917 0.04273438128579899 -0.1832272820389343 0.0401673849227611 -0.1455367637485236 -0.18727555158028555
990125000.0 -0.18596266556387409 -0.21500263026071512 -0.18174169861055783 0.04707013616892054 -0.18257140501801294 0.044564138641481614 -0.1462900476825752 -0.18793610868531932
990812500.0 -0.18753954710200754 -0.2140155397058412 -0.18039183876121676 0.0513708775898503 -0.18186786216564388 0.049057526870764485 -0.14692499192663944 -0.18865248556674868
991500000.0 -0.18893676134970927 -0.21288137797006698 -0.17894323691894443 0.055520753805464194 -0.18088307150149027 0.05355820362150586 -0.14756131768547837 -0.18924930702217338
992187500.0 -0.19030305750916737 -0.211658846402523 -0.17754766681588452 0.05953173131618461 -0.179883669330009 0.05818601153497774 -0.14823107915887918 -0.18973706354497305
992875000.0 -0.19145943973576734 -0.21040840407863554 -0.17598735918526154 0.06348876278200936 -0.17877205319252915 0.06282111289813597 -0.14877646598718489 -0.1900709479633582
993562500.0 -0.19252536268317172 -0.2091276976032098 -0.1744193236186014 0.06744778343366316 -0.17742718644051875 0.06748955068138282 -0.1494544186149275 -0.1903059363180341
994250000.0 -0.19352152945187193 -0.20787648163454533 -0.1729395017899451 0.07136583729124836 -0.17600133117102926 0.07210543419809692 -0.1500985159591712 -0.19034443640515897
994937500.0 -0.19432582881715987 -0.20661855497278325 -0.1713378280762043 0.07537469330565652 -0.17421294035804968 0.07672545756317724 -0.15060893661374128 -0.19027593627417952
995625000.0 -0.19507462457095584 -0.2054099997615197 -0.1697670397059317 0.07916592893062956 -0.1722604689771599 0.08133280316749032 -0.1511287527186849 -0.19004872730788722
996312500.0 -0.19586307141387924 -0.2042653155926436 -0.16798531008252976 0.08318946232979761 -0.17010030833565634 0.08584547118457324 -0.1516773523189331 -0.18966885329053246
997000000.0 -0.19655324367987403 -0.20318527619701096 -0.16619887014993112 0.0871323138219669 -0.16770219102665498 0.09013075463389168 -0.15228178850759874 -0.1890499486749988
997687500.0 -0.19725792577156864 -0.20219865332935977 -0.1642467867989081 0.09117526853025604 -0.16508289887593747 0.09435498330863355 -0.15275182376572644 -0.18843064790700764
998375000.0 -0.1979622626596154 -0.20107123777154642 -0.1622014429935624 0.09511086171407165 -0.16228282272133648 0.09835888833160931 -0.15324430316680535 -0.18771272850256304
999062500.0 -0.19864263762637532 -0.2000475543347232 -0.16012007464835956 0.0991062212551599 -0.1593710815641732 0.10223778181134485 -0.15372861400328483 -0.18687201698545694
999750000.0 -0.1994810452169791 -0.19907299242179707 -0.15783132583818946 0.10305534438548516 -0.15634601837590706 0.10592412500138051 -0.15419527589279677 -0.18597958083866054
1000438000.0 -0.20025262803988095 -0.19809964529615307 -0.15539255664815327 0.10703617970166493 -0.1532964440330959 0.1093961578368628 -0.15473767500030444 -0.18502819835143644
1001125000.0 -0.20109740682963487 -0.19699758869120534 -0.15279447342004815 0.11094563298951943 -0.1501663228256867 0.11275365752108178 -0.15531363168595533 -0.18421694441499264
1001812000.0 -0.20199493004325705 -0.19586280755292568 -0.15007306527681552 0.11486135009183043 -0.14707666853622817 0.11599606047149205 -0.15589027153478374 -0.18343408121702992
1002500000.0 -0.2028483543869892 -0.19447484504854703 -0.1471732474348806 0.11861787405508277 -0.14395093157147346 0.11904468068118011 -0.1564428998084796 -0.1826321717324243
1003188000.0 -0.20375348163762608 -0.19306564638433193 -0.14410828078235677 0.1223760098687676 -0.14078929206675966 0.12205537902703724 -0.15710056434900196 -0.1820097261777494
1003875000.0 -0.20454300227756927 -0.19172590848854984 -0.1408495196714344 0.1259148242952432 -0.13775478210435 0.12491940757967147 -0.15784032938130174 -0.18145390859090796
1004562000.0 -0.20526519294818008 -0.1901948541162199 -0.1375117546470762 0.1294908493303306 -0.13479133494397316 0.12780645727089526 -0.15863311394992138 -0.18108330193501407
1005250000.0 -0.20599774928635892 -0.18853243561080238 -0.13401057864774266 0.13285993981224162 -0.13181555425863076 0.1306088920234337 -0.15935263343869122 -0.18078969792842936
1005938000.0 -0.2066831662063248 -0.1867507310656107 -0.13041149937465277 0.1360681049617258 -0.1288426514641856 0.13347138891129345 -0.16024711010874845 -0.18060495678581226
1006625000.0 -0.20692364173284336 -0.18514268370622528 -0.1266853887685296 0.13908054396977274 -0.12582831610478695 0.13627618980293793 -0.16114716311108307 -0.18051562379759084
1007312000.0 -0.20716518771576686 -0.18331510337387738 -0.12283294647043666 0.14198935403418642 -0.12286948850861999 0.13906592017363364 -0.16205612421166077 -0.18064633913286177
1008000000.0 -0.20734848428321287 -0.18157850152134578 -0.11901510142931016 0.14473737945392134 -0.11970682963524303 0.1419019462044213 -0.16294450010093198 -0.1807943287212917
1008688000.0 -0.20744762472439188 -0.17986011273904642 -0.11509676235736359 0.14733172684516704 -0.11648268937989452 0.14472993322507116 -0.16382973314398255 -0.180916572026407
1009375000.0 -0.20752413249193896 -0.17820709956913075 -0.1111665061178915 0.14968610464581916 -0.1131968193720051 0.14756639837204527 -0.16471920550790348 -0.18111058172405983
1010062000.0 -0.20736982731688092 -0.1766580619385109 -0.10719535788540434 0.15186981397054436 -0.10970119008263549 0.15026927633633147 -0.16555346620709324 -0.1812710202333199
1010750000.0 -0.2072354269452271 -0.17513055083178738 -0.10320876080329508 0.15398422604931092 -0.10600878300876675 0.15294328145868324 -0.16639190666113257 -0.18138989032298272
1011438000.0 -0.2071565164504493 -0.17372649549682698 -0.09925965958177665 0.15577765877890898 -0.10216195712281555 0.15548577893716753 -0.16720683191441296 -0.18133945982164523
1012125000.0 -0.20711726298803113 -0.1723798108279932 -0.09544924835896583 0.15763021077565967 -0.09823238501453943 0.15794466446563799 -0.16794307968333388 -0.18124836779502035
1012812000.0 -0.20719267379203068 -0.17110388847232064 -0.09156496245910778 0.15924505670148795 -0.09416395407068653 0.16027525716725188 -0.1686179297117435 -0.18103176774596272
1013500000.0 -0.20723165181471576 -0.16981200480915198 -0.08775951762835134 0.16083374372464987 -0.08995075294754297 0.16237910933383334 -0.1692530150453142 -0.1807534974908539
1014188000.0 -0.20743891613661422 -0.1684417636206407 -0.08398667133717137 0.16236296541531856 -0.08567439573658941 0.1643105672079603 -0.16982884029685882 -0.18030108437438316
1014875000.0 -0.20764689878577008 -0.16713336107468812 -0.08021239632782584 0.16369417242674345 -0.08135118792427931 0.16593913247024084 -0.17027652160957774 -0.17968508152703047
1015562000.0 -0.20801270085525547 -0.16577951190222615 -0.07647233873033325 0.1650311007923124 -0.0770488619695005 0.1674673886655285 -0.17068202775302824 -0.17900424536023252
1016250000.0 -0.20841605099806054 -0.16430461281698275 -0.07276412845003145 0.16629061034682754 -0.07276999356745623 0.16873060062047668 -0.1711525076704294 -0.17812197203719188
1016938000.0 -0.20883049375420612 -0.16285428741439795 -0.06911500642151044 0.16750721843527536 -0.0685595678706768 0.16980168978661261 -0.17152975140639315 -0.1772031287609105
1017625000.0 -0.209345176792143 -0.16112008381084883 -0.06537569190214398 0.1686971338640203 -0.06445359890463638 0.17075246455476265 -0.17182372371183316 -0.17621227383871663
1018312000.0 -0.2097577782332043 -0.1594988733156237 -0.06160791775784412 0.16979254562141274 -0.06038279625955835 0.17150494133774644 -0.17204506851951393 -0.175271901793917
1019000000.0 -0.21012215443016377 -0.15769184348294252 -0.05793801417002119 0.17084082026561578 -0.056408836610453594 0.17214722522220952 -0.17231767749807153 -0.17411432827346426
1019688000.0 -0.21046530073390077 -0.15594265280452882 -0.054185482440524034 0.17184924470498905 -0.052572924169050975 0.17276155796168816 -0.17259778557226377 -0.17312362100175982
1020375000.0 -0.2106490360075821 -0.1540791126580201 -0.050355561072469406 0.17274812992137212 -0.04874678602265703 0.173237028266807 -0.17280238050048544 -0.17204589704158801
1021062000.0 -0.2108939113150233 -0.15218810543404565 -0.04653383196743731 0.17356722514249492 -0.04504853956685639 0.17378624826502184 -0.1729867626797429 -0.17101001808179594
1021750000.0 -0.21093977519673915 -0.1504552053123323 -0.04278660792384699 0.17445145623387126 -0.041379065801396823 0.17431053903353375 -0.17329483957601138 -0.17008699867957755
1022438000.0 -0.21087361095271084 -0.14873232621327412 -0.038850214689710595 0.17517198029512093 -0.03774176829584308 0.17479836132722484 -0.1735789408713752 -0.16914064515744948
1023125000.0 -0.2106737605402334 -0.1470239403802847 -0.03499868861981312 0.1759018380557959 -0.03398778820778248 0.17531208595249773 -0.17405358303647758 -0.16835549787536364
1023812000.0 -0.2104976669477541 -0.14537446646520885 -0.03105013180970151 0.17652205248294361 -0.030265666488695542 0.17585885497785553 -0.17443180858951993 -0.16764382145126866
1024500000.0 -0.21023914330452517 -0.14383095798807224 -0.027093183930184502 0.17704583566521456 -0.02646691804753532 0.17632680308910365 -0.17485920643357453 -0.1669676955451452
1025188000.0 -0.20993069237253548 -0.142381927881983 -0.023019098731575274 0.1775874037528828 -0.02261855228372953 0.1767942198347281 -0.17547447182199083 -0.16650927933432916
1025875000.0 -0.20954890695586798 -0.14102119426346815 -0.019008996420634795 0.17791315929300236 -0.018725100160573403 0.17719937606392078 -0.17607472588831052 -0.16610433191170357
1026562000.0 -0.20925427061745677 -0.13994315771881252 -0.01490321747660079 0.17811638987060513 -0.014820485181055085 0.17753192127734202 -0.17663167658403617 -0.16579247857065632
1027250000.0 -0.20888411978299556 -0.1387980553973149 -0.01080522265635632 0.17832265891623364 -0.010817550154741288 0.17778371135373341 -0.17737407060012608 -0.16554025052468208
1027938000.0 -0.20867145268300424 -0.13773114728106614 -0.006733102792226539 0.17840912901733294 -0.0067599705301483095 0.17792269072852135 -0.17809646463365936 -0.16546085195720098
1028625000.0 -0.20842938599311878 -0.1367423128656752 -0.002623157210809933 0.17833669678907102 -0.0027038965739360193 0.17793433950908186 -0.17879910151127787 -0.16527123862579338
1029312000.0 -0.20828514508138643 -0.13570632725786272 0.0015008454878699048 0.17815185635999273 0.001373002987606632 0.17780902319959724 -0.17942818114808992 -0.1651968427428377
1030000000.0 -0.20814381060844042 -0.13475067170034194 0.005662612518253414 0.17787730731321474 0.005535632406483324 0.17753366193050052 -0.18010465488839256 -0.16518463256168053
1030688000.0 -0.20798622695491362 -0.13369402955261292 0.009641287224066323 0.177321325986858 0.009556835037940126 0.17709959925503274 -0.1806739750607539 -0.165136812413843
1031375000.0 -0.2078726684093232 -0.13268880468820637 0.013662384320739572 0.17669187886853352 0.013528971794234245 0.1765230081827084 -0.18117057746089804 -0.16497914252233783
1032062000.0 -0.20780809105925152 -0.13152448996675098 0.017552451391335065 0.17599180252048816 0.017467224626073332 0.17572349258674372 -0.18166186465814918 -0.164787358167185
1032750000.0 -0.20762273953710453 -0.13038037442164566 0.021461969981981917 0.17511046417160336 0.02128785958413946 0.17493030109818233 -0.18204696744536747 -0.16463255725531037
1033438000.0 -0.20745008304153323 -0.1291831238667038 0.025293159960122286 0.1741425802380793 0.02503408331397302 0.17394687010345197 -0.18241748925379694 -0.16422147197019582
1034125000.0 -0.20719082639104294 -0.12796029562485353 0.028896037253812682 0.17314235670270164 0.028650455279248054 0.1729526502052032 -0.18272142451554613 -0.16388025392262673
1034812000.0 -0.20692009539628578 -0.12669234532374565 0.032576473316200574 0.1720463784815193 0.03222068019593668 0.171890369174235 -0.18302265337841658 -0.16340511181837697
1035500000.0 -0.2064907907676458 -0.12546919942296722 0.03611673034087922 0.17084926074546428 0.03567618160616178 0.17074976313847087 -0.18322525110724053 -0.16293518491082684
1036188000.0 -0.20611149727862754 -0.12417967090249014 0.03955341089236418 0.1696545438141087 0.039092601306033564 0.1695475426231112 -0.18342070488843926 -0.16237748855438564
1036875000.0 -0.20544745248187662 -0.12302302856807497 0.042964489018039675 0.16833978728270513 0.04241600112372455 0.1683114359377829 -0.1836166055412744 -0.16182232310946648
1037562000.0 -0.20483293977225814 -0.12192943708612869 0.04623407518904424 0.1670618883936361 0.04565144491935688 0.16712040502732387 -0.18374067572216796 -0.16119409164943127
1038250000.0 -0.20417159899853599 -0.12083303153053027 0.049437636947750045 0.16570712904241403 0.04888462682725302 0.1658674182744745 -0.1838775247256285 -0.16054998398949577
1038938000.0 -0.20349236822540356 -0.11990794257195837 0.05273242482052162 0.16435150386342295 0.05210716619639713 0.16473911183853374 -0.18403303298546292 -0.16001673711606434
1039625000.0 -0.20272029540119754 -0.11899535977382346 0.05586383078198202 0.16304719578546542 0.05531602876141783 0.1635089557063474 -0.18413606804714103 -0.15947000955566046
1040312000.0 -0.20190971710810304 -0.11816352978765207 0.058970701701643785 0.16166490836964084 0.058530350877658836 0.16228987657057717 -0.1842573772290346 -0.15900698935274618
1041000000.0 -0.2012211314493377 -0.11749361663463655 0.062114765097663276 0.16024071122690234 0.06176517685722595 0.16113046003167886 -0.18442296893229196 -0.15844850593726834
1041688000.0 -0.2004060983181474 -0.11689724535420142 0.06522983150638498 0.15886530430594517 0.06500229048839581 0.15979481071752755 -0.1846093149237456 -0.15803172876446228
1042375000.0 -0.19984364810245558 -0.11630461485891991 0.06831959351010801 0.15740622297606457 0.06828692007866381 0.1585035425796709 -0.1848196665245536 -0.1575854946060048
1043062000.0 -0.19924377894859063 -0.11574887251315873 0.07140903138754363 0.15595901110159588 0.07160665121209316 0.1570021823725143 -0.18503646422127065 -0.15729858349942777
1043750000.0 -0.1986635979099151 -0.11516138570992088 0.07450941590233091 0.1543404520644193 0.0749373613001944 0.15548749305440054 -0.185338130070477 -0.1569685667274737
1044438000.0 -0.19825982323691518 -0.1146727635863632 0.07763300332838476 0.15271089685150255 0.07825736082969019 0.15373666256353075 -0.1856917144296777 -0.15669094873521175
1045125000.0 -0.19779846756319983 -0.11417833172271064 0.08076777144279497 0.15109633670343836 0.08157267856834154 0.15195701265511968 -0.18611127337999617 -0.15653658913982896
1045812000.0 -0.19750316823142197 -0.11365381654622254 0.08380052459652866 0.14939095517528977 0.08492563342974845 0.15001609605197283 -0.18661646810738652 -0.1563288808518785
1046500000.0 -0.1971762529623667 -0.11315189529103598 0.0868589130952952 0.14753695571549436 0.08814810550874874 0.14803809656819422 -0.1870549888359116 -0.1561999257538691
1047188000.0 -0.19687696679791 -0.11248992065931454 0.09004881533811046 0.14567561920983052 0.09135139752475878 0.14593949680687182 -0.18767947477318173 -0.15612111507405868
1047875000.0 -0.1965430347142248 -0.11187374187218972 0.09314982186017923 0.1436976269004652 0.09445937716799425 0.1437173163797838 -0.18821903831981518 -0.15614443531422156
1048562000.0 -0.19619445904695282 -0.11127532019339403 0.0962155499923184 0.1416874088699723 0.0975150714200679 0.1414094649837005 -0.18884271677201755 -0.15620494149871572
1049250000.0 -0.19595633783770294 -0.11050363010347683 0.09924228183690804 0.1395082371806575 0.1005261373318399 0.13904707099923982 -0.18944160671481433 -0.1562037401026262
1049938000.0 -0.19565281748392568 -0.10980946689514254 0.10217194474360022 0.13729226576644882 0.10331542788896497 0.1365711186520321 -0.19005169099887573 -0.1562649690796581
1050625000.0 -0.19530519634574453 -0.10917901377417978 0.10516232483291688 0.1350742918998175 0.10610022359740694 0.13416639603253205 -0.19061387536574917 -0.1562925955338299
1051312000.0 -0.19491918311501955 -0.10849595464023828 0.10808406970673871 0.13272326461817704 0.10872504464886586 0.13161253350427354 -0.19124956942914695 -0.15632585559073037
1052000000.0 -0.1945646936649416 -0.10792472622564302 0.11081881544861732 0.13033879738270737 0.11127302449991713 0.12916093344303534 -0.1917365907736998 -0.15630054418535255
1052688000.0 -0.1941503371273217 -0.10726704164086355 0.11359270725781526 0.12785276495021958 0.11379030325174468 0.12667450178616238 -0.19226874048438983 -0.1561935496673676
1053375000.0 -0.19351901891645118 -0.10684244161394364 0.11629570874276532 0.12530933741943662 0.11619220387663722 0.12414862431522608 -0.19285110569905997 -0.1561279066527031
1054062000.0 -0.19311178770249893 -0.1064082083766085 0.11901551877320105 0.12283222976438656 0.11859127737037829 0.12164521465383245 -0.19337728372227378 -0.15588056186656002
1054750000.0 -0.1925880627379762 -0.10611412244219842 0.12150030608211587 0.12014267547100271 0.12091713361424404 0.1191275763288782 -0.19388080065179059 -0.15562442966444665
1055438000.0 -0.19206787377305923 -0.10573874524854258 0.12395806315683885 0.1174186448279334 0.12316952074311024 0.11658883750769018 -0.19444812789638447 -0.15532346382507808
1056125000.0 -0.19173250739508618 -0.10545087234464755 0.1263619718140318 0.11468765678486921 0.12537476988335708 0.11403493515094074 -0.19498969553669174 -0.15505265339945476
1056812000.0 -0.19124428063476892 -0.10523549636589202 0.12860834870227245 0.11195791075712884 0.12759787301098377 0.11146054942185599 -0.1955810858291396 -0.1548039344739495
1057500000.0 -0.1907931169390851 -0.10504246420201215 0.13083654555308194 0.10911996628681765 0.1298096892478798 0.10891176895489321 -0.19617588320235774 -0.1545702835059777
1058188000.0 -0.1904091444005448 -0.1049523958578891 0.13300164254564875 0.10621035550558063 0.13198173068181582 0.10628219448843206 -0.19691814376106026 -0.15425681696970853
1058875000.0 -0.19000861959704612 -0.10488672110677849 0.13510773285194635 0.10343310352601001 0.13419138312434017 0.10365376178089118 -0.19755421564094758 -0.154033408694372
1059562000.0 -0.1896382160616396 -0.10476564220921564 0.13708613807500708 0.10041282538483506 0.1362661099910768 0.1009355958577817 -0.19814284023876663 -0.15371975994548928
1060250000.0 -0.18925732232151446 -0.10478512836869192 0.1391111821367723 0.09745606587192382 0.13837095213732944 0.09818609565234795 -0.19878548567387247 -0.153592414176496
1060938000.0 -0.18887266887481183 -0.10473352794407116 0.14101592518319428 0.0944383413588783 0.14053088381046405 0.09534335831158468 -0.19950771242259602 -0.1534577533410091
1061625000.0 -0.18858704865925657 -0.10474522393775859 0.14278728635313342 0.0914263237169052 0.1424843021844483 0.09239279227053086 -0.2001377430958268 -0.15328840659419019
1062312000.0 -0.1882755588681547 -0.10472390107456764 0.14448893634214552 0.0883855168405894 0.1444629074242898 0.08938707588134827 -0.20080730452728973 -0.15320148971518655
1063000000.0 -0.18795014581426947 -0.10466184295603963 0.14628790462356053 0.08517120269295644 0.14636166238609044 0.08622214225547699 -0.20153837518333068 -0.1530759857518369
1063688000.0 -0.1876300017083726 -0.10468993075923609 0.14794429324396458 0.08213950893375026 0.14822674802352637 0.0831131581739153 -0.20217684554147558 -0.15295179219824903
1064375000.0 -0.1873646733328125 -0.10465019875841586 0.14954796518856112 0.07891547793091899 0.14998866639955574 0.07990695295337136 -0.20281503732827835 -0.15299147683598913
1065062000.0 -0.18699759749330722 -0.10462821654774353 0.15107402811923223 0.07573868900008852 0.15168163599185625 0.07656675932977187 -0.20347900622817833 -0.15294487247713168
1065750000.0 -0.18669756886774555 -0.10457182421076194 0.1525030255229292 0.07254222234294647 0.1532787832788529 0.07318770015947071 -0.20408863524417994 -0.1529141261399877
1066438000.0 -0.18630289525598442 -0.10464014492154576 0.1538654876046739 0.06932580606226009 0.15470461576755465 0.06972403081276161 -0.20479150321106598 -0.15298244893530208
1067125000.0 -0.18586809929133247 -0.10477346929602378 0.15521175198682732 0.06606886122535127 0.1562048123511155 0.06631787829572766 -0.20549704577633934 -0.15289979004563956
1067812000.0 -0.18548068593350547 -0.10473286965884611 0.15641430359515515 0.06278883248923041 0.15743601605146343 0.06280470644582871 -0.20616859892329287 -0.15288686600544638
1068500000.0 -0.18499442946351896 -0.104933182564295 0.157593237100887 0.059452500445165916 0.15862079327031525 0.059303303407259485 -0.20687376051162215 -0.15286586880666364
1069188000.0 -0.18464543631410005 -0.10504771940419454 0.15875420338368615 0.056169708042782394 0.15974946490757017 0.05579280334452709 -0.20746946199210367 -0.1528317278237777
1069875000.0 -0.18415824217194626 -0.10519044174168234 0.15984036727783718 0.05274761655791175 0.16072532346436572 0.05227904502001367 -0.20827977668424089 -0.15286618823862008
1070562000.0 -0.18366571217602332 -0.10544682893338451 0.16081147999375364 0.04941802515225003 0.16165958097677158 0.04875560281962308 -0.20876633355607052 -0.1526975282492518
1071250000.0 -0.18312656598177043 -0.10569481057588528 0.16171193416516522 0.046068842552291336 0.16245407391684782 0.04526757396406396 -0.20942135944350412 -0.15258867934915413
1071938000.0 -0.18273764891037692 -0.1059734297385075 0.1626854012684125 0.04265576516677347 0.16317886458678904 0.04175797110065902 -0.21006445422591605 -0.1523844790838759
1072625000.0 -0.18214726086638802 -0.10625181487064812 0.16338668466832196 0.039158362510633635 0.1637854659255238 0.03831651511323262 -0.21078275897601415 -0.15212644038136744
1073312000.0 -0.1817062466146045 -0.10666970372464792 0.1641715830164023 0.03571152461597365 0.16442429219607224 0.034856127264436126 -0.21151342391680628 -0.1518802310741222
1074000000.0 -0.18128279208359674 -0.10699360004900116 0.16482828348199996 0.03226509929381815 0.16491222631737174 0.03140566033899429 -0.21228657398917994 -0.15148846610420996
1074688000.0 -0.18073676042741293 -0.10753795978285452 0.16549443394217747 0.028858673301568945 0.16533680071369214 0.027998118871330104 -0.2131922057298291 -0.15102597548770805
1075375000.0 -0.18041396701431767 -0.10796752007500589 0.16601828199506335 0.02537375956986066 0.1656818684169807 0.024695115191079937 -0.21404385428819978 -0.1504698675823313
1076062000.0 -0.1800333979389003 -0.10853631430298648 0.1664949478582038 0.021896942777076146 0.16601335264779274 0.02127943918810243 -0.21503976193104 -0.1499409663681025
1076750000.0 -0.1796971082802017 -0.10908949355704671 0.16689260793858438 0.01844210166703253 0.1662890535562881 0.017913612627990624 -0.21605543555217982 -0.14938306848608185
1077438000.0 -0.17939886893634388 -0.1096013871804228 0.16715387489937691 0.014993342222749792 0.16652008132509408 0.014604774450115085 -0.2171498348554153 -0.14878250302415463
1078125000.0 -0.179160901937456 -0.11024635791213795 0.1674526558415708 0.011542362689619943 0.16675228947829726 0.011255185312079375 -0.2183167314290685 -0.14816289905879496
1078812000.0 -0.17895307566882326 -0.11075640489393616 0.1677016560453449 0.008039397444519675 0.1669381288119867 0.007861362665784617 -0.21954267035391278 -0.14759573088338118
1079500000.0 -0.1787690752581691 -0.11128259740526654 0.16775677482846535 0.004516525081428333 0.16704335437442197 0.004531780679233909 -0.2208668052914485 -0.1469693185776298
1080188000.0 -0.17856449801248336 -0.11189198035087035 0.16777784935375692 0.001125703277039861 0.16725369138084542 0.0011147362652474664 -0.2219439243835246 -0.14643559435452494
1080875000.0 -0.1785161219523089 -0.1124291933691394 0.1678561511416705 -0.002457966065221165 0.16730306889180052 -0.002261681475561611 -0.22336297086658854 -0.1459417235249522
1081562000.0 -0.17841484605027033 -0.11303647485044468 0.167695654623204 -0.005927627731438875 0.16737220441021575 -0.005689372158589349 -0.22446772930623396 -0.145497864021282
1082250000.0 -0.17835176034428407 -0.11346624590577699 0.16755182637415514 -0.009561359697730563 0.16743176221312853 -0.009124941259649515 -0.22577404667523612 -0.14512725663198559
1082938000.0 -0.17837874730059539 -0.1140038786686344 0.16739937067105956 -0.013040840906034802 0.16734257227207047 -0.012646787212738885 -0.22681763722461235 -0.1446592984001514
1083625000.0 -0.17826269901877456 -0.11454116146655756 0.1670408895556288 -0.016541375982708363 0.16715450456838463 -0.016100305816016052 -0.2278866784471526 -0.1443382639138046
1084312000.0 -0.17837729447272882 -0.11499364493387815 0.16658821793790363 -0.020089690135825806 0.16694388467877155 -0.01976377080445162 -0.22885614182745914 -0.14400916982812548
1085000000.0 -0.17821954530420628 -0.1155207332832847 0.16613478583970767 -0.023649560425203178 0.1665822520098839 -0.02332517929314991 -0.2296672132596269 -0.14364640748061222
1085688000.0 -0.17821130734913956 -0.11602200755869864 0.16557262784422674 -0.027191284679544302 0.16605026341200443 -0.026961144157632056 -0.23055660280041984 -0.14339281742798665
1086375000.0 -0.17817669782423362 -0.11659973228915585 0.1650129899356632 -0.030677785218413307 0.16552927835221368 -0.030618551669699862 -0.23121138473765548 -0.14297140035694103
1087062000.0 -0.17813209941866295 -0.1170467753558191 0.16429355460815664 -0.034191324871282514 0.16482424235413812 -0.034292361455747586 -0.23204774938618924 -0.1427182781953339
1087750000.0 -0.1780978225398387 -0.11762168175570518 0.1635521078510387 -0.03771709040412549 0.16393067435585504 -0.037862059550632904 -0.23260268457882596 -0.14247438867438236
1088438000.0 -0.17808752812556947 -0.11825340191829725 0.16255032630871297 -0.04119499147198072 0.16297135457212547 -0.04144870793773883 -0.23309198888374205 -0.1420721801280308
1089125000.0 -0.17798632433687853 -0.11883159669035137 0.16156089919285424 -0.04468258496982295 0.16177550149338843 -0.04503158508271668 -0.23364390042973365 -0.141625541030669
1089812000.0 -0.17796127771674597 -0.11956542934593119 0.16054480064394652 -0.04809065444569549 0.16058118252759238 -0.04850397374803637 -0.23413748246528704 -0.1410987444078235
1090500000.0 -0.17806307110305408 -0.12029080626542052 0.15936339933044646 -0.05144923219470049 0.15928325450262093 -0.0518996718622148 -0.23453303068985654 -0.14081755543683352
1091188000.0 -0.17814672927625788 -0.12116617501575425 0.15808843003595754 -0.054797903909345344 0.15784236828237538 -0.05519891491138127 -0.23497977065369863 -0.14011397725423863
1091875000.0 -0.17843457132709564 -0.12205379613621639 0.15671658424854473 -0.05805988716535186 0.1563334635202574 -0.05850426763839518 -0.23545771975953772 -0.13944292300196895
1092562000.0 -0.1788854150036946 -0.12303752199028076 0.15530329885692504 -0.061311859452633476 0.15484962381263243 -0.06161512842632554 -0.2359918765624044 -0.13878413235951853
1093250000.0 -0.17937718361914307 -0.12381339540212796 0.1537949410789281 -0.0644651054346384 0.15330306022028062 -0.0645866201212446 -0.23649816600083545 -0.13787972056353257
1093938000.0 -0.17996034974642122 -0.12454634185856563 0.15222335001592618 -0.06749484490355398 0.15179182914184447 -0.06752985072189467 -0.23712267355203454 -0.13688474783102242
1094625000.0 -0.1805788473763522 -0.12526419015886137 0.15058447351883136 -0.0705812671208468 0.15024782134169049 -0.07036512574182471 -0.23780010931088102 -0.13581751222545727
1095312000.0 -0.18129411183367086 -0.12589358547694912 0.14889393251048175 -0.07353764251487038 0.14864932622517935 -0.07314133567194202 -0.23865601237849696 -0.13454519100876175
1096000000.0 -0.18206992385681617 -0.12641829485868708 0.1472220850894463 -0.07649926274271794 0.14711586117223027 -0.07594642786259585 -0.239491204642777 -0.1333719071758697
1096688000.0 -0.18281034870591173 -0.1269691162289119 0.14549770584619884 -0.07931472823104563 0.14563440234384645 -0.07875712971782566 -0.2405101248807125 -0.1320348570792987
1097375000.0 -0.18364236858294472 -0.12736248073708883 0.14361623198208315 -0.08213431706553212 0.14406768199149056 -0.08149592878054873 -0.24167406844781 -0.1305695982003283
1098062000.0 -0.18447840553328437 -0.1278043339898586 0.14195756001538828 -0.08491820816237912 0.14256285135033117 -0.08430279722087893 -0.24284308520565 -0.1292240733792736
1098750000.0 -0.18525521233272305 -0.12812442676084848 0.14021070335757282 -0.08768028345986717 0.14104733039005726 -0.08718868003918671 -0.24403987544627936 -0.1278817393279591
1099438000.0 -0.18606451679834668 -0.12841219224316117 0.13845201297014764 -0.09037902398832452 0.13937001611661404 -0.09009642615575776 -0.2453103494030419 -0.12653375040541853
1100125000.0 -0.18679349922533278 -0.12859060470403455 0.1366195184586209 -0.09315485252118173 0.13763833064409087 -0.09306031098864093 -0.2466340694537929 -0.12520125954067698
1100812000.0 -0.1875789516020832 -0.12890946042101872 0.13474671726448478 -0.09577412055991685 0.13581919781913557 -0.09599811830629115 -0.24788788416214477 -0.12394025719365624
1101500000.0 -0.18831739744465273 -0.12911779392566966 0.13289433904451928 -0.09848623694835558 0.13387620645342405 -0.09903062134929662 -0.2490329155994906 -0.1227692443365772
1102188000.0 -0.18906148519530527 -0.12942923875688458 0.13094463188790936 -0.10117711931704841 0.13181065947129433 -0.10203950823640834 -0.25020148249394364 -0.12170469868471485
1102875000.0 -0.18964918476386325 -0.12965815839282 0.1289387357865789 -0.10375807287774255 0.1295690310769268 -0.10493659485703759 -0.2512776355138921 -0.1205391324054963
1103562000.0 -0.1904527831870501 -0.12995449442124965 0.1269270096357699 -0.10646519759627587 0.12729239509329612 -0.10786642008234541 -0.25220052331647863 -0.11954190358318084
1104250000.0 -0.19119553638397307 -0.13040448303117408 0.1248382638748648 -0.10914602735387188 0.12486267182834536 -0.11069525280363864 -0.25300978550142605 -0.11858057409122365
1104938000.0 -0.19196833853535988 -0.13073182927393817 0.12267775224205589 -0.11176895255911946 0.12234696500899087 -0.11340227107190119 -0.25374163224654883 -0.11759046890625952
1105625000.0 -0.19279780029046079 -0.13113702542070568 0.12043653146088945 -0.1143235762111111 0.11969487554677961 -0.11592958590326347 -0.25427326999002825 -0.11679471295451793
1106312000.0 -0.19373579754847473 -0.13153324382890624 0.11796923233883838 -0.11698083244163186 0.11704892304205573 -0.11845163066713554 -0.254800959582014 -0.1158708492154101
1107000000.0 -0.194769820189462 -0.13187205124357065 0.11559440686129215 -0.11960205945549182 0.1143092477411865 -0.12071569577855958 -0.25522408963364773 -0.11510024901616368
1107688000.0 -0.1957771542501044 -0.13232049609506238 0.11306377096380872 -0.12216381142148075 0.11153428441339765 -0.12293182386649018 -0.2555067212749475 -0.11412270909697628
1108375000.0 -0.19693335482472066 -0.13264844719978106 0.11044467237183385 -0.12453378628736879 0.10876622261745116 -0.12498098936510339 -0.25574300636366815 -0.113249925885627
1109062000.0 -0.1980992803764507 -0.132913339036352 0.10767645337275304 -0.12696955702795046 0.10594824711547043 -0.12685701762159982 -0.25596993856412986 -0.11233709835452761
1109750000.0 -0.19949388088577075 -0.1331606220689783 0.104987654613251 -0.12921808964906553 0.10321828914989835 -0.12868427817705866 -0.25597731752013203 -0.11142873636685004
1110438000.0 -0.20073375767705404 -0.13329207125337084 0.10208277380838916 -0.13136941313544792 0.10054374521839635 -0.13045728235972281 -0.2560900742627043 -0.11034880846664287
1111125000.0 -0.20215068426640478 -0.13330134272198332 0.0992301721731091 -0.13352196641205927 0.09785424967941365 -0.13216694498368958 -0.2561348561544871 -0.10923922789960766
1111812000.0 -0.20364373452887458 -0.13327583851756733 0.09616444364182918 -0.1355580529375224 0.09520691885437466 -0.13387608236225643 -0.25619679464150835 -0.10805933711595501
1112500000.0 -0.20507712580053372 -0.13321365244562738 0.09329600594958884 -0.1373924190498859 0.0925888730916554 -0.1355903554001445 -0.2561778341522836 -0.10668006020452783
1113188000.0 -0.20642597497207243 -0.13300900498166646 0.0901969940852531 -0.13925780188819373 0.09008110945793374 -0.13722480275247587 -0.256334935244116 -0.10527440502538395
1113875000.0 -0.20786355476204493 -0.13276593379507046 0.08713696000542702 -0.14087649338564812 0.08742364643591095 -0.13892757256856186 -0.2564281349264548 -0.10365355828679769
1114562000.0 -0.20919825715260987 -0.13245179508861776 0.08407286683314306 -0.1424093806125349 0.08487426136957564 -0.14062284844219308 -0.2567429748963352 -0.10197148763858346
1115250000.0 -0.21059043860808271 -0.13206383905254535 0.0810160850566284 -0.14386898605025475 0.08219982785767256 -0.14235673244617625 -0.2571151935567196 -0.10013492477246792
1115938000.0 -0.2119436840131788 -0.1317000270104292 0.0779746311700765 -0.14518771791668567 0.07946550743114043 -0.14410839799733727 -0.25754707789891096 -0.0982033872936021
1116625000.0 -0.21320716748492738 -0.13128867660215002 0.07490895604608741 -0.14654547386578984 0.07674549760905199 -0.1459287883248452 -0.25820440577759474 -0.09628164560750083
1117312000.0 -0.2143721328605024 -0.13073723347032204 0.0718801767427405 -0.14780919959697209 0.07385027508303924 -0.1476500672202456 -0.2588160061658619 -0.09421467363741738
1118000000.0 -0.2156480454848142 -0.13030207531731558 0.06882452677896536 -0.1490511103652613 0.07087965919158543 -0.1493513910920546 -0.25957949246917805 -0.09220432584645491
1118688000.0 -0.21682918402497992 -0.12981928104578055 0.06574112477785667 -0.15014027245564443 0.06775325529832407 -0.1510843022140204 -0.26041310271318274 -0.09001429857121011
1119375000.0 -0.21806127375493464 -0.12935394062070377 0.06278080212779524 -0.1513418998866391 0.06453821586557995 -0.15269247163049743 -0.2613584462325028 -0.08800266182342115
1120062000.0 -0.2193019082342479 -0.1288802205521721 0.05985141382533019 -0.15250309738305548 0.06123022477444743 -0.15416982761291784 -0.26222387040940465 -0.08609682761910704
1120750000.0 -0.22064117403033168 -0.12843659378541142 0.05682616751242259 -0.15349874381070316 0.057787457683104414 -0.15548878199621574 -0.26315288121328395 -0.08401201300171773
1121438000.0 -0.2219438653638065 -0.1278477222369963 0.05389677750342841 -0.1545670804395372 0.05431275834334561 -0.15669971526358523 -0.264093413686467 -0.08222881504428915
1122125000.0 -0.22332512045787456 -0.12732548609726332 0.050821207726338705 -0.1556388493530186 0.050794634143810316 -0.15779724272379136 -0.26479714464109194 -0.08049508731021945
1122812000.0 -0.22483449269293138 -0.12674966513206917 0.04776172531965928 -0.15664693683248299 0.04719889072131323 -0.15870207836643166 -0.26555436735873555 -0.0786910590946631
1123500000.0 -0.2262933362449239 -0.12604626448260645 0.04472160664878608 -0.15763034407132825 0.043623366272222436 -0.159448927927517 -0.2662233646478528 -0.07710842805452874
1124188000.0 -0.22773151955605372 -0.125348505845119 0.04159508525962336 -0.1585746837194423 0.04011871773212274 -0.16007285464200996 -0.2666954931890741 -0.07552664841047396
1124875000.0 -0.22940459719143008 -0.1244684189291396 0.038382761754897465 -0.15943638308822883 0.03661041589881122 -0.16057615864556996 -0.266937425775435 -0.07394511519932052
1125562000.0 -0.2309511622737542 -0.1234832083729601 0.03514095976425014 -0.1604378943139791 0.033214119149728064 -0.16102330201043152 -0.2673517203840387 -0.07243529176289659
1126250000.0 -0.2325220379110083 -0.12239594245980458 0.031895930902575136 -0.16106839913378504 0.029911516627337414 -0.16132013820960506 -0.2674178662287488 -0.07101357015073194
1126938000.0 -0.23417036420001766 -0.12119054626245582 0.028628997649048915 -0.16185478102740045 0.02665452098570179 -0.16159845538898332 -0.2675078952233258 -0.06973944153439861
1127625000.0 -0.23579348432898609 -0.12000796826781782 0.025347820966501174 -0.162503674424826 0.02345220089428004 -0.16184988462360736 -0.2673155155265155 -0.06824222561550985
1128312000.0 -0.23735100449738653 -0.1185783247593823 0.021882878021107142 -0.1630402089172012 0.020312525013194145 -0.16205438706989514 -0.26714327305855023 -0.06691389704670496
1129000000.0 -0.23898651482642816 -0.11724781084790853 0.01848163052434317 -0.16361491758101143 0.0172874129840595 -0.1623801282677904 -0.26680720105006994 -0.06553065945979196
1129688000.0 -0.24045887173269095 -0.11572723523547951 0.01517445185618456 -0.1640451437203104 0.014246595142595369 -0.16261205249728347 -0.26636467402736486 -0.06428699612924978
1130375000.0 -0.2419181765185574 -0.11431120461589198 0.01168274321672957 -0.1643998163175077 0.01120937634611227 -0.16297715742110377 -0.2658313996029876 -0.06277826399338257
1131062000.0 -0.24334176908558797 -0.11276036298332603 0.008208368705902242 -0.16462952747994658 0.008134335884871202 -0.16323962748293758 -0.2653057321848397 -0.06134344823588707
1131750000.0 -0.24475976522015974 -0.11124574005955283 0.0048800925923776686 -0.1648238867848432 0.005126674116153497 -0.16348220224559828 -0.26467279838840524 -0.059837625898822924
1132438000.0 -0.2460805168898256 -0.10971298945976422 0.001436256950969437 -0.16484717339361354 0.0020356768578755962 -0.1637922130194582 -0.2641481305741601 -0.05823925043889426
1133125000.0 -0.24740143957567237 -0.10805489954126227 -0.0019684485234577873 -0.16499774927611943 -0.0012015761745927818 -0.16398583602119057 -0.2634721585843352 -0.05646702742622226
1133812000.0 -0.24864582497777568 -0.10653265496389386 -0.005425626402693493 -0.16486411310755195 -0.004435108415800568 -0.16419190815556073 -0.26284568959464333 -0.054761531861463056
1134500000.0 -0.2499733015963087 -0.10499287742390268 -0.008785067841997243 -0.16478652484291356 -0.007768086150719274 -0.16434224777889547 -0.26217635357715935 -0.052887817923062505
1135188000.0 -0.2512345523856292 -0.10342503301835886 -0.012234985852494233 -0.1644533492115615 -0.011182790312949747 -0.1643910575198891 -0.2616699610624135 -0.05086387690601037
1135875000.0 -0.25250787429136057 -0.10185922125826664 -0.01560217308146787 -0.1641284184346265 -0.014716533026770498 -0.1642803916585541 -0.26114821798297516 -0.04887236039207367
1136562000.0 -0.2539257993681725 -0.10033715753285932 -0.019114100340926598 -0.1637968098849085 -0.018200824751594333 -0.16412432396991586 -0.2608761660577034 -0.04670605707139609
1137250000.0 -0.2552325315655403 -0.09882186028536322 -0.022434987619627922 -0.16325569472170254 -0.021742234780791223 -0.16383282612032846 -0.2604819237269199 -0.04468356158505237
1137938000.0 -0.2565377625878301 -0.0972209575417154 -0.02582744972099293 -0.1627563636450604 -0.025281815589567946 -0.16336833793976635 -0.2602752316439484 -0.042534601773281104
1138625000.0 -0.25805852094856074 -0.09557226876697388 -0.0291470675495973 -0.1620255584580572 -0.02884951321428792 -0.1627878606913994 -0.2600865205009201 -0.040339866682572285
1139312000.0 -0.2593312405687294 -0.0938699451167326 -0.032425777295082094 -0.1612556075153373 -0.03241830952975199 -0.16209252159034632 -0.2599080405373106 -0.03828864167923281
1140000000.0 -0.2606011615224598 -0.09209224912126734 -0.03572764599860348 -0.16057876943215565 -0.03585888173356326 -0.16129271075174892 -0.2599326118950541 -0.03644077954597133
1140688000.0 -0.2620279006758021 -0.09032909513999658 -0.03901680970525672 -0.15977594715470952 -0.03927876762116189 -0.16038212496146334 -0.25983574653913727 -0.034489049758981295
1141375000.0 -0.26319419881694145 -0.08842161146805741 -0.04218175604983044 -0.15875965334877512 -0.04263656744948031 -0.15930631524211575 -0.2596312900239023 -0.032689713972544956
1142062000.0 -0.2644689998996052 -0.08650739634197425 -0.04545699981875936 -0.1578281093162351 -0.0459251773154894 -0.1582296095921675 -0.2594829450599003 -0.031185874981991112
1142750000.0 -0.2655493778678635 -0.08452286052978933 -0.04855157809999793 -0.15679370663375167 -0.04911361207738268 -0.15706134324232285 -0.25918114242267565 -0.029694989625532724
1143438000.0 -0.2665366739988607 -0.0825894048665543 -0.05175031739712858 -0.15577554553910425 -0.052199885228466504 -0.15588271800175457 -0.2588777552240857 -0.02838849645726265
1144125000.0 -0.26748203036814105 -0.08049580183427817 -0.05480615301093633 -0.15460350492495512 -0.0552811890094967 -0.1546359780795592 -0.25842806325767675 -0.02711259299320823
1144812000.0 -0.26828566468673326 -0.07870071549766938 -0.057896092254079934 -0.15357194938314075 -0.05829545717588123 -0.15341819151250238 -0.25792658730592655 -0.026004179386574806
1145500000.0 -0.2688900601762462 -0.07671406650841464 -0.06099982666310541 -0.1523737200997001 -0.06133381971747443 -0.15215993151787327 -0.2573013196778305 -0.024977346317096527
1146188000.0 -0.2696110511653842 -0.07483226582966802 -0.06404172847932862 -0.1511582067905437 -0.06424973566397993 -0.15090150802404925 -0.25657092230479045 -0.02405551299935938
1146875000.0 -0.2701656984577051 -0.07300587384521776 -0.06713059267534909 -0.1498500808597266 -0.06720284389765348 -0.1495937805381982 -0.2557054778412211 -0.023179237442325477
1147562000.0 -0.27060164275303805 -0.07128972250681286 -0.07014856280775444 -0.1484700590534064 -0.07017135587024231 -0.14825793681810415 -0.25492055974302485 -0.022488907613581036
1148250000.0 -0.27101665968351024 -0.06948319629351454 -0.07324484605709833 -0.1471365177080668 -0.0730817577063163 -0.14693776664559324 -0.25392412985420093 -0.021785543678856007
1148938000.0 -0.27138215654611975 -0.06778028358299641 -0.07619952307265773 -0.14577892831423725 -0.07603622558773866 -0.14562385879037984 -0.25287318310609536 -0.021176536347319457
1149625000.0 -0.27174443474531734 -0.06611914049076927 -0.07912618969776149 -0.1442543570311011 -0.07901530546913937 -0.1442378977628795 -0.25180739027566273 -0.02052027795676288
1150312000.0 -0.2720456438748284 -0.06451166467782765 -0.08200678515272534 -0.14274070393063387 -0.08193612989841849 -0.14280320079894582 -0.250653950034678 -0.019844470976550267
1151000000.0 -0.27236291068309065 -0.06296066429067455 -0.08495833489161168 -0.14112001357322487 -0.084883164167043 -0.14134065321118144 -0.24943129598993163 -0.01925534464093876
1151688000.0 -0.2726904009489775 -0.061376350175246994 -0.08791228162377718 -0.13952769085291536 -0.08780871961490654 -0.13983707236015838 -0.24827296390848336 -0.018534401818143236
1152375000.0 -0.27288912439340546 -0.05980799155378292 -0.09066675764055712 -0.1378842819589646 -0.09076478322054297 -0.1381739979926568 -0.24700680418498722 -0.01787907798612391
1153062000.0 -0.2730907087489436 -0.05820467005362194 -0.09356599560848168 -0.13613127007126352 -0.0937216731793273 -0.13644902757168442 -0.24576347078985697 -0.017110450309494853
1153750000.0 -0.27340510692184783 -0.05665940944047363 -0.09638382358700788 -0.13440926394243982 -0.09659187793198741 -0.13476644322282835 -0.24469338177321182 -0.016437986691623177
1154438000.0 -0.27368901137751517 -0.055030389863490126 -0.09918669259713778 -0.13254487534183948 -0.09947137140783256 -0.13277067685684849 -0.24335952430870803 -0.015481903603367228
1155125000.0 -0.27388577982130485 -0.05344784029474744 -0.1019261988608139 -0.13057328534329368 -0.10234525920671571 -0.1306974659321915 -0.24235436745093367 -0.0146977594854677
1155812000.0 -0.2741132278733445 -0.051950702574275656 -0.10462465611156627 -0.12851951344134907 -0.10515871383578848 -0.12864373165002368 -0.24123082895042855 -0.01376194877212901
1156500000.0 -0.27435304601601646 -0.050195263906029734 -0.1073671673422034 -0.12645922833904566 -0.10790080707489043 -0.12645218539038933 -0.24022054405899743 -0.012735563148444394
1157188000.0 -0.274526364718702 -0.048550540806081524 -0.1100850627342375 -0.12434124755313043 -0.1106187395495302 -0.12417993915777005 -0.23932994442560457 -0.0119101710299609
1157875000.0 -0.2747927884794648 -0.046789966212696314 -0.11276347423768449 -0.12206369441620463 -0.11330698190947018 -0.12187840680174485 -0.2385323432887252 -0.010900693879331014
1158562000.0 -0.2749405550837368 -0.04508646213669094 -0.11540139668724139 -0.11984292140119224 -0.11595713694953962 -0.11942885797382881 -0.23772038393927802 -0.010001705458497611
1159250000.0 -0.27514985768464195 -0.04336322133201521 -0.11805399307559485 -0.11738614181450699 -0.1185349214925565 -0.11699894527119128 -0.23702089699482431 -0.009111363700573036
1159938000.0 -0.2752633005277098 -0.041577276176455576 -0.12057836300656447 -0.11493502500817586 -0.12098633894596224 -0.11441135198132403 -0.2363691834789422 -0.008192586436101231
1160625000.0 -0.27536461006729035 -0.039918852329630515 -0.1230703694854106 -0.11241969569874193 -0.12340167363783756 -0.11178246367818898 -0.23576023517508024 -0.007516357022818259
1161312000.0 -0.2754763152387335 -0.03824346426772662 -0.1254531377011185 -0.1099261953150036 -0.12563579118050489 -0.10914704431925362 -0.23526702933324964 -0.006848401998231025
1162000000.0 -0.27543728354236374 -0.03652027878554956 -0.12788385519666282 -0.10723041293950612 -0.12786626071456805 -0.10649726281280192 -0.23466879227721504 -0.006258605371013506
1162688000.0 -0.2755192962994496 -0.03483680766680923 -0.13019510001484288 -0.1043759231402886 -0.13001865807560528 -0.10371845129964524 -0.2342258438606632 -0.00574485049246959
1163375000.0 -0.2754531855290659 -0.03328346569907619 -0.1323325341610688 -0.10156084722078042 -0.13207964241047987 -0.10101969289751697 -0.233665784173335 -0.005389813144921898
1164062000.0 -0.27544969142653314 -0.03165714216822308 -0.13461501927456423 -0.09876082444249427 -0.1340965158742656 -0.09818234274443456 -0.23306368305501038 -0.005014942001909995
1164750000.0 -0.27538606861214 -0.03014896459621384 -0.13666830239118194 -0.0958750952230126 -0.13605263859863165 -0.09538947684875779 -0.23248122615970213 -0.004690282893907475
1165438000.0 -0.2752961871596824 -0.02868123058966223 -0.13865637610178155 -0.0929032072100099 -0.13800279830618292 -0.09259948217874261 -0.23183482773709047 -0.004453148727772086
1166125000.0 -0.2752341995716944 -0.027148294525386713 -0.14063134636409755 -0.08994016879446642 -0.13986630541519965 -0.08970080048206945 -0.23107660637066163 -0.004253963060160724
1166812000.0 -0.27519339566627105 -0.025871275921601582 -0.1425692008013037 -0.0868190613598405 -0.1417468833444229 -0.08678818939563683 -0.23045324639951473 -0.004038767646063169
1167500000.0 -0.27508757400427786 -0.024461457912803103 -0.14430676163731093 -0.08378206147762159 -0.14342133817436312 -0.08385888553060422 -0.22958941179694184 -0.0040123635441995705
1168188000.0 -0.27493573272054783 -0.02314199032374907 -0.14605235512939524 -0.080674562109716 -0.1451647394225034 -0.0808569066340199 -0.22882892148293266 -0.003854891002551415
1168875000.0 -0.27480832099718133 -0.021886725135672937 -0.14765226494143951 -0.07748462059144433 -0.14689029989258412 -0.07785581216454279 -0.2279195878407801 -0.0038145880801289606
1169562000.0 -0.27492023457385567 -0.02068393486001215 -0.14911513134346388 -0.07430441325582243 -0.14859946608886718 -0.07487588988244209 -0.22706703077416182 -0.0036998298955641883
1170250000.0 -0.274789512059785 -0.019560381958424272 -0.15053174037082623 -0.0711276960339318 -0.15018242869490836 -0.07188181326374948 -0.22610248983296571 -0.003701203229967224
1170938000.0 -0.2746888335492483 -0.018488983123209093 -0.15200836955849817 -0.06791234827545378 -0.15175750422569434 -0.06879944066334165 -0.22520636148586304 -0.0036089670768471773
1171625000.0 -0.274666262719661 -0.01733543662201505 -0.1533307834348052 -0.06465242532145873 -0.1532696410317674 -0.06573749912222382 -0.22431175727947011 -0.0035215212019029875
1172312000.0 -0.2746863902136933 -0.01634198779157059 -0.1545269269530154 -0.06141554600770578 -0.15476081751999857 -0.06256839176354566 -0.22334237313096714 -0.003504762040343764
1173000000.0 -0.2746577387890561 -0.015246370285554452 -0.15563064301693075 -0.058271763173831245 -0.15603315809130813 -0.05934842155261243 -0.22241959316072554 -0.00346014056374489
1173688000.0 -0.27460307639653736 -0.014323258272833312 -0.15670270916840634 -0.05499371440320383 -0.15736650034733515 -0.05609610964201605 -0.2215110491397997 -0.003418225857923021
1174375000.0 -0.27459081111569666 -0.013326844684300157 -0.15773534897933503 -0.05184658559670035 -0.1585843846003787 -0.052805172690899356 -0.22063246765830452 -0.0034081284586870678
1175062000.0 -0.27451016978043546 -0.012286703416252022 -0.15871586331454063 -0.04862678235041518 -0.15978946248533077 -0.049434027154878074 -0.21982766940631152 -0.003289959196505594
1175750000.0 -0.274434121034123 -0.011416867401813812 -0.15952261860677963 -0.04542725689479733 -0.16079402041669213 -0.04605521608687878 -0.21907420272350775 -0.0033831459910009212
1176438000.0 -0.2744421038244051 -0.010468399599373178 -0.1604226213475074 -0.042283508184603316 -0.16174108260822997 -0.042581748807466666 -0.21832306772003332 -0.0033732243376356492
1177125000.0 -0.27431339726540166 -0.009457799662331066 -0.16132518511743177 -0.03911208207056195 -0.16263213826255773 -0.039098302112596996 -0.21761258403067602 -0.0033628395312462647
1177812000.0 -0.2741869119227041 -0.00847504753447047 -0.16215155313928759 -0.03587849807762001 -0.16343891524598178 -0.03556886833946742 -0.2171074150274379 -0.0033573752273851334
1178500000.0 -0.27397720602523173 -0.0076798010444481275 -0.1628248986716626 -0.03256394871180628 -0.16413618152365125 -0.03198981086223879 -0.21651998022582467 -0.003354784981729125
1179188000.0 -0.2738130661318265 -0.006694716101656744 -0.16351029919393736 -0.029457862410582895 -0.16470866119162192 -0.02843409536656201 -0.21607496898097142 -0.0034474771281044255
1179875000.0 -0.2733960901406529 -0.0058999562347948915 -0.16410793334262136 -0.02610062112193215 -0.16516200961269079 -0.024943043668476175 -0.21565243422225522 -0.0034362713692429265
1180562000.0 -0.2731762299357575 -0.004887194100327179 -0.164775462652214 -0.022869859914614776 -0.16555695286395364 -0.021373388822863652 -0.2153923519859107 -0.003609620668752568
1181250000.0 -0.27284173751371116 -0.004043735985951351 -0.16526313080236613 -0.019410088867231074 -0.1657675695228322 -0.017787127823825494 -0.21514437601822306 -0.0036335077469467716
1181938000.0 -0.2724721757002713 -0.0032982000227751913 -0.1657315811255793 -0.016095597629460175 -0.16594911868469023 -0.014311789689999577 -0.2147837187506235 -0.0038327379447764967
1182625000.0 -0.27207661243533254 -0.002697517980665039 -0.1662500374690841 -0.012526387510412018 -0.16605133653909654 -0.010943226895331216 -0.2146175320891258 -0.003975455149790579
1183312000.0 -0.271658464184893 -0.001875231176198968 -0.16648182387724242 -0.00912520837826224 -0.16605680792674526 -0.007489942062143528 -0.21427771370809218 -0.0040859923048490706
1184000000.0 -0.2712738367721528 -0.0011576179987685174 -0.16683510861764056 -0.005475578117702569 -0.16600057918970926 -0.00412423296814489 -0.2140523707204101 -0.004232349083657025
1184688000.0 -0.27086946174109894 -0.00043266309905441437 -0.1670572250034946 -0.0019310048943777464 -0.16590266158587416 -0.0007975185939913935 -0.21380932740034547 -0.004376805755673083
1185375000.0 -0.27055584276557443 0.00014515892166697838 -0.16703471297909145 0.0017244683670216933 -0.16568120535792913 0.0025088924728334868 -0.21345426245243035 -0.0044448197720965005
1186062000.0 -0.27022372595764105 0.0007627427374857313 -0.16700883406251757 0.00530304410751482 -0.1654985359656163 0.005840947033953538 -0.2130770093377846 -0.004618323623145343
1186750000.0 -0.26993404393664344 0.0014228864590195634 -0.16689015246285516 0.008981548408165901 -0.1652225595462665 0.009023609998072309 -0.212802578002594 -0.004660087429725567
1187438000.0 -0.26966405097141927 0.0020036639524605533 -0.1666263771998106 0.012631179505667632 -0.1650312640298098 0.012361762767325445 -0.21229921659083922 -0.004666969717021225
1188125000.0 -0.26947340443148154 0.002733280085801851 -0.16629096100449905 0.016351075093348794 -0.16476387573689702 0.015685752648187834 -0.21186348705130478 -0.004664103278429716
1188812000.0 -0.26925446257927266 0.0033896793013405585 -0.16585011001128633 0.019898248476462186 -0.16448663254939225 0.018984542837494827 -0.21153199698369005 -0.0046192774626737975
1189500000.0 -0.2692245934325966 0.0041002754848930715 -0.16531762148746518 0.023538644084453535 -0.16417255512989615 0.022327447019666845 -0.21109421361667316 -0.004588558779340826
1190188000.0 -0.26921989471314994 0.004925945414369599 -0.16453182714808728 0.027129523346805778 -0.16374628812129327 0.025732330372325134 -0.21053895025410235 -0.004629988694235427
1190875000.0 -0.2691185425937962 0.005646718154103042 -0.1637870740576997 0.030605304929043797 -0.16335394125250333 0.029190282931240652 -0.21024616747655608 -0.00464433533631354
1191562000.0 -0.2690547657434972 0.006528466991659279 -0.16281131195190204 0.034151335354893265 -0.16283098964035217 0.03262948283446898 -0.20988620890115323 -0.00457584074726863
1192250000.0 -0.26898815009457244 0.007477780473134217 -0.16188854276948153 0.037502270890077134 -0.162217374702469 0.036088396293781966 -0.2095928527977109 -0.004731251765739353
1192938000.0 -0.2689178867447328 0.008458002128061661 -0.1607232992815106 0.04091552293331509 -0.1615216834211265 0.039554217715110224 -0.20935500890073794 -0.004784947620776736
1193625000.0 -0.26879191257450863 0.009453461790999004 -0.1596796901228536 0.04420492562427111 -0.16073975846847424 0.04307018896108828 -0.2090640809658765 -0.005033220174737873
1194312000.0 -0.2686272388256218 0.010422858618093252 -0.15844218015381462 0.04743900864187512 -0.1597936871046635 0.04654370471037474 -0.2089324793389229 -0.005216772575356549
1195000000.0 -0.2684220563256633 0.01142103126836971 -0.15711044946489905 0.050571094390179906 -0.15873825862510557 0.04999691814253147 -0.2089154386358978 -0.005465255540847363
1195688000.0 -0.2681827556292185 0.012391252313665516 -0.1558235661429315 0.05367626255217555 -0.1575451234695304 0.05343424028003686 -0.20895090668457478 -0.005740037209625573
1196375000.0 -0.26795436156118857 0.013467712691590273 -0.15451529845815262 0.05667547463601921 -0.1562082361035749 0.05682293371230192 -0.20907151093388188 -0.006002930414617469
1197062000.0 -0.267649142923932 0.014343621485391428 -0.1531285242851377 0.05973742812472467 -0.15478024686556296 0.06017303013157374 -0.20931878660941927 -0.006352978470218698
1197750000.0 -0.26724795206129737 0.015294279582145812 -0.1518004727507579 0.06263561771923656 -0.15320295902169728 0.06343677036311367 -0.2096343081423496 -0.006588693944539831
1198438000.0 -0.2670825649100082 0.016105307464050284 -0.15028516473017975 0.06558202389587134 -0.15153823073198336 0.06655357038722598 -0.20994328416589816 -0.006899527969874968
1199125000.0 -0.26673988587692377 0.01689874830910494 -0.14899815534711522 0.06841367821363652 -0.14979188297320503 0.06963589783203064 -0.21039151571292747 -0.007320923368117712
1199812000.0 -0.26640843635555467 0.017766618642065145 -0.14744240896826558 0.0712541362684991 -0.14793418116227078 0.0726333362256765 -0.21089162427532768 -0.007661013550916066
1200500000.0 -0.2662066230885179 0.018512440046165892 -0.14591483840691533 0.07407996935428537 -0.1460487484690069 0.07551529442345879 -0.21135307125184344 -0.008056236151970098
1201188000.0 -0.2660434335266305 0.019216706160639148 -0.14432169050483512 0.0768370928122009 -0.14417766197130572 0.07833101830166775 -0.21178319168128548 -0.008269231516646365
1201875000.0 -0.2658808830580833 0.019995524476420758 -0.1427626034487616 0.07966486179491408 -0.142216965619932 0.08099368979902441 -0.21241929710751684 -0.008684774027167273
1202562000.0 -0.2659235912342113 0.020708447115359824 -0.14109843209339082 0.08239620567856198 -0.1403898157451244 0.08357333873717807 -0.2129436336267337 -0.008804537958572889
1203250000.0 -0.26584556560949013 0.02156019017245738 -0.1394336775466429 0.08522049795215347 -0.13847006451317756 0.08609160653210164 -0.21343602596698258 -0.009039687860664315
1203938000.0 -0.26592131168843935 0.022379137567389275 -0.13769678490517256 0.08787095446756439 -0.13660579575245638 0.08857403214868706 -0.21377323619404834 -0.009218538234026234
1204625000.0 -0.2660162269850233 0.02325306437471117 -0.1359189525148981 0.0905419529320948 -0.1347907012845767 0.09104185772939194 -0.213995825189033 -0.009334621892999637
1205312000.0 -0.2662149589519136 0.024145093290987383 -0.13402331686387373 0.09335172618449582 -0.13304140422872043 0.09345207698460753 -0.214379536934751 -0.009398065162005177
1206000000.0 -0.2662398246569995 0.025249186282591648 -0.13212330847724535 0.0959576898137125 -0.13114857563647261 0.09586904346407724 -0.2145130800616273 -0.009376200720909887
1206688000.0 -0.2663805541531066 0.026288503080525733 -0.13013930188865835 0.0985932723378704 -0.12944267115785923 0.09827492346019916 -0.21469943355614762 -0.009237161430811266
1207375000.0 -0.26641437274239127 0.02739602766629991 -0.12800010776165177 0.10127736816967366 -0.12758484544989032 0.1007625264473301 -0.21482132832326978 -0.008911327591646812
1208062000.0 -0.2664746504802086 0.028682423947576963 -0.12593694366668046 0.10385599375939347 -0.12574218647603858 0.1032454013429189 -0.21492722324578667 -0.008594220131401334
1208750000.0 -0.2664393983435264 0.02993087829264566 -0.1238203886783124 0.10626024198753638 -0.12376293009971039 0.10569368464251065 -0.21490328365966566 -0.008121228420179793
1209438000.0 -0.2664125471617655 0.03126297817542401 -0.12164145904359198 0.1086995836313322 -0.1217826032238584 0.10824330749913437 -0.21508961392824022 -0.0075448803728338145
1210125000.0 -0.2662480892350341 0.0325929599279515 -0.11944176072768468 0.11110807520860363 -0.11969367208487305 0.11077319874293597 -0.21511462353959862 -0.007061114332526893
1210812000.0 -0.26592008674261913 0.033848717167365885 -0.11722651758173422 0.11351164507143677 -0.11745995257802531 0.11329162470769989 -0.21523705659498846 -0.006456991590722247
1211500000.0 -0.26570801183198245 0.035187381946202995 -0.1148709617249887 0.11583411569136354 -0.11517534375922131 0.11580714398005612 -0.21550049561849155 -0.005773135817501112
1212188000.0 -0.2652386595699782 0.03656392561019715 -0.11250720685933872 0.11814819172707683 -0.11267481369710856 0.11824637724714551 -0.21573050051541487 -0.005208849581142504
1212875000.0 -0.2649536932301154 0.037660723561755205 -0.11004844192175656 0.12046297110026392 -0.1102038592772928 0.12057312212918572 -0.2161303137323878 -0.004645713927785256
1213562000.0 -0.26451413526053463 0.03891413910571189 -0.10748730267256497 0.1225507228421838 -0.10749438458389828 0.122895610655178 -0.2164708765578026 -0.004160602156867963
1214250000.0 -0.2640834154610859 0.04010449196094115 -0.10496593542886197 0.12467864448863518 -0.10487893711665268 0.12505435200209533 -0.21698069009912832 -0.003668694172983668
1214938000.0 -0.2637471078850485 0.04118328280228604 -0.10236512232619804 0.1267552852113471 -0.10206149754537873 0.12710450209095436 -0.21755760535790464 -0.003309262667194507
1215625000.0 -0.2632930244254457 0.04235195861912339 -0.09967150290303936 0.12870400010167596 -0.09926491603480322 0.12901938718569161 -0.2181583301630642 -0.0029696700254009554
1216312000.0 -0.26304956633721194 0.04351593714577937 -0.09693360371939622 0.1306026122919452 -0.0964557959733236 0.13087992059413453 -0.21889701197928096 -0.002746679202074458
1217000000.0 -0.2627077463627161 0.04467883017570704 -0.09413217349221017 0.13253654510446405 -0.09359587859479886 0.13262353754670597 -0.21959812929510192 -0.002495286734657688
1217688000.0 -0.2625220847979451 0.04583518432574544 -0.09127833313448146 0.13426508719507899 -0.09079472486099932 0.134163782527837 -0.2204852678366346 -0.002314389920518338
1218375000.0 -0.26223819144653043 0.04705876125496052 -0.0884302230958135 0.13590870139636946 -0.08798320665039568 0.13562348923496467 -0.22119898771435945 -0.0022840809299737356
1219062000.0 -0.2620523440855746 0.04839715523880533 -0.08552413943388253 0.1374453951217831 -0.0852555000872939 0.13703432554571032 -0.22215923828558926 -0.0022456459931487955
1219750000.0 -0.26198227232802573 0.04970684795097848 -0.08265307669733092 0.13892557717560855 -0.08258660613807171 0.13832604413857089 -0.2230159134722362 -0.00209540317407488
1220438000.0 -0.261733160925183 0.05110169869403848 -0.0797712867466429 0.14028715552313628 -0.07985462495390479 0.13957442539223727 -0.2238440333349166 -0.0021570392391369016
1221125000.0 -0.26153614639043005 0.05263869978372228 -0.07693299343023315 0.1416047746393417 -0.07719319218500122 0.1408138809039728 -0.2247149015029917 -0.0020653044705774026
1221812000.0 -0.2613472913226259 0.05417530706817155 -0.07410237817574057 0.14289790956140577 -0.07463675325663718 0.14203009965973076 -0.2254231500316869 -0.002024532081497347
1222500000.0 -0.26099651983418487 0.05579175219082112 -0.07128351010953149 0.14407713560128493 -0.07206389907530222 0.14334898454366782 -0.2261911304423133 -0.0019585874365254806
1223188000.0 -0.26063248499860103 0.057494400236007714 -0.0685477925666602 0.14519539102091958 -0.06951811678320553 0.14467192664053202 -0.22680327781195825 -0.0018494933740386557
1223875000.0 -0.2602088062617381 0.05913681132425927 -0.06576052585219237 0.1462674289560895 -0.06692171361295665 0.1459690425955228 -0.22727434211518951 -0.0016477292580936434
1224562000.0 -0.259637562778241 0.060866523158260084 -0.06306657340351275 0.14732366629444327 -0.06430141429952903 0.14736976001059982 -0.22777356287298173 -0.0012850887022631365
1225250000.0 -0.2590022188522612 0.06259178241493121 -0.06047310799685927 0.14843098125824436 -0.061692673231801505 0.14871684806455876 -0.2281012691460739 -0.0009483534271534214
1225938000.0 -0.25822366656315715 0.06425319380227922 -0.0577681546712342 0.1495075313290657 -0.058954582949175174 0.15014074727009788 -0.22839245584620982 -0.0004756755653041012
1226625000.0 -0.25747875981260193 0.0658399790816176 -0.05507330331649251 0.1504756811455873 -0.056170491748613646 0.15152501490557585 -0.22849805739617515 0.00012003069677554385
1227312000.0 -0.2566089861156495 0.06732039571710664 -0.05240582379991366 0.15161796123628302 -0.05323409928732482 0.15284941658027873 -0.22864870674498464 0.0009114104159496433
1228000000.0 -0.2558350105092306 0.06884893723841658 -0.049707837574874195 0.1525298476861681 -0.05026573426990633 0.154206459976741 -0.22873431026031812 0.00169878407055491
1228688000.0 -0.2549397513897064 0.07022825994240904 -0.04709885549117082 0.15355108853480887 -0.04721529184292344 0.15538443600953897 -0.22869254877556405 0.0026450807617037922
1229375000.0 -0.25396065804699636 0.07161142771285911 -0.04429122300682602 0.1545919823762018 -0.04406421176808811 0.1565040215578223 -0.22869904621633425 0.0037210181365273077
1230062000.0 -0.2531968390173683 0.07283143890717228 -0.04144662538577972 0.15560677987368593 -0.040826235247460596 0.1574882419992599 -0.22877270367690034 0.004757985429908117
1230750000.0 -0.25241498798780193 0.07405119560382352 -0.03854421384641384 0.15658935619668604 -0.037526600527193095 0.15837740974776746 -0.22891733465942887 0.00605688626184215
1231438000.0 -0.25167003081882794 0.07525072846703967 -0.035655353165225216 0.1577102736327715 -0.03421534286321244 0.15907836124312022 -0.2290962823325394 0.007153795773858772
1232125000.0 -0.25094506416003853 0.07643458088723226 -0.03271262380695182 0.15869723708829156 -0.030921898441748405 0.15965306552740152 -0.22931131751270753 0.00830811181596588
1232812000.0 -0.2501704565106822 0.07752633825354631 -0.02955803957826704 0.1595070607441066 -0.02762779077869345 0.16010737376047668 -0.22974909195190735 0.009535192025521503
1233500000.0 -0.24960392318955088 0.07882563511144167 -0.026429936912151144 0.16028778684009928 -0.024340003747300033 0.1604282107512382 -0.23016769651646724 0.01066490952584417
1234188000.0 -0.24896147897680762 0.07993915236483144 -0.0232357275646258 0.16103844259963543 -0.021145447976865926 0.16066545253303813 -0.23082686138744424 0.011679188927458171
1234875000.0 -0.24843719071616382 0.08126749716989891 -0.01990722904418706 0.16183064753897844 -0.01796696504490963 0.16087819908649362 -0.23151589609691284 0.012810228193205686
1235562000.0 -0.24788086507066925 0.08262360733831622 -0.016602102226606952 0.16232720968770323 -0.014918278940296853 0.1610558048325286 -0.23225539415205532 0.01368538913022029
1236250000.0 -0.24725682563508128 0.08394946667584112 -0.013165577484556462 0.16297218393545623 -0.011873442583884718 0.16119463465585107 -0.23308873394572596 0.01456297569940544
1236938000.0 -0.24679159278580842 0.08530903702299054 -0.009800952309697703 0.1632513931819255 -0.008899358309152392 0.16136340971139004 -0.23394974027388168 0.015416211726272135
1237625000.0 -0.24598289668659254 0.08681379561957277 -0.006308687411280865 0.16354499721037674 -0.005974484104728548 0.16142570314189295 -0.23495084506463057 0.016115767372386902
1238312000.0 -0.24528554911370878 0.08828909649910856 -0.002877605494589611 0.16365668542858575 -0.003068071931676264 0.16152156318250427 -0.2359071900727129 0.016830645808707752
1239000000.0 -0.24460215169995317 0.08980700722261045 0.0004955934364855966 0.1636521660859522 -0.0001523155432510241 0.16172456011597044 -0.23690526465173284 0.017424785446904137
1239688000.0 -0.24376931265039567 0.09126251316711106 0.0039916717397356204 0.16349729893044315 0.0027983416582423003 0.16192719181278345 -0.23786514039899898 0.017911052905953836
1240375000.0 -0.24280252971318644 0.09267437204772713 0.0073303198159202256 0.16338371131502843 0.005750174867647778 0.1620648197198075 -0.23882356795415824 0.018565755021482947
1241062000.0 -0.2419639996930473 0.09408680328263541 0.010548962348282256 0.16309138617334296 0.00877889628766068 0.16227218725484835 -0.2396983642564808 0.019091627075606108
1241750000.0 -0.24103269470631117 0.09538386750312947 0.013894930342712924 0.16275955497496786 0.011910131506006092 0.16246110019277402 -0.24057758695054252 0.019573673767636898
1242438000.0 -0.24002374999506723 0.09669760877905212 0.017121850130361972 0.16244014487351147 0.01512086906148315 0.16255797788033463 -0.2413237642233311 0.020132179928386746
1243125000.0 -0.23907160910590666 0.09791655954127937 0.02035232427402041 0.16205247884008855 0.0183329402760568 0.16269352519642563 -0.2419689392212102 0.020579497972485695
1243812000.0 -0.23811805274356032 0.0990849002550712 0.023373318807490048 0.16158229523734416 0.021690237465795428 0.16272137321692037 -0.24253854400511732 0.021156458740150125
1244500000.0 -0.23726902719257828 0.10015394671620755 0.026536547892699876 0.1610673865140358 0.025077434775365257 0.16256915878721445 -0.2429301121623699 0.021853493663213684
1245188000.0 -0.23634223049074693 0.10115455220660004 0.029701258948199836 0.16056985880504052 0.028546022023514618 0.1623602013160944 -0.2432393542017364 0.022666675660963274
1245875000.0 -0.23551477678866997 0.10220135023872742 0.03265889383726421 0.1600866757979758 0.032080736970373815 0.16204636755231158 -0.24340701390382022 0.023479140429017865
1246562000.0 -0.23473754353219436 0.10312517239122673 0.03574364741300526 0.15954143116086664 0.035622159147985784 0.1615122226334624 -0.24349943030640928 0.024433653017074168
1247250000.0 -0.23408430177996878 0.10409475448833815 0.03881677954977563 0.15903170927620422 0.039131007337538166 0.1609123264662217 -0.24344075137189214 0.025458229733365097
1247938000.0 -0.23350423808334503 0.1050011117064517 0.04187413719182891 0.15831642442450367 0.042633898539501246 0.16019844614901496 -0.2434161697558933 0.026715684388704117
1248625000.0 -0.23287176480652977 0.10603877531706381 0.04498239395649686 0.15771350296440353 0.0461008842723293 0.1592711055340503 -0.2432299754023249 0.0280072820839471
1249312000.0 -0.23235809003048408 0.10696511525310277 0.04802069081996118 0.15708901946365628 0.04948911864181123 0.1583884331676939 -0.24309548389613647 0.029465424223867512
1250000000.0 -0.2318682098569031 0.10797733087089263 0.05118099031228397 0.1563095310377841 0.05278795777925237 0.15721810684850407 -0.2429423947556602 0.030999169119022035
1250688000.0 -0.2314865772132225 0.10902607741925244 0.054179859998731233 0.1555203742685165 0.05603642736233949 0.1560695001143178 -0.24286841132626133 0.0325405517013291
1251375000.0 -0.23099751147219008 0.11004703537865708 0.05744155430485797 0.15466966454856645 0.059189488164755014 0.15477743442127925 -0.24288138619240593 0.03425597836608735
1252062000.0 -0.23054272506757784 0.1112027406522112 0.06052659921227025 0.1537007036050875 0.06230279187641117 0.1534127989485999 -0.24279826903630125 0.03587592932108063
1252750000.0 -0.2301005183456094 0.112254362271842 0.06378199538963128 0.1527033306256198 0.0653264353919654 0.1521170254007199 -0.2428929786894769 0.03756445757729883
1253438000.0 -0.22957660228668186 0.11335874620202858 0.06695382461709742 0.15157342749719582 0.06823756506212196 0.1507425892074316 -0.2430901342317562 0.039217224107279264
1254125000.0 -0.22901983567404408 0.11441412616887858 0.07010238748887801 0.1504325871265605 0.0712102535027726 0.14928729936246501 -0.2434426729158733 0.04088306766493878
1254812000.0 -0.22848757780538637 0.11541440251831402 0.07333855595271879 0.1491186833306177 0.07398852299600384 0.1478532565056713 -0.24380907769733293 0.0424556933411763
1255500000.0 -0.22790889248827537 0.11645998136802517 0.07660519066410103 0.14781425160471082 0.07689107439636717 0.14655162482168863 -0.24437288711688607 0.04398768623220231
1256188000.0 -0.22733076524220303 0.11741597912429844 0.07971862982387304 0.146398023307071 0.07971698178236968 0.14499486959748298 -0.24495393247361574 0.045405744041549845
1256875000.0 -0.22676843119696774 0.11834951549777344 0.08283514802337286 0.14480767438301567 0.08260971717889179 0.14356874552161566 -0.24551108991798767 0.04677379102733808
1257562000.0 -0.22610405333074937 0.1191287064792991 0.08594724391326157 0.1431331080817772 0.08543719410588424 0.14210589898271886 -0.24618521072448254 0.048145149345114165
1258250000.0 -0.22543875384696213 0.1199748145350769 0.0890808582331242 0.14133722134910073 0.0883283803252505 0.14053302901299505 -0.2467594248675383 0.04937736900775053
1258938000.0 -0.22479446498017183 0.12072013700598308 0.0921067858042382 0.1395496694838517 0.09122568654373912 0.13895679585137152 -0.24749217967661288 0.05060403049842443
1259625000.0 -0.22418835084427569 0.12136092429809345 0.09506689126795316 0.13766354409157042 0.09420722932296108 0.13736327805476214 -0.24815323335337583 0.05175190001642266
1260312000.0 -0.22349403517428085 0.12210893046143483 0.09802104232150322 0.13556625494212785 0.09716376101445522 0.1355924645090173 -0.24874539654630445 0.052801726126746315
1261000000.0 -0.2229178608937157 0.1227926542104783 0.10087592209747577 0.13358894611251831 0.10014653666812844 0.13380773673229335 -0.24925111193212146 0.053708042805353115
1261688000.0 -0.2224651180067928 0.12335569644821562 0.10372446808986831 0.1314552292205662 0.10304992558114005 0.1319561613990986 -0.2497680401645909 0.05467221280006227
1262375000.0 -0.22186326484835692 0.1240890684611548 0.10654100001577528 0.1293328789978358 0.10602138626799094 0.12991707713920445 -0.2501906621834581 0.05553818764660883
1263062000.0 -0.22135329297431292 0.12466544430282875 0.10918377133527908 0.12712655557160943 0.1089032195358832 0.12783825243136668 -0.25042930296307475 0.05648398911516943
1263750000.0 -0.22074480757502657 0.12528087882016342 0.11197901131390955 0.12489528159053079 0.11181351082673399 0.12560325899935157 -0.2507376240032485 0.057319401956671706
1264438000.0 -0.22027391913150485 0.12607061364961383 0.11458193118046399 0.12258107408159384 0.11461555690751478 0.12323812734384866 -0.25071918798883036 0.05821078630203667
1265125000.0 -0.21977589791344757 0.12679139228161254 0.11722897721093269 0.12029923726826165 0.11741292139675279 0.12087178006975491 -0.2507047328518253 0.0590662959599689
1265812000.0 -0.21918505105675154 0.12765365753137914 0.11976080343824051 0.11791658524387912 0.12014990025207326 0.11843859658847951 -0.2504845989157061 0.06000387535067245
1266500000.0 -0.21875264378356224 0.12845013877549405 0.12231147120515298 0.1155233800772512 0.12273660982695685 0.1158951235793108 -0.2501617207161305 0.06099013972143546
1267188000.0 -0.218179976363728 0.1293103206397144 0.12463851046648106 0.11297306071429185 0.12517865580457588 0.11329757845541664 -0.2497569060934421 0.062035432650441966
1267875000.0 -0.21755365900261422 0.13008306042685341 0.12705331371760298 0.11044025362537079 0.12757595104832856 0.11061223261973702 -0.24943264957383965 0.06317067605748503
1268562000.0 -0.2169471402354005 0.13106062657337536 0.12940851899444203 0.10796129723302081 0.12998945206064258 0.1079196695007333 -0.24881874700240914 0.06450759748767856
1269250000.0 -0.216197209032889 0.13195235665253233 0.1317340357617959 0.10518468442840105 0.13222144538091474 0.1051929758036162 -0.24823674804039383 0.06590190779001308
1269938000.0 -0.215477278819143 0.13279275552847158 0.13394846741673788 0.10254587192741098 0.13438637948075766 0.10242764526489216 -0.2477451910029172 0.06725749429640174
1270625000.0 -0.21477356514590343 0.1337754564040746 0.13613832040597867 0.09974504755743244 0.13647524195430005 0.09961017918216293 -0.2471755228742799 0.06885317925386936
1271312000.0 -0.21409667373129548 0.13467679844674993 0.13824487627952997 0.0969523281453679 0.13855533217112626 0.09680077077954331 -0.24677372610740428 0.0704032630133393
1272000000.0 -0.2133138018715933 0.1355811475148081 0.14026631553911856 0.09415695418113533 0.1405055128110584 0.09392481510008284 -0.24644039099877724 0.0719865445973056
1272688000.0 -0.21266124926557323 0.13662121247623896 0.14223231208060966 0.09123218104837837 0.1424536029559447 0.09104459242003597 -0.24611255051863637 0.07369518532127835
1273375000.0 -0.2118403089290695 0.13749536064482143 0.14422224017366697 0.08824148580930015 0.1443246920538564 0.08814328995297248 -0.24587079286855626 0.0755195367141224
1274062000.0 -0.21106123220903109 0.1384264147743129 0.14599505605055343 0.08524640275858056 0.146109471579478 0.08516377312032503 -0.245679539592197 0.07714758521060762
1274750000.0 -0.21033958295728036 0.13936318010140633 0.1478942122510938 0.08225447647420026 0.14784730596250603 0.08212930198050122 -0.24563848237835093 0.07880030663493752
1275438000.0 -0.2095319554778972 0.1403765120411692 0.14962823443174975 0.07912918005856615 0.14958262340855139 0.07914432409600959 -0.2455376084244708 0.08045744532692191
1276125000.0 -0.20872162532824096 0.14127011882908933 0.15126786109829615 0.0760561696479896 0.151189884856419 0.07598069305402101 -0.24553948197714281 0.08200893051053283
1276812000.0 -0.2079993889065188 0.1422094176164809 0.15285046888362736 0.07290041349980567 0.1527347281075879 0.07285486479562826 -0.24561907898168778 0.08357488726106257
1277500000.0 -0.207260460007637 0.14307075606461664 0.1543259628602417 0.06961556056098776 0.1542228854697798 0.0697381332753368 -0.24567610344767932 0.08498912694453693
1278188000.0 -0.20641495167694027 0.14402631726701176 0.15578369189896213 0.06644272986283019 0.15572176027722276 0.06649912050730626 -0.24574037442719376 0.08641348159157632
1278875000.0 -0.20564941976246878 0.1450020514442356 0.15711246083874508 0.06317827438481785 0.15705198859325656 0.0632525333051511 -0.24576920822883364 0.08783702054184572
1279562000.0 -0.20494121423429457 0.14593129628337995 0.15838337862253044 0.05986658122972781 0.1584189432885077 0.05996261868745095 -0.245824665839378 0.08905522273366619
1280250000.0 -0.20412032868006388 0.14683513107625334 0.15955561418521028 0.05649872165097737 0.15964047885201685 0.056642951863160616 -0.24580508184500136 0.09022425217668974
1280938000.0 -0.20336701566578017 0.14775993951792438 0.1607395469325154 0.05305202454704648 0.16088261449344277 0.05329737022116302 -0.24582737648192068 0.0914801143727945
1281625000.0 -0.20258707312264126 0.14864907666317756 0.1618716530512443 0.049815833432552255 0.16209823740796903 0.049903479621700234 -0.24575130950970228 0.09253773160832272
1282312000.0 -0.2017808746251378 0.14956064998485985 0.1628174931952513 0.046364185607029 0.16312596422380143 0.04652888829727593 -0.2455808735580531 0.09364055681675265
1283000000.0 -0.20099879996428552 0.1504497129999756 0.16377474716008752 0.042780286942545154 0.16419990165601833 0.04306689164217077 -0.24543142344863356 0.09468815957537823
1283688000.0 -0.2002749281189043 0.15131753132009934 0.16468392917852184 0.03942354067861996 0.1652189143488834 0.03958525978331028 -0.2451632761901422 0.09563091545823386
1284375000.0 -0.19950819000083414 0.15216084627335788 0.1655659077223584 0.03592397791727885 0.1661011917728879 0.036114226485452046 -0.24489169005641911 0.09660847211143793
1285062000.0 -0.1985249365628931 0.1529111176568534 0.1662967578847695 0.03246128618214418 0.16686610978816896 0.03255148695869421 -0.2444879529779183 0.0975928486676123
1285750000.0 -0.19769146848232755 0.15367904284859 0.16691081433693597 0.02888053750991038 0.16755049169046668 0.028919395226879654 -0.24398201885114676 0.09860070546408813
1286438000.0 -0.19687929603044257 0.1544743404610243 0.16757228953268882 0.025431467959047212 0.16824338078906909 0.025283653228785015 -0.24344162689951554 0.09972746167739653
1287125000.0 -0.19591375274634143 0.15527440588072777 0.16815077568936776 0.02193294335512941 0.16871161025704395 0.021611617983456035 -0.24284239780903302 0.10080056738492453
1287812000.0 -0.19482155638221374 0.15602811559113827 0.1686361608928004 0.018385171855272286 0.1691647037637488 0.017965925435323684 -0.24217823543228395 0.10206847729299066
1288500000.0 -0.1937753054907239 0.15685883473489173 0.16909255818379904 0.014837943286108882 0.1694992728199755 0.014212934464284926 -0.2415270486619919 0.10328449278921004
1289188000.0 -0.1927542481202758 0.15741464976243205 0.16940106085348808 0.01131745271856813 0.1697480031979841 0.010553368108293007 -0.2408037957759047 0.10461872367789261
1289875000.0 -0.19149760601475807 0.15824929968765214 0.16963205756422095 0.007720439584449156 0.16985111596349098 0.006865029714352272 -0.2400131094392418 0.10610307318212292
1290562000.0 -0.19016739349559214 0.15889221464184147 0.16987977501310478 0.004154235711718372 0.16986668934289728 0.0031201990002236706 -0.23937373565625392 0.10760735428396774
1291250000.0 -0.1888947274025538 0.15956413895585578 0.16991763407253793 0.0005268167534963363 0.16973083271195233 -0.0005253816922867856 -0.2386563080807148 0.10925197515346609
1291938000.0 -0.18747793783343647 0.160138468164864 0.1698981378347852 -0.0031177585885435394 0.1694882082606229 -0.004079138125371683 -0.23793106763099414 0.11090054613258302
1292625000.0 -0.18603585310589105 0.16061832755539596 0.1698422745328936 -0.006715088720946821 0.16918075373216623 -0.007599235288251915 -0.23721748220153008 0.11262378755811432
1293312000.0 -0.18456323052623802 0.1611381637561155 0.16964538064154236 -0.010450421863237256 0.16880010858804215 -0.011084080738783099 -0.23660480379961477 0.1143157830856095
1294000000.0 -0.1829458546368209 0.16158705411012006 0.1692983673354945 -0.014056999648606985 0.16846143245398357 -0.014520490952447108 -0.2359578616355039 0.11608193648681085
1294688000.0 -0.18137826969328028 0.1618991094712104 0.16893933917636447 -0.017816281346470026 0.16801010273367753 -0.01792102039688013 -0.23525357451522697 0.11785101349656435
1295375000.0 -0.1797255757891099 0.16225527585921712 0.16855820402628224 -0.021364356141177623 0.16747872329507205 -0.02123175516953596 -0.2346107911495539 0.11953133533486521
1296062000.0 -0.17821276905894531 0.16262313906641204 0.16789292885284682 -0.024990332716590825 0.16684731990802815 -0.024457245278071593 -0.2339422806774663 0.12125361040490734
1296750000.0 -0.17658539369225534 0.1629049598616945 0.1671750257877826 -0.028551851288701375 0.16629137347328163 -0.027724229523951784 -0.23318638690781324 0.12293163549397682
1297438000.0 -0.17497935433277473 0.16315925259321484 0.16622669427771902 -0.03218153769781778 0.16564551844051195 -0.031014624947241103 -0.23236687474923315 0.12447636249879296
1298125000.0 -0.1733835563556114 0.16332383388560393 0.1653294033100552 -0.03569246167896529 0.1649762219558174 -0.03426121312687437 -0.23162970348500103 0.12598070011062518
1298812000.0 -0.17166466625632035 0.1636191708465432 0.16430530695244686 -0.039175845675043904 0.164244905015991 -0.03759499381385641 -0.23080339272924782 0.127521032544892
1299500000.0 -0.17008449680149923 0.1638222829956466 0.16320893072605389 -0.042516225624419306 0.1634920120064954 -0.04091389766928513 -0.22990943659283805 0.12899623455116865
1300188000.0 -0.16852941377575917 0.1642208648821448 0.16208506112207352 -0.04575401092420845 0.1627214195194561 -0.04426689111996912 -0.2290611737113466 0.13023199468916852
1300875000.0 -0.16688561931632326 0.16438979380879362 0.16077409895021544 -0.04906431592730389 0.16190845724437758 -0.047673334641499754 -0.2280726535631394 0.13154787005068455
1301562000.0 -0.16536859008631172 0.16475886556005773 0.15949112811597488 -0.05229955497172318 0.16097367998294088 -0.05119921821144179 -0.22721999569387266 0.13280351079986422
1302250000.0 -0.16377907659359167 0.1650665683331616 0.15829952695605723 -0.05536575414129958 0.15989297390912813 -0.0546845989304996 -0.2261995080207767 0.13396333049349093
1302938000.0 -0.1620556938419887 0.1654755419900268 0.15679984951710838 -0.0583952634167069 0.1587152338664069 -0.05821306485225904 -0.22515247591881293 0.13520857184111393
1303625000.0 -0.16032984630007846 0.16581116577750396 0.15534146868980764 -0.06143663878977786 0.15740034741134196 -0.061702413363468225 -0.22414192726280036 0.13627570978978312
1304312000.0 -0.15855907026317947 0.16606317633299403 0.15395091650885656 -0.06445264921215053 0.15599961776971277 -0.06519513863203182 -0.22308880693191005 0.1374380012789789
1305000000.0 -0.15678420453885067 0.16646628149895096 0.15241406402508445 -0.06742614459066419 0.15442469825696956 -0.06865046735234592 -0.2220412414183476 0.13854660098961458
1305688000.0 -0.1550246174665017 0.16674233482853704 0.15103107294010523 -0.07035156940659543 0.15270593768337767 -0.07194882170046664 -0.2209735198995669 0.13973283214149146
1306375000.0 -0.15310279811206956 0.1670289519005308 0.1495044278699163 -0.07324482733345322 0.15084416122551295 -0.07526332504780818 -0.2199435169425782 0.1408784636943562
1307062000.0 -0.1512103574512822 0.1672417924078172 0.14807531487334016 -0.07619434378362941 0.14884230735380807 -0.07835067351303923 -0.21878271061969734 0.14207007292629947
1307750000.0 -0.14935894088818913 0.16734985568417812 0.14652581757284264 -0.07910782391739782 0.14677436819016149 -0.08147930660217498 -0.21762901198717927 0.14342495374555506
1308438000.0 -0.14752464710714827 0.16747385322758473 0.14489158541016883 -0.08205927715001612 0.1446757373601145 -0.08437770003145122 -0.21667782749101497 0.1447220213876786
1309125000.0 -0.1456764340583967 0.1674386985102487 0.14325464454225856 -0.08500714075542944 0.14240337607328088 -0.08709740388493714 -0.21553560186566098 0.14614325898437144
1309812000.0 -0.14390688770721408 0.1674615133022135 0.14148307789109257 -0.08793020770234339 0.14021865200473502 -0.0897864099610376 -0.21442804560416376 0.14762362271852147
1310500000.0 -0.1422067660272971 0.1672760899556938 0.139733783689241 -0.09089215450994398 0.13795529222534247 -0.0923871432804424 -0.21325323547736302 0.14902208145936893
1311188000.0 -0.14061956115927576 0.16713617073730697 0.13783688229201696 -0.09382129706099318 0.1357593847561543 -0.09481186575945569 -0.21213887671570916 0.15079887882395598
1311875000.0 -0.13902010218110247 0.16685397949566372 0.13586430833033336 -0.09675435356012539 0.1335711378316271 -0.09717611658815978 -0.21114047858086196 0.15230255911849044
1312562000.0 -0.13752456909908983 0.16657583749184443 0.13373208661756325 -0.09950585226589562 0.1314293857437297 -0.09943401728824294 -0.20993765684140867 0.15382998836434508
1313250000.0 -0.13603190195064455 0.16622531140454672 0.13161112313596093 -0.10235688830520961 0.12937181281432866 -0.10175259798053657 -0.20891939293724768 0.15549057277924408
1313938000.0 -0.13475929751459184 0.16590420382407228 0.12926187725005245 -0.10513635999580148 0.12737176189617297 -0.10405153991880894 -0.2078040886070377 0.15699972742956353
1314625000.0 -0.13348813357254832 0.16563856789443276 0.12697521477269594 -0.1078170823235684 0.1254153001067832 -0.10632235870230879 -0.2066276312581966 0.15856361563148708
1315312000.0 -0.1323081966892947 0.16534503953555404 0.12444814912106722 -0.11029879456225135 0.12340376830192282 -0.10862457746717791 -0.20547988582256702 0.1600081386074328
1316000000.0 -0.13102583608301072 0.16517454968869524 0.1218738757347582 -0.11286632851252414 0.12141289345384612 -0.11090916738602566 -0.20424254974905295 0.16131086978389778
1316688000.0 -0.1298938959621685 0.16499756211145974 0.11929087782063685 -0.11521811361937337 0.1193687685654107 -0.11330736819691942 -0.20289212926773767 0.1626676346164082
1317375000.0 -0.12875011357929633 0.16476440316725438 0.11660873806757567 -0.11750519474995655 0.11724186617804747 -0.11569604920615338 -0.2016449072673262 0.16389977403537048
1318062000.0 -0.12752365424304304 0.1646273316371269 0.11377835449839052 -0.11970135578437 0.11499156869001131 -0.11809910364675409 -0.20021727871081257 0.16508754476397708
1318750000.0 -0.12623025577084093 0.16446290197009336 0.11107961658772508 -0.12179186582740577 0.11267450881766986 -0.12054683578774272 -0.19872000151572486 0.16632005356406632
1319438000.0 -0.1250444220705942 0.16432075024960796 0.10837174672067046 -0.12372158354761541 0.11021574952939664 -0.12293161997189989 -0.19711018759345095 0.16722906952044617
1320125000.0 -0.12369138167493958 0.16419079633094125 0.1055219979342058 -0.1257740558484733 0.10760345280294964 -0.12535156930791436 -0.1956507167239922 0.16840702840678587
1320812000.0 -0.12224936253731174 0.1639771497301349 0.10276572862688492 -0.12749877381802627 0.1048247632161279 -0.12766446663354455 -0.19405675199623423 0.16926110633896338
1321500000.0 -0.12094607916715586 0.1638104317480938 0.09998860666505385 -0.12925908948377024 0.10196245032976621 -0.1299052301579392 -0.19237545188693464 0.17017982775589127
1322188000.0 -0.11953666502821374 0.16352218837304797 0.09727798637629782 -0.13096449455106202 0.09894805641708639 -0.1320813311693309 -0.19080068911165388 0.17114209344833956
1322875000.0 -0.11814575349238433 0.16309838135955732 0.09453865996556361 -0.13265830870046066 0.09591947379360154 -0.13404917613629772 -0.18910886567065743 0.1720569031312155
1323562000.0 -0.11672042909451208 0.16277090024759253 0.09182195633758501 -0.1341875001444922 0.09265473171446133 -0.13590211964239599 -0.1875727815144405 0.1729389921420387
1324250000.0 -0.11537977830086688 0.16224020039258077 0.08911406621293529 -0.13568634920287595 0.08949415402210832 -0.13754118348772287 -0.18595121812453488 0.17384863880642126
1324938000.0 -0.11399493166189677 0.16173801754595993 0.08630879319546247 -0.13716607144331674 0.0862594741056276 -0.13911120396706045 -0.18438065446194674 0.17489859578959985
1325625000.0 -0.1128221899169497 0.1611528841462933 0.08354905897883126 -0.13864075979224602 0.08310277874444061 -0.14042246124487273 -0.1829014087674973 0.17576497516655287
1326312000.0 -0.11167321244871951 0.16055664834505678 0.08078628460277303 -0.14007809197040744 0.07990355079474123 -0.14173893081336425 -0.18139619438154056 0.1768193246243054
1327000000.0 -0.11052475739084706 0.1600436784600929 0.07801973436035083 -0.14145653035898267 0.07684452547330148 -0.14275731062884037 -0.17993714139000658 0.17787015776332374
1327688000.0 -0.10944352089337622 0.15937501934718906 0.07516474188224152 -0.14285055371690503 0.07384666395818709 -0.1438137991637061 -0.17846517837610007 0.1789320539040323
1328375000.0 -0.10853643950637583 0.15892450106169395 0.0723692009364193 -0.14417900537676587 0.07089793666667679 -0.14471169156138278 -0.1770961201124127 0.1801236419986209
1329062000.0 -0.10770417223904605 0.15837706163428378 0.06946194741417175 -0.14549453336991328 0.06811046284916296 -0.14555447712783018 -0.1756823682795266 0.18131987222662535
1329750000.0 -0.10685202286389746 0.157920082149021 0.0665047890595933 -0.14669228169427198 0.06524949944349899 -0.14646744635195774 -0.17436214647055065 0.18258157026377617
1330438000.0 -0.10600241366353048 0.15765590813030878 0.06354412828230525 -0.14787921590119502 0.06254040952505106 -0.14733434158908923 -0.173058854024864 0.1837663990555349
1331125000.0 -0.10528756332515458 0.15733394752496208 0.060572872961296396 -0.14893118818138712 0.059788223925840295 -0.14823486526573712 -0.1716182622364504 0.18499467381678059
1331812000.0 -0.10453840084688719 0.1571318863402876 0.05753001613982247 -0.1500038664273457 0.05712930999997586 -0.14909957339570992 -0.17031538798284887 0.18622779010479196
1332500000.0 -0.10372029111729386 0.15701646594724794 0.0544363975156756 -0.1510216158050526 0.054350424761716046 -0.1500265065137991 -0.16903158943181582 0.18735607001841717
1333188000.0 -0.102942955741458 0.15701518816255877 0.051394500930100874 -0.15196458533343066 0.051634134704711974 -0.1510310638756925 -0.1676884711215027 0.18842243916090695
1333875000.0 -0.10217365887247594 0.1569182121555849 0.048338582569987985 -0.15285703065937647 0.04879278665111663 -0.15199296849292443 -0.16625936712319475 0.18941619736656293
1334562000.0 -0.10126547400351744 0.15694587644341154 0.0451905508952239 -0.15361804121605663 0.04586924850116893 -0.15307661436794398 -0.16489023324985577 0.1903464346875739
1335250000.0 -0.10042960465087152 0.15694808375049668 0.04213134799977819 -0.1542884806406926 0.04290240135396446 -0.15400611520365173 -0.16338743317702317 0.19109110073779134
1335938000.0 -0.0994278529144804 0.1569758016589656 0.039001042671320645 -0.15493725436913466 0.039827948739243245 -0.15492899522439155 -0.1618155102817318 0.1917625693131425
1336625000.0 -0.09846626969302581 0.15692290160284714 0.035954506620051445 -0.15552262985086746 0.03669692724866595 -0.1557657110239928 -0.16020546657905158 0.19235749208385183
1337312000.0 -0.09743124936597419 0.15685358441256433 0.032852350514197874 -0.15589855955704884 0.033407835018022455 -0.15654964164617974 -0.15850944367876993 0.1927797802855974
1338000000.0 -0.09653215130876293 0.1566846004187889 0.029707274023568295 -0.1564102442272739 0.030106575861235843 -0.15713038875912388 -0.15680142197321698 0.19315066235241707
1338688000.0 -0.095586964076431 0.15651200450990768 0.026557832536319294 -0.15672184580360304 0.026811425717404934 -0.1575748661363126 -0.1549379922510927 0.19350098680801556
1339375000.0 -0.09465492168364621 0.1562919979651312 0.02346714810075743 -0.15703565926778024 0.023496181746104045 -0.15798325726378146 -0.152891020734258 0.19365996142175013
1340062000.0 -0.09389729929987975 0.15598766264491193 0.02051056267423089 -0.15721140439722378 0.020174527514316243 -0.1581540030294314 -0.15095470740265632 0.19388712789546997
1340750000.0 -0.0930470546457495 0.1556622420461143 0.017385319632138064 -0.15740537189619655 0.016888726862885554 -0.15834897224870378 -0.14892905076638882 0.19403937709375504
1341438000.0 -0.09241807903320626 0.15533962513341665 0.014403074494656255 -0.15758461352532518 0.013660909010884466 -0.15826774416835385 -0.1468486190280483 0.1942161015652063
1342125000.0 -0.09176934186913158 0.15495686963559221 0.011291527596724825 -0.15763142525947188 0.01047688489783639 -0.15813472017102184 -0.14483097363502642 0.19442446673453087
1342812000.0 -0.09122497946696555 0.15460865742654034 0.008346987715121934 -0.15767614109452202 0.00740932545349679 -0.15794442888764773 -0.14272193465983207 0.1945320540816455
1343500000.0 -0.09074382136108268 0.15430084252996726 0.0051534517745304405 -0.15778372011921873 0.004409031898625346 -0.1576355684337895 -0.1406577590629491 0.19483729689613677
1344188000.0 -0.09029749324773975 0.15407332848870123 0.002208094736474306 -0.15756917324197323 0.0014288813340311176 -0.15726759370772703 -0.1387172413282464 0.19516514445753444
1344875000.0 -0.08992699360523913 0.1538594636407256 -0.0008228062926342659 -0.15750081892158568 -0.0014056694314628212 -0.1569997022824634 -0.13674602765667604 0.1955244504756899
1345562000.0 -0.08952748574506388 0.1537158515704921 -0.003819006191217777 -0.15732791891713446 -0.004212418250595172 -0.15660118215510352 -0.13484420054385673 0.19594454544798537
1346250000.0 -0.08912308533884487 0.15361185283246778 -0.006823197979696674 -0.15700352176608168 -0.006977481772769324 -0.15630233064700355 -0.1330842169705985 0.1964013067259222
1346938000.0 -0.08873779160208217 0.1535186498413659 -0.009888629314710745 -0.15677979409306636 -0.009740421435428536 -0.15591527296975968 -0.13127787231572902 0.19685405841964687
1347625000.0 -0.08833829891388917 0.15356937505924745 -0.012880021679588249 -0.1563650739113609 -0.01248997637446962 -0.15564938058327898 -0.1295848769962087 0.19754681047502418
1348312000.0 -0.08782435017575359 0.15347123847168734 -0.015772712645193667 -0.15597334038426033 -0.015182783028105233 -0.15535579764036395 -0.12799238415377115 0.19820447038957645
1349000000.0 -0.08733781006170883 0.15350420360411673 -0.018719883905965844 -0.1554608048932889 -0.017902407024510358 -0.15506250618529976 -0.12643619616642054 0.19874808893033233
1349688000.0 -0.08684050457908356 0.15352686586312517 -0.02162583050240293 -0.15482245552451648 -0.020750545578630385 -0.1547627090611681 -0.12504820871121106 0.19938646577291008
1350375000.0 -0.08621666027760487 0.15351910308593092 -0.02448920478263607 -0.1542142597835018 -0.023526871909725147 -0.15438352448325587 -0.1236757453079482 0.20009242459430465
1351062000.0 -0.08552641830520329 0.1534499202081991 -0.027275475354759052 -0.15351091075440057 -0.026396486240411396 -0.1539777186286352 -0.12238565236290438 0.20068487312672065
1351750000.0 -0.0848272399386002 0.15333990381154772 -0.03016750658989324 -0.15271845392666797 -0.029342156682689236 -0.1535111775974976 -0.12104578377014602 0.20113882992755736
1352438000.0 -0.08407800202079434 0.15322353256935514 -0.0329721349098093 -0.15203223997743764 -0.03234816193827692 -0.15303520099814094 -0.11979837678113321 0.20167761823700434
1353125000.0 -0.08337304594026038 0.15309528655790342 -0.035681397558998094 -0.15128978764340006 -0.03538354263992828 -0.15239588907737073 -0.11855457939056574 0.20197256460207072
1353812000.0 -0.08265030655063123 0.1527302673973326 -0.03850213642419442 -0.150497827448424 -0.03837410477887891 -0.15176216158926778 -0.11732016241662004 0.20226597447566053
1354500000.0 -0.08205659045149906 0.15248018318106948 -0.04123410681925329 -0.14958667654461288 -0.041395987700626774 -0.15094438983064393 -0.11595132978194113 0.20237525040008375
1355188000.0 -0.0814108699775156 0.15215343734867645 -0.04383608638851679 -0.14879893036843753 -0.04440564081344967 -0.1500258319685957 -0.11457634986110429 0.20242029393302965
1355875000.0 -0.08081655089801966 0.15171379055536627 -0.04653285178094505 -0.14787739601546093 -0.047392011683488874 -0.1490104764749697 -0.11325290823542732 0.2023279428114548
1356562000.0 -0.08031434539701005 0.151362057736797 -0.049221427566946085 -0.1469579743438022 -0.05029551030373624 -0.14783281593880063 -0.11170113814198825 0.20207174824627572
1357250000.0 -0.07981446760222681 0.1509283043133785 -0.05189893645821402 -0.14596920204785158 -0.05316331011237384 -0.1466282303551068 -0.11008910886607615 0.20172610615435016
1357938000.0 -0.07939279850649117 0.15056073364229902 -0.05457751960938376 -0.14498075463676674 -0.05600500962753595 -0.14536778284110627 -0.10840821149574692 0.20139392506542175
1358625000.0 -0.07896929838375917 0.15012677537079494 -0.05731974664622187 -0.14397325514328582 -0.05869380727865272 -0.14407469398481243 -0.10663124214062236 0.20081947772216335
1359312000.0 -0.07869431864973297 0.14976741808511276 -0.05995850692763984 -0.14294813929332073 -0.06133973090487499 -0.1427261485799063 -0.10481113776954153 0.2001694952111655
1360000000.0 -0.07836429876605783 0.1494510904178162 -0.06264343583232962 -0.1417389690037763 -0.06387739087804573 -0.14137911061262315 -0.10269890831230384 0.1994671718428703
1360688000.0 -0.07806011099449077 0.14922054421542583 -0.065377023214637 -0.14066785907645238 -0.0663850890289758 -0.13998789842859843 -0.10072853820351453 0.19881881491458128
1361375000.0 -0.07779805440098655 0.14892559587186108 -0.06798439369895504 -0.1394151174690972 -0.0688287008091483 -0.13857144027243853 -0.0985761827594701 0.19821095619425663
1362062000.0 -0.07752462041163798 0.14863239524011415 -0.07067181053351881 -0.1382087457208602 -0.07123871910464613 -0.13717996420080797 -0.09644652828437732 0.19757416252047416
1362750000.0 -0.07719227589574718 0.14841407956070146 -0.07330242631084131 -0.1368059554282134 -0.07359683056288022 -0.1358138927952973 -0.09421127963632697 0.1969985882884094
1363438000.0 -0.07688278620572435 0.14821348813003143 -0.07593395829610801 -0.1354637634785775 -0.07593066600891733 -0.1344548885706508 -0.09204221923695156 0.196527019543809
1364125000.0 -0.07665580480614037 0.1479703710247634 -0.07853938938587074 -0.13400852013376044 -0.07832562218797981 -0.13312502833977527 -0.08978343675884573 0.1959920179400585
1364812000.0 -0.07621835668855441 0.14774488890506346 -0.08104625757833753 -0.13256498028789945 -0.0806898218015275 -0.13171592421848446 -0.08764577593829807 0.19568314961865146
1365500000.0 -0.07586502140834418 0.14749856321142837 -0.08367541367371555 -0.13099301237617705 -0.08303851949301845 -0.13038681536920416 -0.0853869946349238 0.1954139337729943
1366188000.0 -0.0755559813356697 0.14709461268451843 -0.08611952711781219 -0.1293743584143039 -0.08542985806952011 -0.12898729607007048 -0.08326007887974181 0.19526539204859425
1366875000.0 -0.07515548550052158 0.14670023165926102 -0.08868422912766985 -0.12772929246845777 -0.08784325389740263 -0.12759594858407244 -0.08120122993424378 0.1951127279653452
1367562000.0 -0.07476708620212943 0.14629558031111772 -0.09103658886381259 -0.12600413425758775 -0.09026258747514539 -0.12605306208796657 -0.07916736420417578 0.19504365433357426
1368250000.0 -0.0743352381903043 0.1458599916392686 -0.09339348253916227 -0.124195688227714 -0.09265193883639879 -0.1244967985284061 -0.07727763047774724 0.1950955767275846
1368938000.0 -0.07398247838832193 0.1453052951886868 -0.095675093510927 -0.12233059539386942 -0.09509444796869454 -0.12286535856306602 -0.07544779243591404 0.1951523107291918
1369625000.0 -0.07375828205215833 0.14472883332201514 -0.09797978380856354 -0.12049872736113425 -0.09747603890365557 -0.12117835097675522 -0.07379314278550722 0.1951795662253877
1370312000.0 -0.07347913525479552 0.1439841152887088 -0.10012546375588047 -0.11856703557234896 -0.09984537731359115 -0.1193859445185235 -0.07222817134358511 0.19525098206322855
1371000000.0 -0.07328837206785983 0.14333337653303443 -0.10229950125649316 -0.1167279779903986 -0.10222581771421889 -0.11752325608572328 -0.07064549057603647 0.1951968928926538
1371688000.0 -0.07305703175026033 0.14269204061606783 -0.10444978177893066 -0.11471452901693403 -0.1046416589645174 -0.11553956320512367 -0.0692886790210541 0.1950932372835007
1372375000.0 -0.07290360222466898 0.1419121372483151 -0.10650185601931188 -0.11274311569509163 -0.10680034047654745 -0.11357556458938953 -0.06788145086812913 0.19499400755405638
1373062000.0 -0.0727759638181818 0.14117295808970365 -0.10861127126731873 -0.11070086165513529 -0.10904881332213816 -0.1114532474879908 -0.06659434262142323 0.19471224246436894
1373750000.0 -0.0726808230926143 0.14048032790664283 -0.11058185318768028 -0.10868346921568521 -0.1112352178373438 -0.1093080903278709 -0.06541149051999653 0.19428201552408142
1374438000.0 -0.072609640359246 0.13980371178579365 -0.11257488604735248 -0.10651917096822931 -0.11329133712777474 -0.1071161078641411 -0.06416746512779556 0.19380694784623667
1375125000.0 -0.07261197293785576 0.1390775531798627 -0.11454456766996234 -0.10446613754907849 -0.1152893225616709 -0.10482749697292804 -0.06292012952782156 0.1930718270935121
1375812000.0 -0.07255894405845634 0.13842106762879017 -0.11642988118598482 -0.10241973438139299 -0.11727773826059854 -0.10262307128083804 -0.061667427659645835 0.1922408820643685
1376500000.0 -0.07249205482828565 0.13773621145466214 -0.11834897533912646 -0.10027474559212374 -0.11916071154006055 -0.10027230158698353 -0.06032256780346605 0.19128062176744623
1377188000.0 -0.07239456603630529 0.13709285921416337 -0.12026045749368212 -0.09815961254460323 -0.12102847188541192 -0.09794999514585637 -0.058981188312336695 0.1902312531002615
1377875000.0 -0.07231626828289112 0.13652590732730358 -0.1220734027808872 -0.09593539006544614 -0.12283713233891665 -0.09563787635009664 -0.05750695981416552 0.18905642526939023
1378562000.0 -0.07229800803231433 0.13586399941042274 -0.12392686571725084 -0.0937097060108718 -0.12456951402601009 -0.09329253087512714 -0.05597461329236529 0.1876873742969011
1379250000.0 -0.0721863871126381 0.1353646905610284 -0.12578907235049067 -0.09147673120964402 -0.12636022586978188 -0.09096610573632966 -0.054335730920330776 0.1862395730669831
1379938000.0 -0.07202837300754406 0.13477617234500416 -0.127626487499881 -0.08909668031050562 -0.12800085222722962 -0.08857919939440512 -0.05259935383776327 0.18476965633966913
1380625000.0 -0.07184377767173827 0.13419459813422013 -0.1294103951599014 -0.08675660032552401 -0.12966407807432453 -0.08627322986404468 -0.050901557547505555 0.18331212784969714
1381312000.0 -0.07168906641768479 0.13367512197070308 -0.13114277630258836 -0.0843544363632095 -0.1313382898509796 -0.08390184261182582 -0.048962656049256204 0.18176855846610704
1382000000.0 -0.07148369701196788 0.13305871253140014 -0.1328657300709115 -0.08193624249846472 -0.13293789964781405 -0.08152610727376146 -0.04693048762366464 0.18028730433515514
1382688000.0 -0.07124033246295539 0.1325193610259708 -0.13450616288587974 -0.07949335108205804 -0.13453539980552462 -0.07908947206918253 -0.04489790409912843 0.17888458910928637
1383375000.0 -0.07106303424330947 0.131945394046468 -0.13604810734335146 -0.07695740632598726 -0.13605284730652 -0.07665787944239819 -0.04279758698689745 0.17737040220063588
1384062000.0 -0.0708042910978 0.13139714548878256 -0.1377223054026263 -0.07438462094675914 -0.13763191670871483 -0.07419449262500467 -0.04066807021658788 0.1760644138351539
1384750000.0 -0.07060866342734516 0.13085082555551533 -0.13920428652399983 -0.0717586952620736 -0.1391080429421059 -0.07169881639319349 -0.038554226392841784 0.1748303848312047
1385438000.0 -0.07039860754748896 0.1302745383067384 -0.1406925994697521 -0.0691852648964778 -0.14057014861625358 -0.06911092003918577 -0.036495798065135844 0.17355928179079216
1386125000.0 -0.07016408694273989 0.12974276313984348 -0.14214273352772708 -0.06649810040388165 -0.1420558910995587 -0.06654259628077916 -0.034406487852366274 0.1724282867937799
1386812000.0 -0.06998263390882561 0.12916122545614728 -0.14351340759364195 -0.06383218093359731 -0.14343373408765878 -0.06389619525272178 -0.03245727078045797 0.17137812959751433
1387500000.0 -0.06984719759243195 0.12870710891142464 -0.14489339323614436 -0.061136322484529604 -0.14480956355335026 -0.061243884320956364 -0.03053233537469029 0.17040396587308043
1388188000.0 -0.06973432035498298 0.12814983409776343 -0.14613072646754122 -0.05843450562533723 -0.14616218266975314 -0.05854981440327915 -0.02864630957720955 0.1694648220628301
1388875000.0 -0.0696290841612897 0.1277138808242718 -0.14735679326638904 -0.055719587559014225 -0.14738683324683277 -0.05580810914553414 -0.02691658988598471 0.16858285956573774
1389562000.0 -0.06956443914619652 0.12722345491056825 -0.14850482971287657 -0.052928071129712186 -0.1485731801375339 -0.05299954673877421 -0.025374408574217605 0.16770333893225853
1390250000.0 -0.06951275273119552 0.12679534786343452 -0.14958141735597683 -0.0500789279627809 -0.1496936766547689 -0.05011713185205063 -0.02388683727505898 0.16679853411094295
1390938000.0 -0.06943723840398078 0.12634466646270515 -0.15060561815598406 -0.04720946026360675 -0.15086245410299196 -0.047264368474891454 -0.022534655457787826 0.1660222453905912
1391625000.0 -0.06945970113623673 0.12598178379913577 -0.15158312369936588 -0.0443281721302503 -0.15184391240290754 -0.04433757453104961 -0.021293750906987163 0.1650762191478544
1392312000.0 -0.06949206819949832 0.12558439671338062 -0.15243988273958028 -0.041377275671490354 -0.15282038456954886 -0.041426527071148536 -0.020225518416249 0.16404763869929015
1393000000.0 -0.06944183299967072 0.12517138918726795 -0.1533965696293183 -0.038504628921217 -0.15373270018423021 -0.0384598942763833 -0.01928983939216686 0.162939267316174
1393688000.0 -0.06945548958214245 0.12482746529593798 -0.15417332646716175 -0.035541615247431636 -0.15455738302818803 -0.0354613297153217 -0.018406211613336942 0.16183162476135943
1394375000.0 -0.06955768614553681 0.12449185547349981 -0.15491832212445053 -0.032595163104974616 -0.1553038125569675 -0.032498670770310684 -0.017614427423852552 0.160603628622463
1395062000.0 -0.0695456593520068 0.12412116959847508 -0.1555945263226398 -0.029562863696217728 -0.15605104602814765 -0.029469932540707417 -0.01685187406659325 0.15919248576274933
1395750000.0 -0.0696635012659865 0.12377567363742357 -0.15635107284148558 -0.026570663154630112 -0.15663760848052663 -0.0264031302433141 -0.016183788540941182 0.15776710409818528
1396438000.0 -0.06973337727627679 0.12345839006550195 -0.1569339075630874 -0.023615684472001353 -0.15724656500936232 -0.0233686118026561 -0.015441222987767959 0.156220133964123
1397125000.0 -0.06976832334452637 0.1231783082459603 -0.15750551985423264 -0.020421635006260066 -0.15772005654857588 -0.02031263401528993 -0.014766201533503139 0.15446408207880222
1397812000.0 -0.06981273436687267 0.12286385812758778 -0.15797004539737747 -0.017432811570637006 -0.15815896039544453 -0.01726208841415059 -0.014089622479503182 0.15266724821571118
1398500000.0 -0.06990528112687616 0.12253100414956948 -0.15847671737628713 -0.014421079049109883 -0.15851951990586535 -0.014177318303132694 -0.013324368596647877 0.1508810563984049
1399188000.0 -0.06992885124294553 0.12221194751618829 -0.1588732478145265 -0.0113483903246562 -0.15890280084767575 -0.011095025860512217 -0.012543145283794048 0.14893258946612478
1399875000.0 -0.06994740058982081 0.12190228538478981 -0.15921740819152363 -0.008333256639582126 -0.1592197900153915 -0.008061042492572622 -0.011572467491307066 0.1470002261618524
1400562000.0 -0.06996286890449262 0.12142342241849126 -0.15947083816090715 -0.005220780300097124 -0.15942919328254979 -0.004945227513995807 -0.010757404218614089 0.14502669969939525
1401250000.0 -0.06992294894188202 0.12114131099792316 -0.15971764109474204 -0.002062456688376191 -0.15958329176198524 -0.001877616746841444 -0.009805109458401923 0.14298811163705566
1401938000.0 -0.0699300536020967 0.12068651531404756 -0.15977469331872346 0.0011092716370018705 -0.15971861780594782 0.0012440378769375956 -0.008794214313837643 0.14094265482752094
1402625000.0 -0.06984431493447595 0.12039887687840672 -0.159862791905086 0.004196533816735576 -0.159775520333268 0.0043628019232263065 -0.007690372765509339 0.13892073985107478
1403312000.0 -0.06986201218468006 0.11991826653624614 -0.1598045355450559 0.007404116824506037 -0.15975538221562569 0.007483840960053726 -0.0065719475156192945 0.13699639558449095
1404000000.0 -0.06976494874903838 0.11940986961256432 -0.15981541550267855 0.010673349579640135 -0.15972920993618236 0.01060125880358288 -0.005361209531220343 0.13504440992022937
1404688000.0 -0.06975344132081013 0.11904792612090635 -0.15965282159839253 0.013772198952884394 -0.15968760169584195 0.013698470238184974 -0.004210530281723576 0.13311733403383513
1405375000.0 -0.0696882215993591 0.11852787856822253 -0.1595072809745755 0.01695882953965263 -0.1595557511478793 0.01685172519335456 -0.003022567775715916 0.1313305794356258
1406062000.0 -0.06958119458368058 0.11806564852332793 -0.15926758572435964 0.020154421556908223 -0.1593364257041935 0.019974218687022184 -0.0018797965771188147 0.12960313634892418
1406750000.0 -0.06942669096492489 0.11766376633523896 -0.15903531481261274 0.023336417627227487 -0.1591631724388051 0.0231481594051873 -0.0007432484812067625 0.12788127248723466
1407438000.0 -0.06949636269631095 0.11725222729883492 -0.15861180624264656 0.026512810134616285 -0.15880922300943 0.026296397845084068 0.00028029506199492185 0.126329413912363
1408125000.0 -0.06940109561701632 0.11693077356677267 -0.1581781349154639 0.029750215941588436 -0.15847768537728132 0.029480360120875074 0.0012495040880021687 0.12472506208153024
1408812000.0 -0.06933082276900263 0.11660221352807969 -0.15766549650939476 0.032841530078049026 -0.15805368595573044 0.03269184324874021 0.0019237331408032687 0.12331071609991692
1409500000.0 -0.06921338533618533 0.11626116416449737 -0.15708488153584443 0.036047291608197474 -0.15744093914395035 0.03585498243226579 0.002710091011923144 0.12186240952336189
1410188000.0 -0.06913778758837479 0.1160840652601565 -0.1564358556461813 0.03906240198373491 -0.15695737570776117 0.0390511270451978 0.0032185961177056996 0.12046723537312158
1410875000.0 -0.06906952422480636 0.11588776084812492 -0.15578908069969205 0.042277851253648746 -0.15624073892703355 0.04220133518697186 0.003567625016998221 0.11909440530686556
1411562000.0 -0.06884774860104809 0.11580287616711424 -0.15494631973453568 0.04536542071623527 -0.15546582505781972 0.0453910741518479 0.0038361826271486894 0.11772720328868604
1412250000.0 -0.0686823838328509 0.1157746853933153 -0.1542325119751607 0.04823619499543943 -0.154667261048738 0.04851450239844722 0.003926786336972816 0.11637041550086247
1412938000.0 -0.06850308876923321 0.1157841228120293 -0.15337607775604292 0.051258142379183906 -0.15375304159581796 0.051731902645231684 0.004003403230729524 0.11497746484103018
1413625000.0 -0.0682464779071089 0.11585207631562092 -0.15237484498947607 0.054259958685262726 -0.15272242955789225 0.0548324839729451 0.0037917982609702587 0.11354343665515629
1414312000.0 -0.06800877318105653 0.11593634732548008 -0.15140029247499207 0.057304062101393195 -0.15169440450549546 0.057948812304899455 0.003582121333492846 0.11211885589365922
1415000000.0 -0.0676595219276479 0.11615303708667246 -0.15028295161111824 0.06031914767197513 -0.15056032600926267 0.06096945498490194 0.0032998146668356803 0.11065363028799562
1415688000.0 -0.06727436297402069 0.1162950267686687 -0.14918341222030762 0.0632209105298536 -0.149330778619565 0.06402764570588236 0.002830048908233471 0.1092883766976863
1416375000.0 -0.06691019626012468 0.11657481429121488 -0.14797431942493935 0.06615750902882087 -0.1480489038178834 0.06696117837058913 0.0023559620248818965 0.10784935158595721
1417062000.0 -0.06647974341146885 0.1167653837422778 -0.1467355485037025 0.06914796405853114 -0.1467279174241672 0.06994879857986315 0.0019426216954551022 0.10630084762449649
1417750000.0 -0.06599313620200303 0.11702790333437885 -0.1454847220931569 0.07217023331871154 -0.14539526322146681 0.07279626960222249 0.0014329310365103747 0.1047500574768254
1418438000.0 -0.06555073681255233 0.11735373637828297 -0.14417908623457454 0.07505733867099398 -0.14401793949510683 0.07574478942587527 0.0009666413227792258 0.10320582154657035
1419125000.0 -0.06508227590384703 0.11754836835885009 -0.14286264224230574 0.0779910065112237 -0.14257490974022685 0.07859401698224891 0.0004984245337233741 0.10169111422601215
1419812000.0 -0.06473165878908912 0.1177911383395779 -0.14146984437099633 0.08103402994398234 -0.14111489038124184 0.08145092049765922 0.00013779567276441519 0.1001667846860261
1420500000.0 -0.06425229429099154 0.11798763782532985 -0.13998126805494404 0.08390677236857003 -0.13953387319086735 0.08421211410878185 -0.0002947516375737931 0.09858971105202981
1421188000.0 -0.06398875548954781 0.11832488902389154 -0.13832316042886594 0.08687930092274036 -0.13789554399734572 0.0869905057546817 -0.0006492071325316248 0.09703889042151483
1421875000.0 -0.06364746360366651 0.11845626656851412 -0.13662748684049006 0.0897823440090889 -0.13620952114774612 0.08965801585615174 -0.00100075540733154 0.09556172093320689
1422562000.0 -0.063326050571367 0.11878436904551058 -0.13490818045332345 0.09270740765847155 -0.13446675862579477 0.09241667859905749 -0.001249979720098443 0.0939530506494658
1423250000.0 -0.06320808600655618 0.11906888940206826 -0.13308996561671915 0.09537373351683967 -0.13276104362485883 0.09519163013830151 -0.001484839865546504 0.09259072945569773
1423938000.0 -0.06299704231443004 0.11938499441034521 -0.13126397428706868 0.09822792271159653 -0.13092178361928034 0.09782911188741501 -0.0016289379688039837 0.09111595867010427
1424625000.0 -0.06284235339091797 0.11966286043903454 -0.12930078488979277 0.10101097637585646 -0.12895016403854398 0.10053026575758915 -0.0017817056632426643 0.0896949710779
1425312000.0 -0.0627069307312673 0.12019698859750406 -0.127165026863511 0.10371227971365984 -0.12701365205146428 0.10321978242360227 -0.001975619802457323 0.088348645683434
1426000000.0 -0.0625816228681967 0.12055469740955357 -0.12491370002413997 0.1063014749135143 -0.12503600437360352 0.10588737041815732 -0.0021136111764945595 0.08692363174154645
1426688000.0 -0.06249624270730806 0.12107680174463083 -0.12275303684937396 0.10873010470005173 -0.12292469527391237 0.10843120759439376 -0.002304981159249617 0.08576226374611072
1427375000.0 -0.06235999293133028 0.12162442806555732 -0.12036933004654655 0.11117519965107284 -0.12077445723368133 0.11094962593315814 -0.0025738110838835417 0.08447270688271037
1428062000.0 -0.06212985557924841 0.12221478789578749 -0.11801289069214656 0.11359987949136302 -0.11847160629763585 0.11342707127129649 -0.0028164046174059326 0.0834232047681089
1428750000.0 -0.06192316045272391 0.1228356249040434 -0.11564500333368971 0.11598430236118355 -0.11616421159683517 0.11583077910590316 -0.0032695928955756392 0.08231159282543396
1429438000.0 -0.061675891173497616 0.12341337091135514 -0.11313063367092466 0.11823320892729629 -0.11375770307704525 0.11827303287917078 -0.00362838316618135 0.08121249536525658
1430125000.0 -0.06134178675383217 0.1240124759321392 -0.11065577430797033 0.12033679345389725 -0.11141252453518813 0.1205927310887565 -0.0042824479101547545 0.08027618887631839
1430812000.0 -0.06105623606726908 0.12456503127965082 -0.10822937934430371 0.12250750354700952 -0.1089341417164845 0.12278324319071923 -0.00477054691710888 0.07936007945096682
1431500000.0 -0.06051747155846019 0.12507873538508632 -0.10578341611566792 0.12457213621887045 -0.10646849043831079 0.1250460738801093 -0.0055072777525191595 0.07852778471894965
1432188000.0 -0.06009269237093392 0.12555086807304472 -0.10330464844699981 0.1266327496501937 -0.10391009291278652 0.12708019788573735 -0.006251698731141577 0.07765573291597465
1432875000.0 -0.059608731640369984 0.12596072924361393 -0.1008093830515193 0.12847705269381804 -0.1012939590923146 0.12906959913924218 -0.00717697534198243 0.07677452032425103
1433562000.0 -0.059140481854893324 0.12635233691054737 -0.09831595705888055 0.1302899663321181 -0.09865155825401922 0.13105931437574914 -0.008079169939072563 0.0760587821890848
1434250000.0 -0.05851706846915033 0.12667523975670889 -0.09585461599004032 0.13222418113134432 -0.09597246586196828 0.13294147623743388 -0.009087546926960312 0.07532773732130409
1434938000.0 -0.057989358510049 0.12693484867646956 -0.09340529482890529 0.13400702117824267 -0.09333265498273745 0.13479065077709568 -0.01008820347051836 0.07469291901363398
1435625000.0 -0.057521879034442905 0.12715118762357788 -0.09081493171225734 0.1357719938409567 -0.09064411402569324 0.13651617402447538 -0.011128506256660765 0.0739685989827739
1436312000.0 -0.05698729644773759 0.12737638780815297 -0.08820758613625082 0.13757378117562516 -0.0879201628499076 0.1382618347638617 -0.012225539714511102 0.07339879801967515
1437000000.0 -0.05648185218902152 0.12752637801011327 -0.08565286735284064 0.13934328515268984 -0.08512614769378378 0.14001011030313487 -0.013198828405385 0.07283964090511039
1437688000.0 -0.05600488624139613 0.1277549646128554 -0.08290077687873307 0.14104599029583417 -0.08238744177258096 0.1417126574350067 -0.014232714004346416 0.07226398334203431
1438375000.0 -0.05554978424060201 0.1278648469758572 -0.080195480639605 0.14277413480041515 -0.07957826508912869 0.14325651513884077 -0.015205167485034176 0.07180436388902785
1439062000.0 -0.055085945605592865 0.12809870192028444 -0.07739698889319603 0.14446561200397395 -0.07676498539984189 0.14484295625525126 -0.01611979799291925 0.0713428998264041
1439750000.0 -0.054629665570268125 0.12829058485762196 -0.07461330513292377 0.14606502777469693 -0.0739443498826239 0.14641693770670589 -0.016995906781407683 0.07084313204326365
1440438000.0 -0.054120682195021225 0.12866467743778237 -0.0716874799024056 0.1476386732424889 -0.07102305858028568 0.1479004687718942 -0.0178635184831065 0.07039950560128039
1441125000.0 -0.05366841785336447 0.1289540825558031 -0.06869838796143231 0.14919565096756401 -0.06818967849754679 0.14932034775107136 -0.018600584470902747 0.07007830181740321
1441812000.0 -0.0531308314821621 0.12931781944883014 -0.06566788647886333 0.15072930805898835 -0.06525736964779386 0.1506914276608459 -0.019370009114029488 0.06965521252063324
1442500000.0 -0.052577060989796455 0.12978672948905084 -0.06257269023159291 0.1521486989119134 -0.06225439012005007 0.15200602565249483 -0.02010297088593981 0.06928200576246037
1443188000.0 -0.05197631642424189 0.13023461325545868 -0.059529875298510705 0.15341297733775736 -0.059232097176474596 0.15324672830671035 -0.020727524710527617 0.06883643529293862
1443875000.0 -0.05133574054146814 0.13072045149781386 -0.056241946600283074 0.15465719289682062 -0.05621479945791815 0.15443713327813813 -0.021401951757782596 0.06850476050006056
1444562000.0 -0.050497337710085806 0.13123906523934487 -0.053122472985089556 0.15592539244660047 -0.05315565952403286 0.15562015226934464 -0.022077078190382498 0.06817943665706827
1445250000.0 -0.049752755689383726 0.1316596809415824 -0.04991179688823421 0.1569283661765337 -0.04998501142866599 0.15663082761860955 -0.02272111468855101 0.06780105449785195
1445938000.0 -0.04893805480056667 0.13221019527756664 -0.04674478205188841 0.15785050655510074 -0.046879836190471216 0.1576196384432842 -0.023311754863447387 0.06742261722744898
1446625000.0 -0.047998460568107096 0.13262387603637224 -0.043578768347074213 0.15875920438196575 -0.04377488119216026 0.15857877751313337 -0.02397809134394602 0.06698052451764662
1447312000.0 -0.047135433069812535 0.13304207491424108 -0.040335858717100284 0.15951204404268843 -0.04055630816908524 0.15944610573636991 -0.02474334882745095 0.06663795374543954
1448000000.0 -0.04621620035185723 0.13335691409625602 -0.03703870224381477 0.16021338790634174 -0.03733950905945616 0.160210943079339 -0.02542075407808921 0.0662238001332699
1448688000.0 -0.045267586264270576 0.13372624045610826 -0.03382586329601022 0.1608365087366795 -0.034096702666208456 0.1610145846268556 -0.0261419793949249 0.06588143563950626
1449375000.0 -0.04437606672132468 0.1339807256675837 -0.030680362474269803 0.1613953953103851 -0.030885662197327628 0.1616250491507824 -0.026889607346671368 0.0655117499398266
1450062000.0 -0.043497502575296464 0.1340512903431784 -0.02751594513955131 0.1618949638148942 -0.027706018065538452 0.1622288009896626 -0.027734650871129075 0.06508261829363754
1450750000.0 -0.042650996636047114 0.13417854082601538 -0.024315372703824372 0.16225538611589313 -0.024474738781230302 0.16277972373133578 -0.028585777314482044 0.06473257742222685
1451438000.0 -0.04186454850125853 0.13429281511335625 -0.021222031349699046 0.1626594705829561 -0.02124012095832973 0.16320564163709575 -0.02950576921054476 0.06434523015131428
1452125000.0 -0.041106435563021675 0.13436638050289354 -0.018106211258828345 0.16306086069833156 -0.018079523885773323 0.16358792931848912 -0.030328414098109848 0.06398176148400066
1452812000.0 -0.04047949074213941 0.13443818626136464 -0.01493042519849444 0.1633798839656193 -0.01487572954024843 0.1639034820625478 -0.031198258687338935 0.0636441233016809
1453500000.0 -0.03976909924615216 0.1344494367706178 -0.011792509200834245 0.1636176210005604 -0.011629990201939621 0.16412548145105169 -0.03203420185295768 0.06337451967903658
1454188000.0 -0.0391533072306193 0.13452461020197395 -0.008668615392570678 0.1638328343690281 -0.008350602250222763 0.16427612258653554 -0.03285415952667198 0.06303164600015387
1454875000.0 -0.03861952462447044 0.1345016838046197 -0.005491241240249063 0.16398604575529155 -0.005206600342569182 0.1644250214208365 -0.033609463165806736 0.06287296834516853
1455562000.0 -0.038047477789297776 0.13461906084831038 -0.002246948722795053 0.16412540813392243 -0.0019538748578291987 0.16445960443897628 -0.034430963892920496 0.06267288953763026
1456250000.0 -0.037589762030462916 0.13469413336436045 0.0009469776143452746 0.16424002772552654 0.0012998413738935363 0.1643993319566344 -0.035138783355501205 0.06244314510920427
1456938000.0 -0.037054126099201445 0.13479773351883456 0.00421134566621918 0.1642677946687592 0.0044713210079155175 0.16439916709831265 -0.035856656235711604 0.06237806900043009
1457625000.0 -0.03644966974319199 0.134930624665275 0.00741884148879687 0.1643555194047895 0.007722319665243626 0.1642940048252641 -0.036435393245188866 0.062404556708560384
1458312000.0 -0.0359058456330691 0.13501029247338991 0.010635750996705719 0.16425043679753504 0.010934797823838644 0.1642879442471247 -0.03695158502752417 0.06237744593639936
1459000000.0 -0.0352117815120942 0.13500524865878127 0.013878112128994815 0.1641339553740685 0.01413966816389926 0.16404331978922138 -0.03748561056335372 0.06248311458757387
1459688000.0 -0.03458107862439979 0.1349909369239037 0.01728142022625004 0.16387474680878153 0.017367254171507477 0.16381264910160706 -0.037956919455201577 0.06261612486701555
1460375000.0 -0.03382569628189238 0.1349656859837384 0.02055596912698329 0.16357271297226544 0.020581091528366343 0.16352901055270322 -0.03838326641071755 0.06273002872045758
1461062000.0 -0.033137971996075315 0.13472762356487908 0.02378762093977137 0.163017813600409 0.023807361267901197 0.1631315163654905 -0.038735203668680426 0.06289094371035486
1461750000.0 -0.03243451165109189 0.13458128030965424 0.02701366662579755 0.1625338310009002 0.02706759133011213 0.16268186361091166 -0.03910284635835458 0.06318491403783867
1462438000.0 -0.03167175604764902 0.13434010983043626 0.03021723427272204 0.1619324659409738 0.030289793347817673 0.16215115020032922 -0.03952522737375372 0.06339569108164185
1463125000.0 -0.030885962570348185 0.13385391154224216 0.033443629159415025 0.16126931349991624 0.033481135570819165 0.16149104115107582 -0.03988477211725704 0.0636824088656727
1463812000.0 -0.03013136946030394 0.1334555823470994 0.03668279077679153 0.16051138630708048 0.036684503352371695 0.16095797012738267 -0.0403559220724348 0.06396511019425695
1464500000.0 -0.02943167236627757 0.13296378516798282 0.03976799427355964 0.15979415387650675 0.03988809164577534 0.16017122986749321 -0.040721704658433854 0.06415887206741187
1465188000.0 -0.02876775830312043 0.13237322969319032 0.042858726061621964 0.15898292130384492 0.043029228381557816 0.159390797334162 -0.04109525846244481 0.06445102359164634
1465875000.0 -0.028005700654680867 0.13166618659375207 0.04594946519228182 0.1580980662028736 0.04612794171998284 0.1585072326391586 -0.04155731183325383 0.0647657184495738
1466562000.0 -0.027414984738518444 0.13103904881137562 0.0490335059685227 0.15715898619329954 0.049278105368617944 0.15759012093925967 -0.04211259048069505 0.06494317728592475
1467250000.0 -0.026804794212152424 0.13024752085607297 0.052064035939755074 0.15620433752714166 0.052413334595330686 0.1565689903354243 -0.04255632218872906 0.06507384641316506
1467938000.0 -0.0263061083680305 0.12948570626167719 0.05506615538363936 0.15517372586205916 0.05548490929843917 0.15555361592070943 -0.043175760762827566 0.06531124808172231
1468625000.0 -0.02564374848062963 0.12861897333972752 0.05807431301771485 0.15404931792283108 0.05862127860788774 0.15443360526186564 -0.043694271435360546 0.06542833463946195
1469312000.0 -0.025217371433180303 0.1278434296191279 0.06109126399910738 0.15309500808408708 0.06171785961099493 0.15317196236336078 -0.04427210985528657 0.0655628553844087
1470000000.0 -0.024835454131293525 0.12701258785726302 0.06404450265539614 0.15190090613604715 0.06469611995566577 0.1519625706726999 -0.044986819024721264 0.06558259328974984
1470688000.0 -0.024448428163127173 0.1262271663415356 0.06704166656565705 0.15079325708763525 0.06768329400115844 0.15072214501671405 -0.04555236340996167 0.06552185097671544
1471375000.0 -0.024129891519500127 0.1254468655386279 0.07013495855909314 0.14947388884845153 0.07059630051847775 0.14934431574802026 -0.046071752734421656 0.06549525297833117
1472062000.0 -0.02372305065498071 0.12467910151161896 0.07307104758563289 0.1480885794323232 0.07346601296313503 0.1479119934535228 -0.046641813895506846 0.06527881995348907
1472750000.0 -0.02335986196950781 0.12400795479952523 0.07602085774756297 0.1467341061206194 0.07638625348542144 0.14650185879812583 -0.04696828044391032 0.06524432766618785
1473438000.0 -0.022890545379786124 0.12326437258478593 0.07899147714482156 0.14532532779892826 0.07924670187220582 0.14499084550369812 -0.04743011448638264 0.06514488034365101
1474125000.0 -0.022522646073204002 0.12255372941047521 0.08180263290278786 0.14368575095594024 0.08201576014503051 0.14344524638518613 -0.04778762712340021 0.0648850005340558
1474812000.0 -0.022126236006892057 0.12183043535270184 0.08478096282696863 0.1421455525244053 0.08483315576621529 0.1418326488908871 -0.048029883445156164 0.06471311327421844
1475500000.0 -0.021709685864508388 0.12104475812335598 0.08753309359115244 0.14050157043740324 0.08759017504475893 0.14020031955340204 -0.04818053127702379 0.06454184257932262
1476188000.0 -0.021247453039790046 0.12036346129341498 0.09046016449090298 0.13877670599835507 0.09037127590210207 0.13853637618831371 -0.04824602707549764 0.0643161335372506
1476875000.0 -0.02084847129581004 0.11948454949554377 0.0932416861569656 0.13703835656605334 0.09310399656701193 0.13680152142192226 -0.04822233801155507 0.06423269143150398
1477562000.0 -0.020453365974216587 0.11863612348639428 0.09601949825117075 0.13517837171117678 0.09585092622687975 0.13502496822910984 -0.04806891562596769 0.064054752016152
1478250000.0 -0.020102326351014405 0.11782278093537375 0.09866891786548797 0.13326716518604656 0.09849202241367722 0.13317334200678216 -0.04783305645366291 0.06394273851172017
1478938000.0 -0.01961533858604065 0.1168730146819366 0.10142158919618746 0.13126307617372202 0.10117700656682649 0.1312527025973066 -0.04761042562192704 0.06390060075417375
1479625000.0 -0.01941186499035963 0.11598527248151495 0.10395905011605004 0.12914328020719468 0.10373781205340506 0.12924954575743577 -0.047329008733297574 0.06393820590001001
1480312000.0 -0.019074408661894585 0.11501359162413943 0.10652289197855802 0.12708380703402755 0.10630714762427108 0.12723467542461325 -0.047004133617049165 0.06402220658814438
1481000000.0 -0.01887399566307117 0.11402937408302455 0.1090468943144612 0.1248301794276715 0.10887302127856113 0.12515606424259249 -0.046496906237639864 0.06406800351013824
1481688000.0 -0.018596372435308126 0.11300901428288858 0.11141988817459945 0.12264160979952071 0.11130653451825086 0.12300060812763794 -0.04616516810454891 0.0643001999296897
1482375000.0 -0.018485217902991444 0.11203507359806283 0.11381362685624781 0.12036086621703578 0.11378801308957415 0.12079508889876671 -0.045806099872886884 0.0646692933675287
1483062000.0 -0.018376791683379613 0.11093139469353305 0.11616600280227685 0.11817685733838344 0.1161775473810421 0.1185421923295781 -0.04548918797646448 0.06496644630299826
1483750000.0 -0.018264952889189914 0.10998716671625344 0.11852062165078465 0.11581779509421906 0.11857094315604363 0.11627244974098973 -0.04515481073876876 0.06530907600135345
1484438000.0 -0.018226046767652694 0.10891431372618675 0.12065520068231847 0.1134884792316654 0.12088369188960817 0.11389856875007413 -0.04493479380060672 0.0657184038502243
1485125000.0 -0.018174228000697654 0.10787408606583025 0.12287509097395533 0.11109111909555211 0.12308565153255817 0.11159717963247422 -0.044804795323539974 0.06606316712120504
1485812000.0 -0.01813545912944916 0.10675746902806017 0.12492585034534306 0.10855838543100155 0.12532362286297777 0.1090876208511063 -0.04463565052156723 0.06640976527996421
1486500000.0 -0.01821871637628151 0.10586298988233955 0.1270049059846038 0.10626610724743156 0.1274450692965668 0.10661553631883347 -0.04460981403141817 0.0666893465162448
1487188000.0 -0.018171073703982965 0.10490532535491257 0.1290859370976641 0.10379530078562081 0.12954032123749074 0.10412011152858773 -0.044610725758140374 0.06696075443183042
1487875000.0 -0.018157437890328657 0.1038698865390645 0.13115872298980072 0.10130838492202765 0.13162350081298826 0.10152281807575272 -0.044759056451900765 0.06716499517746854
1488562000.0 -0.018210747405064433 0.10284603024899956 0.13304968660440178 0.09881062892799349 0.13357659300664684 0.09900467335426304 -0.04492581930702772 0.06727854155690569
1489250000.0 -0.018152681310378508 0.1018769764397848 0.1349870326743472 0.09619368449485242 0.13554040298488873 0.09636190652126324 -0.044971803404052886 0.0673620827463817
1489938000.0 -0.018129061329513137 0.1009286468927163 0.1369038772039971 0.09377363537152418 0.13752018615197772 0.09373798331692408 -0.04523771161624901 0.06741588146207134
1490625000.0 -0.018072983273139658 0.09993051573832454 0.13869855844400455 0.09113474655458124 0.13935111232670425 0.09100757145809289 -0.04544188447830574 0.06728977739519712
1491312000.0 -0.018124899393977243 0.0989948452657276 0.14055054050724497 0.08849151001838347 0.14113220034564017 0.08833096146448689 -0.045683863686744 0.06708413580162842
1492000000.0 -0.01800259975679302 0.09804163989733455 0.14223011803044042 0.08577470582856883 0.14291339317848634 0.08554233246417439 -0.04593529771971739 0.06681664240648506
1492688000.0 -0.017885769688629996 0.0970392524405413 0.14395574292038815 0.08303578446293051 0.14451577814590927 0.08275241152738962 -0.04612097465025783 0.06634335254445145
1493375000.0 -0.017872072646717724 0.09609951950469936 0.145583004261929 0.08026834618158563 0.1461840528940816 0.07995970091465049 -0.04640260759007142 0.06577157026653199
1494062000.0 -0.017705387491094255 0.09513180085973737 0.14724766334561643 0.07748543098473963 0.14782400316028083 0.07711529720821879 -0.04640667730923079 0.06521025524517576
1494750000.0 -0.017585133856197116 0.09419380101589538 0.14885241838109894 0.0746796676469595 0.14930404132461772 0.07429882928978937 -0.04651056619105015 0.06458759044653603
1495438000.0 -0.01746609366407179 0.09325551858292985 0.15039489905461054 0.0718668958447901 0.15080407310128913 0.07131756997733447 -0.04653040303794403 0.06395789779967084
1496125000.0 -0.017304380168492277 0.09224260293201725 0.1519191575774582 0.06889171195060086 0.1522030322319139 0.06838798267772435 -0.046527222581992614 0.06308883327288563
1496812000.0 -0.0171346095874726 0.09128168892123065 0.1534854995541797 0.06593569143817628 0.15361835908027496 0.0654196609802335 -0.046408499115084864 0.06233672158599467
1497500000.0 -0.01702899161629929 0.09036720864676896 0.15487124739170022 0.06288934552546852 0.15491211931136042 0.06240432142175834 -0.04621322511283782 0.06164628179027315
1498188000.0 -0.016863644693990546 0.08937229118981614 0.15627273332113922 0.05989558498986516 0.15620661926440366 0.05941485293571172 -0.04585665835396479 0.06086810058318657
1498875000.0 -0.016742128363376137 0.08846953579740459 0.15757874378395692 0.056792748217724 0.15742210136565346 0.05639222142606173 -0.04551070091305495 0.06018685254836314
1499562000.0 -0.016620931819999272 0.08747037656295419 0.1588539379214177 0.05367734224132251 0.1585624460177769 0.05330664721973507 -0.04524785420040406 0.0596133238749877
1500250000.0 -0.016581765151602864 0.08650340230102335 0.1600611718095276 0.05046574804227909 0.15968040632347458 0.050210899976948255 -0.044771755957212535 0.059078744799230254
1500938000.0 -0.016515039912178352 0.08558642754474188 0.16112127186816474 0.047272491173884025 0.16079951369045856 0.04709119662218589 -0.04437082056588922 0.058489739723756554
1501625000.0 -0.01637581576485024 0.08469314057592603 0.16211731372461932 0.04405360841720739 0.16180020457367805 0.04398699736171137 -0.04381841509280282 0.05814237736375626
1502312000.0 -0.016423704235836886 0.08379259491128768 0.16300983989006268 0.04078757870973464 0.16275091175189016 0.04079108176520115 -0.04340679253818647 0.05782687737220263
1503000000.0 -0.01640893427033319 0.08295237517692712 0.16403219571436398 0.037445249382116894 0.16367997866543665 0.03759169079869972 -0.04292429068619732 0.05768788013129434
1503688000.0 -0.01648786426458094 0.08216573342198964 0.16470316832761708 0.0341742570043804 0.16453428901181402 0.03437972063805832 -0.04250553889724629 0.05742041838559443
1504375000.0 -0.016534444808239984 0.08141375790993317 0.16543642052440552 0.03079505436750415 0.16537848379532327 0.031134026895726728 -0.04215279094470748 0.057420088285378736
1505062000.0 -0.01653244562637581 0.08061135620955427 0.16602614004270294 0.027396882416677048 0.16607819404318658 0.02785113444958991 -0.0418826260865362 0.05730179398120589
1505750000.0 -0.016679220939341342 0.07987896038198528 0.16660300913404266 0.024087862740229428 0.16680515279384167 0.024576425938096415 -0.04174024010646009 0.05735421875244216
1506438000.0 -0.016744616831096872 0.07915054479495187 0.167105556657884 0.020604354684898202 0.1674256502357898 0.021078753782403443 -0.04155047201467291 0.057454958728415634
1507125000.0 -0.016755252879736646 0.07848749595883978 0.1675322144089113 0.017261974052155554 0.16789712340245683 0.017688651517972463 -0.041587755300415585 0.05738204661396247
1507812000.0 -0.01675329098241617 0.07788362750497291 0.16789118192385055 0.013904021901998107 0.16832691959160395 0.01422777730371083 -0.04173558372238358 0.057282426991133006
1508500000.0 -0.016801373495065035 0.07726406394760445 0.1680969961387303 0.010410365636879401 0.16866932805053703 0.010811610242722165 -0.04188801244268517 0.057214659430838054
1509188000.0 -0.01688656122090841 0.07659087473802674 0.16821766767254592 0.006996290560699697 0.1687957537419056 0.007350599366740979 -0.042078849147226295 0.05698729292603182
1509875000.0 -0.016888174576195267 0.07590369298774122 0.16832029523383163 0.0037353500376846346 0.16897194270752863 0.0038526346863573266 -0.042512102071116685 0.0567562997980598
1510562000.0 -0.01687627357759763 0.07523957733182578 0.16842176970095207 0.0003240317896394041 0.16910409521948871 0.0003923044140131871 -0.0428405381034103 0.056554750933135035
1511250000.0 -0.016862026355532515 0.07455669184486433 0.16834522961330353 -0.002969224438170061 0.16903910645695153 -0.003057242693426521 -0.043295456604839334 0.05598438089809795
1511938000.0 -0.016870641911417208 0.07381070125735952 0.16824032708194198 -0.006282832693919935 0.16895640132316445 -0.006507362152953353 -0.04377422831084563 0.055451381310638766
1512625000.0 -0.01691505824937881 0.0730896191313541 0.16814795623632794 -0.009523593219486613 0.16873229467912162 -0.009961298259433031 -0.04436472821461786 0.05479793301768166
1513312000.0 -0.016926526553813232 0.07217362549513583 0.16795521179105222 -0.012782808558823536 0.16849288168420978 -0.013378510593398662 -0.04489366822835443 0.05396529802239219
1514000000.0 -0.016945095294660567 0.07140990107709336 0.16769468103558727 -0.016133848142340916 0.1682059295728958 -0.016757548511530402 -0.04543104864524636 0.0531614228149801
1514688000.0 -0.016968858049920155 0.070481035977218 0.16735942991819042 -0.019401884245816323 0.1677305923985027 -0.020055667323155207 -0.045982371543401734 0.05207356296465095
1515375000.0 -0.017047228767263348 0.06960769959699953 0.16703861656758992 -0.022578573867623252 0.16733543551564878 -0.023502979383510272 -0.046450809445881557 0.05108099530120328
1516062000.0 -0.01707734759537028 0.06854100006406837 0.16662994483091653 -0.025938563870809266 0.16683276297037064 -0.0267348045688813 -0.04699932130095787 0.050006331086612586
1516750000.0 -0.017284656091439282 0.067619485062916 0.16619768955728104 -0.02933062659168899 0.16634501072682592 -0.030055692247219035 -0.04744023507394453 0.04875839082116241
1517438000.0 -0.017475280359678894 0.0667000499420599 0.16563682380594372 -0.03267155308098204 0.1657292174547827 -0.03336512691515293 -0.04780948098341849 0.04767645243191171
1518125000.0 -0.017662486368620813 0.06568536876278917 0.16510687396557497 -0.036081812462043714 0.16500297834507172 -0.036641915554506285 -0.04810248739972771 0.046507016684723006
1518812000.0 -0.01799026694620676 0.06475945325377412 0.1644420323022979 -0.03943163365415276 0.16432338222190884 -0.03988418919695403 -0.04851614435123598 0.04532398829376679
1519500000.0 -0.018216194342227418 0.0638590771004049 0.16375440296491903 -0.04283120871331382 0.16354286028380788 -0.04315007843714255 -0.048858869572382516 0.044281243919219115
1520188000.0 -0.018554592521563083 0.06308986133764719 0.1629508769307849 -0.04623982184573279 0.16274471713892455 -0.04639000280357146 -0.04907369093051845 0.04341478570471834
1520875000.0 -0.01884254691743081 0.06209782735747601 0.16207488118004124 -0.049571396477211364 0.1618329552715132 -0.04960122163801892 -0.04935662935661872 0.042336473083914576
1521562000.0 -0.019107738531787086 0.061369413295152254 0.1610160115632846 -0.05296365949374776 0.16083362960410905 -0.05287807884155087 -0.04956786756712139 0.04159616658037883
1522250000.0 -0.01944209865837872 0.06062864375611278 0.16004345028383482 -0.05629067763105113 0.15982107877534282 -0.05618268938593288 -0.04978462643215416 0.04083631960454444
1522938000.0 -0.01975425569573079 0.06005087495740256 0.1588418318737289 -0.059514437988427135 0.15875270415340603 -0.05943596334888206 -0.050097364582216024 0.04028359771696187
1523625000.0 -0.019946215993071302 0.059284612848706834 0.15762119260430366 -0.06278191171584457 0.15764577747812633 -0.06266922262026095 -0.05027217727723351 0.03971792950863592
1524312000.0 -0.020201429683905696 0.05877146326654912 0.15635854502958815 -0.06598146712211951 0.15638255344862917 -0.06593271158782997 -0.05053464386244138 0.03942479513339966
1525000000.0 -0.020264663344105996 0.058164188337638194 0.15489661531672075 -0.06919681169750301 0.15502273255309237 -0.06914314328009143 -0.05080240574126193 0.039196252536859856
1525688000.0 -0.020337234311948782 0.057668323301850455 0.15349082096538083 -0.0722784262892837 0.1536190901717582 -0.07238710846561727 -0.05116971299264578 0.038985953574116224
1526375000.0 -0.02046775234382571 0.05709934787396613 0.15182913707533327 -0.07534296847003477 0.15215475274084603 -0.07557048539919076 -0.051514601813628755 0.038906165400987056
1527062000.0 -0.020490993441987265 0.056581505911327296 0.15030176960959185 -0.07830605566122323 0.15057215515265204 -0.07867936554249982 -0.051959000897616306 0.0388632195756063
1527750000.0 -0.020479779416972085 0.05600869575031411 0.1486172521977026 -0.08140930461679863 0.14890519856669066 -0.08171260503322468 -0.05241806518173127 0.03877369525998495
1528438000.0 -0.020575299639786902 0.05541111390757423 0.14701098618497727 -0.08431346495807755 0.1471910172988282 -0.0847045898871083 -0.053040143065821305 0.03872504508948228
1529125000.0 -0.020553252891441165 0.05486868849526403 0.145186170648249 -0.08717937581807295 0.14541822486435982 -0.08763091508495624 -0.05366657372962089 0.038677914096381216
1529812000.0 -0.02068405276625464 0.05424312392036655 0.14337877982708203 -0.09006694697785465 0.14355134197568223 -0.09054397942398411 -0.05436584484784383 0.03856500076347858
1530500000.0 -0.02075176523557088 0.053665709848018724 0.14157247674906093 -0.09289464912005661 0.14164586219069925 -0.09330257459447729 -0.055205916346104784 0.03848168512984934
1531188000.0 -0.02086407954952662 0.05304608068696779 0.1396634272302096 -0.09567863686392376 0.13970361825201125 -0.09606020405936554 -0.05600357129529782 0.03826604313357819
1531875000.0 -0.021123448237266206 0.05238581634851041 0.13772481892917451 -0.09841364682203431 0.13766567514164985 -0.09875629149471851 -0.05694651435690013 0.03796820750448287
1532562000.0 -0.021383416726952438 0.051826527276255266 0.13576427461575735 -0.10117832399356864 0.13570025753017625 -0.1014197855923327 -0.05788935159375065 0.03749990051762525
1533250000.0 -0.021744285108679533 0.051225616835959796 0.13381019660058388 -0.10387029702817574 0.13355615027679638 -0.10393579639632211 -0.05897815893626533 0.037003288197777526
1533938000.0 -0.02214035770907674 0.0506780546127708 0.13181213332388333 -0.10656912197834717 0.13151063739063343 -0.10651219408535861 -0.05999253698484333 0.036455719161627466
1534625000.0 -0.02271075166579374 0.050214444615001706 0.12954024063043165 -0.10917496839855743 0.12937097638737297 -0.10909780064002915 -0.0610946228582973 0.035706869830279916
1535312000.0 -0.02321839164372144 0.049667086884454065 0.12747779035322407 -0.11176939022737051 0.12726074562190162 -0.1116376745018663 -0.06221568061957264 0.03501265712403001
1536000000.0 -0.023865311659602567 0.0492636235374885 0.12514019020059428 -0.11434620127545503 0.1250489743084621 -0.11415006548012857 -0.06337599855663134 0.03420187871819212
1536688000.0 -0.024499919448344874 0.04886928185957344 0.12281359590568451 -0.11681729656357526 0.12287050874346325 -0.11661997265426365 -0.06446715645574397 0.033392566523155684
1537375000.0 -0.02515499077970821 0.04851385799977533 0.12038393993611106 -0.11924209256091692 0.12058298303160384 -0.11906741985673348 -0.0656731006100436 0.03260615716864059
1538062000.0 -0.02589895385814328 0.048184472246554304 0.11800344822703292 -0.12158161062985826 0.1182659813996942 -0.12156235004217775 -0.06690464889870272 0.031720626864906426
1538750000.0 -0.026608610766889827 0.04796484420056685 0.11544359036674214 -0.12393206798755761 0.11591303341720588 -0.1238853128013575 -0.06798754058170729 0.03101959864679506
1539438000.0 -0.027346443399040857 0.04770259912089428 0.11305196229577943 -0.12615108963067898 0.11349839694351285 -0.12626576749066773 -0.06904236840800722 0.030185520716278915
1540125000.0 -0.02808676442209474 0.0473837799660323 0.11045138515554705 -0.12833409401844778 0.11104021351744878 -0.128563315154172 -0.07018554902151716 0.0295507694919806
1540812000.0 -0.028786840780541917 0.04715444715489216 0.10786660231000054 -0.1305935538688099 0.10848100875180383 -0.13085173357957716 -0.07118362781644816 0.029008011165437497
1541500000.0 -0.029507318657767078 0.046874117568380017 0.1051853920582208 -0.13264422541746734 0.10584378625091813 -0.13305549023278304 -0.07222096912133351 0.028582871462914244
1542188000.0 -0.03021912708833951 0.04649080144273339 0.10255267635326161 -0.13464604628115645 0.1032607476020743 -0.13530995817865377 -0.07318453127897181 0.028261418359839266
1542875000.0 -0.030960009108590956 0.04605089423564473 0.09995945782058395 -0.13660602258452476 0.10060883052463418 -0.13740780846157644 -0.07410163376067545 0.02802829364986292
1543562000.0 -0.031803726746249206 0.045576132597873305 0.09725749622046383 -0.13854527066381972 0.09775361890063952 -0.13945007627743233 -0.07499516118814134 0.027884804605041974
1544250000.0 -0.03256577768747441 0.0449592263660871 0.09464846625350497 -0.14040251470683468 0.09480884036797024 -0.14140861604072116 -0.07583013907179181 0.027928211695031988
1544938000.0 -0.033525110618250566 0.04443933671794311 0.09187787157037991 -0.14226367266733672 0.0919395038776156 -0.1432983869501749 -0.0767884546165143 0.028080426268939283
1545625000.0 -0.03452786117091545 0.04371564999447413 0.08916908841460408 -0.1441315939259579 0.0889659865763462 -0.1451620038907114 -0.07758777163945756 0.02819362257692618
1546312000.0 -0.03558983849309476 0.04317407898213703 0.08633756893237933 -0.14598328144582878 0.08598078625122306 -0.14693103621751458 -0.07840718134791066 0.028493529350972366
1547000000.0 -0.0367579381865262 0.042482284091456636 0.08362094751741282 -0.14778207311695946 0.08298404678259552 -0.14866527489255152 -0.07929679251752836 0.028851144864524392
1547688000.0 -0.037890121514566555 0.0418283017755416 0.08062140838089024 -0.14941464198393412 0.07986751043934046 -0.15020169310833195 -0.080105172362137 0.02920141936353474
1548375000.0 -0.03929618182172306 0.04129398385968158 0.07778568948216527 -0.1512675969947619 0.07686002382142385 -0.15185638855839462 -0.08101682704543281 0.029692481156363984
1549062000.0 -0.040621941196661675 0.04078675638125968 0.07478373702053387 -0.15298082084680917 0.0737972437503049 -0.15336542713845025 -0.08189898808824518 0.030141622967158384
1549750000.0 -0.041986130876613556 0.04032079153759794 0.07177658995881928 -0.15451400738459356 0.07069060721991316 -0.15474611605568597 -0.08289995016388102 0.03058849857963353
1550438000.0 -0.043381101036885326 0.03994875334331621 0.0686334031786427 -0.156150516848415 0.06755700531278569 -0.15615062460117493 -0.08378322345780834 0.031021545906468818
1551125000.0 -0.0448176831172905 0.039631081444624267 0.06542153221154799 -0.1576348157620318 0.06447873035152261 -0.15746030922029944 -0.08493975775743257 0.03149963081925473
1551812000.0 -0.04623510543182804 0.03931595390987114 0.062075265721749914 -0.15917459924743022 0.0613728261897161 -0.15873724272109768 -0.08612850993766033 0.031867312034338714
1552500000.0 -0.047623444128143934 0.0392097410983862 0.05879080613808048 -0.1604230403450849 0.05826200688903433 -0.1599281255933208 -0.08717142138436691 0.03233821755358599
1553188000.0 -0.04893212436779675 0.03909641725737257 0.05533232745701881 -0.1617202230775376 0.05509055789301364 -0.1610787688659354 -0.08845553586986717 0.03262820549570948
1553875000.0 -0.0501851672970161 0.0390384467288185 0.05189243054082081 -0.16287959968602092 0.05183622657594777 -0.1622483155031225 -0.08980628334895609 0.033001090683069424
1554562000.0 -0.051451812706851695 0.03898190902631494 0.0483101593446556 -0.16396324544366273 0.04854369828532897 -0.16329946880293547 -0.09118242945580379 0.033327764460084314
1555250000.0 -0.05264213770098234 0.03902834416908363 0.04484141629916719 -0.1649450231749735 0.04530293635757165 -0.1642803114798204 -0.09245053959551186 0.033469423270340186
1555938000.0 -0.05376581887872431 0.03899374522705699 0.04127010755592497 -0.16578249090509384 0.041922425358835856 -0.16524115784215535 -0.09390811331456052 0.03378349637346567
1556625000.0 -0.054848827386818774 0.039055373953787643 0.03781526036757014 -0.16646965739714248 0.03849540574789549 -0.16610160675734523 -0.09533710005533554 0.03401722158162948
1557312000.0 -0.05588572778017341 0.03907865784726075 0.03431838538328741 -0.16704533503580374 0.035067600744145264 -0.1668823228092239 -0.09679025186219396 0.034278654720820104
1558000000.0 -0.05703673145212136 0.03906738479936044 0.03072010070824921 -0.16748938461287788 0.031593961245078496 -0.16760428836123767 -0.09823742151014833 0.03460148837605104
1558688000.0 -0.05808402605839584 0.03901386923069404 0.02728539175125405 -0.1679677516984368 0.02807023509249107 -0.16814066115297066 -0.09972475287149166 0.03488828612282424
1559375000.0 -0.059193655714598864 0.03896672725720338 0.023855911981935946 -0.1682784613055697 0.024496112054576972 -0.1687609923676964 -0.10118280544250838 0.03525733739609106
1560062000.0 -0.060288878762555925 0.03891530609561266 0.02041412283656803 -0.16856435724355232 0.02094374046100954 -0.1692564977459347 -0.1025238187924897 0.03554128093757411
1560750000.0 -0.06150964803499854 0.0389022728227472 0.016906723135171824 -0.16873315536813313 0.017332064207702304 -0.16953138613776608 -0.10396211966337472 0.036027255760383604
1561438000.0 -0.06284594692286771 0.03887587538902316 0.013488222089089605 -0.16883664555020056 0.013748050088910323 -0.1698536962550206 -0.10523069862834372 0.03654468345653517
1562125000.0 -0.06415428852624866 0.03898379831980677 0.010044274250602392 -0.1689510447566483 0.010191758616841316 -0.16999219193021547 -0.10645588538154249 0.037108064910729294
1562812000.0 -0.06556808859855204 0.03909741463769755 0.006761644875092666 -0.16897525000626762 0.006692223694698695 -0.1700679792927725 -0.1076420144755709 0.03766983723349788
1563500000.0 -0.06702559252622081 0.039273820834308214 0.0035258997568724413 -0.16889635590114652 0.003160491096523178 -0.1700100609326896 -0.10873144159457719 0.03834160249663656
1564188000.0 -0.0685561777644509 0.03955884047296404 0.00020228680088594324 -0.1689372207123799 -0.0003170407389508666 -0.16988084703204803 -0.1098308337195186 0.03901499901635474
1564875000.0 -0.07006910912959698 0.039928722952901015 -0.0032340762322179634 -0.16884827719206033 -0.0037799229840687625 -0.16966972143316544 -0.11086834315964374 0.03985263945152963
1565562000.0 -0.07164319801735909 0.04035693057101662 -0.006477227260305454 -0.16869714779201042 -0.007230230032937354 -0.16941243372972112 -0.11176283571549112 0.04055020424161546
1566250000.0 -0.0731822194585477 0.04094697702350196 -0.009758215057596128 -0.1684475609281464 -0.010616962072187664 -0.16902831624797982 -0.11262645803317392 0.041529451551844884
1566938000.0 -0.07473124673304951 0.041523610550062165 -0.013160202401151674 -0.16828130647485612 -0.013924899578013867 -0.16857907597641478 -0.11348617408521262 0.0423926359754396
1567625000.0 -0.076223790538533 0.042176048964543675 -0.01645604373095138 -0.16796219937223367 -0.017272370218619396 -0.1681472604986464 -0.1142907272561513 0.04332804489486461
1568312000.0 -0.0777852465275651 0.042851027621743226 -0.019799821739269276 -0.16763336127860298 -0.020517311582228585 -0.16766576422171406 -0.11505519475373428 0.04433607516205935
1569000000.0 -0.07917288472110982 0.04366201450597668 -0.023098770067215963 -0.16726858796605226 -0.02385511612980734 -0.16704523392534448 -0.11582699571425835 0.04536910220868367
1569688000.0 -0.08050700247897191 0.044404241901467044 -0.02649494972787493 -0.1667670893828849 -0.027109249167918372 -0.16647411233800605 -0.11654954125987516 0.04642510744242448
1570375000.0 -0.08185542788680673 0.045181247883040995 -0.029907471584744067 -0.16613802213411258 -0.03041159918404272 -0.16586348476897575 -0.1172472657870422 0.047451320685840195
1571062000.0 -0.08316901114145307 0.045933216324260326 -0.0332961664843615 -0.16551541793072577 -0.03363866327665994 -0.16517792847418447 -0.11801582019305527 0.04843407695817335
1571750000.0 -0.08442166001436908 0.046720781265605325 -0.03668653038513945 -0.16468875883714748 -0.036941536454679444 -0.1644921662940078 -0.11879764679561423 0.04955911895216653
1572438000.0 -0.08567406257732095 0.04740510910796867 -0.04004756942899968 -0.1638391700941918 -0.04017147404574733 -0.16365276860679298 -0.1195015877998221 0.05055214040202459
1573125000.0 -0.08695300937736979 0.048070588448391786 -0.04332625961363715 -0.16294175725404011 -0.04349577889767819 -0.1627855335955703 -0.12032067457203781 0.05158030785520153
1573812000.0 -0.08815172045767085 0.04869430388315306 -0.04670827971349627 -0.1618693816626113 -0.04677709365594673 -0.16185215109467427 -0.12118249311902389 0.05255496751063183
1574500000.0 -0.08941473570665423 0.049404508111093676 -0.04997256354392058 -0.1607728304025377 -0.049966794897233574 -0.1608161306976095 -0.1220132068011323 0.05358328416361616
1575188000.0 -0.09064727557980777 0.04994411645696815 -0.053291352623286506 -0.15960535385025892 -0.05325498535939394 -0.15968609870551323 -0.12280963024718111 0.05466450238446437
1575875000.0 -0.09203119656023573 0.050598447185023994 -0.05645029513478515 -0.1582481332772057 -0.05651963380845197 -0.1585080677512627 -0.1237698279187529 0.055623178401461
1576562000.0 -0.09327157284058649 0.05109770378460529 -0.05963892341279712 -0.15692252707582577 -0.05969554563477192 -0.15717501613193313 -0.12457861344195313 0.056633683257316714
1577250000.0 -0.09462710586721214 0.05181333915189134 -0.06275867130707774 -0.15548954078236296 -0.06286949933871902 -0.1558144718615916 -0.12538500501093475 0.05770083520058585
1577938000.0 -0.09594730526276428 0.05247341007083171 -0.06590166540021539 -0.15404119810112482 -0.06604512862155303 -0.1542973264847344 -0.12619348831237173 0.05868875870996721
1578625000.0 -0.09718985415407283 0.05316461193124245 -0.06884275804229263 -0.15249602150379493 -0.06911087651621067 -0.1526963662387638 -0.12702713170556765 0.05985835279245711
1579312000.0 -0.09855425345093807 0.0539030657683657 -0.07182868821835532 -0.1508502815486625 -0.07215265235395132 -0.15103849413913095 -0.12785854799494528 0.06076347827014402
1580000000.0 -0.09981106357433693 0.0546894883676223 -0.07479413991415125 -0.14919143244028996 -0.07509509409867174 -0.1492774986025329 -0.1287098113522369 0.061889157081522955
1580688000.0 -0.10101665598437018 0.05550091659207379 -0.07766138188246186 -0.14746170052057758 -0.0780286725374156 -0.14751287049487438 -0.12946166615486557 0.06296923025805617
1581375000.0 -0.102215003661654 0.05638039754905412 -0.08047422933553093 -0.1458208936265287 -0.08088564678221292 -0.1457359975856743 -0.13025890100415924 0.06392541088929539
1582062000.0 -0.10338385087636988 0.05728329833679829 -0.08334120283231428 -0.14399770691988972 -0.08366280643471835 -0.14395348887758364 -0.13094057159601438 0.06495708376960853
1582750000.0 -0.1044484548908023 0.05821354783281346 -0.08606705752173854 -0.1421508121067803 -0.0863843155918357 -0.14206389828642235 -0.13161492397799013 0.06596207818429459
1583438000.0 -0.10538629402400908 0.05920716328419695 -0.08869807209967925 -0.14032316491847283 -0.08902312315779426 -0.1401359028994711 -0.13229739482724145 0.06695225728178757
1584125000.0 -0.10631937815490647 0.060178091908031445 -0.09143574182729852 -0.13830067875149343 -0.09164838779704737 -0.13824131975478132 -0.13288432933504976 0.06798739271659006
1584812000.0 -0.10714722947749959 0.06123219072260433 -0.0940678665475292 -0.13640805269573422 -0.09420430370518941 -0.136302273350905 -0.13340243957586778 0.06885053246923867
1585500000.0 -0.1079847372333535 0.06215640270383337 -0.09656665494168401 -0.134491938167584 -0.09670383159750609 -0.13434360866291142 -0.1338569263321215 0.06981480358808989
1586188000.0 -0.10857319859707296 0.0632259465538782 -0.09906949000374927 -0.13231936535310046 -0.09916218226745081 -0.13235694506940082 -0.1343138489491001 0.07074234636901593
1586875000.0 -0.1092696384564104 0.06421391888630189 -0.10152609823172108 -0.1302572660823364 -0.1015522461321882 -0.1302912223904277 -0.13469071597947754 0.07158704949284303
1587562000.0 -0.1098749654956012 0.0652805865225439 -0.10399057314084617 -0.12815418352369493 -0.10401065800389644 -0.12821566023489483 -0.1351014329883632 0.07245521303755173
1588250000.0 -0.11045994413466959 0.06629948667167733 -0.10640763594920549 -0.12597666865434035 -0.10636068570845462 -0.1261368299971227 -0.13536386275456117 0.07338763253466209
1588938000.0 -0.11092767045677233 0.0673167997227547 -0.10869457205186715 -0.12372926582979568 -0.10876142739899329 -0.12397602891372254 -0.1356432032024037 0.07420782733105917
1589625000.0 -0.11148835285066791 0.06831045901900638 -0.1109987314629614 -0.12157385869010465 -0.1109782230279446 -0.12178500018401274 -0.13589921366781038 0.07510363507852737
1590312000.0 -0.1119190790582748 0.06932119871688992 -0.11313688674672014 -0.11926552270012102 -0.11323337746473211 -0.1195593141907369 -0.1360885742749754 0.07591542837695123
1591000000.0 -0.11236868479021102 0.07040128971257124 -0.1153255479177048 -0.1169730291725073 -0.11554028565999758 -0.11725296441987582 -0.13625604416232726 0.07681053781461195
1591688000.0 -0.11287000271093921 0.07139835653562661 -0.11741758881654124 -0.11461841572109607 -0.11768080889075075 -0.11492305624526128 -0.13643452968441894 0.07767377929012009
1592375000.0 -0.113252206628603 0.0724125119123431 -0.11950657978552018 -0.11229848827709615 -0.11979367696792174 -0.1125671204942036 -0.1365129326027065 0.07856802702585651
1593062000.0 -0.11364670504056185 0.07351289443035314 -0.12151309895862662 -0.10982275127849112 -0.12190015550240998 -0.11018615909851806 -0.13666639303126643 0.0795064008325703
1593750000.0 -0.11408982952883492 0.07457286173650132 -0.12359067658052966 -0.10742840662098457 -0.12400570048872152 -0.10777974960728585 -0.1367865413281673 0.08044412938963921
1594438000.0 -0.11445462946483252 0.07564080559790586 -0.12553950458586474 -0.10511891269254678 -0.12600876041840484 -0.10529194485351752 -0.13687174817292058 0.081385106950504
1595125000.0 -0.11478371489649651 0.07678470348937524 -0.12741657840435877 -0.10261775694663859 -0.12793264740657456 -0.10280045606604839 -0.13694377441724034 0.08237191952750998
1595812000.0 -0.11512054340054838 0.07780801221857024 -0.12929890161467208 -0.10006630376969651 -0.12983704572939656 -0.10029166303566502 -0.1369985896810431 0.08341873298475036
1596500000.0 -0.11547960554604922 0.07894777012115575 -0.13106432884986705 -0.09764850062203034 -0.13162638962013068 -0.09766180373306647 -0.13710018422056908 0.0843696338955045
1597188000.0 -0.11574420069976249 0.08013727210709927 -0.13274345285486489 -0.09505731953979181 -0.13338512687170626 -0.09511819685985085 -0.13719042925515773 0.08552536743403835
1597875000.0 -0.11596346493892934 0.0811412478398426 -0.13443682661112358 -0.09243649168108789 -0.13505975949526702 -0.09248346787467636 -0.13732087044997698 0.08662843265787286
1598562000.0 -0.11623978268466634 0.08226020180212112 -0.13616040082618744 -0.08988312952741874 -0.1367225561577243 -0.08981378673351101 -0.13748524589145208 0.08781276093748189
1599250000.0 -0.11640100531750198 0.08338218463782368 -0.13780143952202856 -0.08720766541000327 -0.13832070017235495 -0.08711334703662064 -0.13756885716349926 0.08884444664094854
1599938000.0 -0.11651939025855741 0.08452723780162864 -0.13930125770503787 -0.08448996086140839 -0.13990618538988367 -0.08431783933287117 -0.13774769947208043 0.09008668439650559
1600625000.0 -0.11669690518623899 0.08564537274666674 -0.1408754015111432 -0.08175635951109893 -0.14143398555893247 -0.08162284062274598 -0.1379030831852159 0.09128958739957811
1601312000.0 -0.11675208391396802 0.08674225500395732 -0.1424699782514546 -0.07902916290085442 -0.142905179238448 -0.07881538549873532 -0.13811377050850798 0.09248218759742387
1602000000.0 -0.11687630211885362 0.08785778239165996 -0.14374847836451113 -0.07634826333675779 -0.1443431876377088 -0.07601012994665854 -0.13835665423077914 0.09373479265635974
1602688000.0 -0.11687287128446962 0.08888473196965449 -0.14517029066471834 -0.07354531216779243 -0.14567071012361524 -0.07321064981467036 -0.13855763959356152 0.09473992507203459
1603375000.0 -0.11689975472069393 0.08997709123570881 -0.14657609108444553 -0.07080135864489197 -0.14703653007415543 -0.07035877759346192 -0.13886135145179346 0.09596275424575124
1604062000.0 -0.11684053620294912 0.09099596935253307 -0.14786585377610909 -0.0679602957731003 -0.14836091496788467 -0.06746923977907389 -0.1391547136309661 0.0971435424134985
1604750000.0 -0.11682965560664219 0.09200900389706373 -0.14921338813629237 -0.06514688729306146 -0.149527679438342 -0.06460497876228052 -0.13936653131097299 0.09822241699172969
1605438000.0 -0.11675469390511391 0.09301769540271163 -0.15044768371790637 -0.062213464995976804 -0.15070637956895305 -0.06173762958481708 -0.1397483680409757 0.09920413830649699
1606125000.0 -0.11662929671362596 0.09400560334957986 -0.1516665939731075 -0.05941641483053012 -0.15183540449939054 -0.05881703606026503 -0.13992950386757558 0.10018888914283597
1606812000.0 -0.11653165246289396 0.09499293314287019 -0.15282841680728146 -0.056449890056861005 -0.1529243703315616 -0.055928857306008516 -0.1402845216617912 0.10125519456105228
1607500000.0 -0.11638414986706717 0.09632284105496815 -0.15429130349550893 -0.05340624202460468 -0.1542764968999756 -0.05278734530929065 -0.14017367953770624 0.10210898004238735
1608188000.0 -0.11615812619121935 0.09722871712203102 -0.15534929176027606 -0.05043977122527536 -0.1552213818075817 -0.049765487650683754 -0.14038859814776994 0.10301389468408123
1608875000.0 -0.11590474516554915 0.09818377920183878 -0.15655139112551286 -0.04741637864258046 -0.15620628114858803 -0.04683416821835907 -0.1405448664820314 0.10414840117097669
1609562000.0 -0.11575882089283897 0.09902285857027542 -0.15737085097362138 -0.0444201333167417 -0.1570650943707751 -0.04392374231779918 -0.14052906949185895 0.10499767296975909
1610250000.0 -0.11558902311340716 0.09981812016422566 -0.1583292564291866 -0.041382326723851885 -0.15784217817585486 -0.040965969067219166 -0.1407591461376217 0.10594190352397609
1610938000.0 -0.11534070246599655 0.1006770280277935 -0.15915164923113412 -0.03815556843290341 -0.15859094757396597 -0.037977498254509 -0.14059836910648638 0.10688722304551097
1611625000.0 -0.11506105005757435 0.10148536570534775 -0.15991306103527778 -0.03496701988136365 -0.15939013589357853 -0.03499139377935343 -0.14053290515039202 0.10780226980183602
1612312000.0 -0.11477044653310266 0.10227083315704881 -0.16056379608513016 -0.031847040789614714 -0.16005801721658097 -0.03194741370726348 -0.14027093324582576 0.10860543673258412
1613000000.0 -0.11464079903846058 0.10315018780184801 -0.16114977042090609 -0.02850574735638665 -0.16074967142421726 -0.028886031203893266 -0.14001201225571083 0.1095808365221786
1613688000.0 -0.11448175727820804 0.10394625834804201 -0.16160765763704574 -0.025336668566241737 -0.16125820750559364 -0.025847371434639006 -0.13954483019153474 0.1104742596102428
1614375000.0 -0.11420410963624154 0.10479600044435815 -0.1619380835116601 -0.02196266004930657 -0.16181462174118388 -0.022743182417901343 -0.13933190276440602 0.11136958163326534
1615062000.0 -0.11396265165354047 0.10564047944937456 -0.16218787313280447 -0.018753561894129658 -0.16229071023707378 -0.019547056204201035 -0.1386154977531707 0.11244267990908002
1615750000.0 -0.11381216958118406 0.10646697249168031 -0.16246798254511713 -0.015599884908021543 -0.16267538029193118 -0.01632632010438905 -0.13815573644752482 0.11359219737412687
1616438000.0 -0.1135978992991657 0.1073829546769926 -0.1624282348553914 -0.012299890603773804 -0.16300459851955934 -0.013155870658744245 -0.13738227609231002 0.11471274334488947
1617125000.0 -0.11337073300069724 0.10839988282715975 -0.1624076318375229 -0.009129353650036543 -0.16321832037578057 -0.00993922096267675 -0.13665013145591964 0.11566098936938748
1617812000.0 -0.11317179789527473 0.1093251481435189 -0.1624879852076919 -0.006007928368727698 -0.16338327358172663 -0.0067347461199076765 -0.13625974790369183 0.11688638608666785
1618500000.0 -0.11289636947727974 0.11026637689452227 -0.16234105536664367 -0.0030380994980848852 -0.16343205089858528 -0.0034113383183675787 -0.13553362837812227 0.11806516823703618
1619188000.0 -0.11271362317055325 0.11121344344518692 -0.16218476909491478 1.3452272066066158e-05 -0.1633877738614008 -0.00025782702922940565 -0.13497363349174038 0.11911990826638107
1619875000.0 -0.1123979428114339 0.1121644161363339 -0.16206440961626978 0.0029743805499281555 -0.16328784585650155 0.00309013620661646 -0.13432899159680933 0.12022102511149042
1620562000.0 -0.11216120423774836 0.1131269305071461 -0.16181023740300246 0.005907149338415592 -0.16304653518666157 0.006267575737816397 -0.13382586642822675 0.12152977973632749
1621250000.0 -0.11180617461353735 0.11413367133823986 -0.16141359846105235 0.008837418273259586 -0.16273994109861303 0.009438697713112608 -0.13316428443004735 0.12254132650141017
1621938000.0 -0.1115062975811426 0.11500729038677139 -0.16116290469563976 0.011685341750662308 -0.16244194588580058 0.012579045789125864 -0.13275022582108859 0.1236978164000666
1622625000.0 -0.11118585394484728 0.1159274760023287 -0.1608596779839966 0.014559797281279187 -0.16196229205186352 0.015695451316019557 -0.13243442482084367 0.12495546799312338
1623312000.0 -0.1108719372070455 0.11677519603297598 -0.1604715128739768 0.01739986032684035 -0.16144970012989404 0.01886460415871414 -0.13211519147421663 0.12607059941357388
1624000000.0 -0.11050950668675039 0.11759056710483375 -0.1603002668977851 0.02042579199233678 -0.16100692951664733 0.021849237076343415 -0.1316103940700343 0.12721513567251377
1624688000.0 -0.11032356701148538 0.11840601910471478 -0.15998659640965404 0.023297003820143967 -0.16052892901856516 0.024830173116671517 -0.13130984614996638 0.12830536595357378
1625375000.0 -0.10998812260392635 0.11912984697099936 -0.1597149087160515 0.0262313902591702 -0.15990999972257502 0.027867971129318884 -0.131232639893398 0.12927089044291315
1626062000.0 -0.109743575087055 0.1197711087189369 -0.15940996233439447 0.02936023455925669 -0.15933837425521385 0.03085978119885274 -0.13103985196724216 0.13050690783758
1626750000.0 -0.10954195263913315 0.12038710667765941 -0.15897506324333793 0.03235481524725671 -0.15869338126239738 0.033769597544770914 -0.13119407377317674 0.13148093337401212
1627438000.0 -0.1095122872651472 0.12110041666201886 -0.15848519099707317 0.0354266012647059 -0.15804413542540224 0.03683424326458923 -0.1310835389570663 0.13249038083747272
1628125000.0 -0.10945651420212141 0.12178767340550421 -0.15813743739989944 0.03860821008076387 -0.15738703534021764 0.039753729641163076 -0.13125783911635794 0.13340321964461044
1628812000.0 -0.1094100596522533 0.12235839025496052 -0.15767549802205202 0.04183885956088019 -0.15667089641668555 0.04278075584903456 -0.13125947892738005 0.13439344668210582
1629500000.0 -0.10946039222612815 0.12303490337019377 -0.1569929090194898 0.04504809390704064 -0.1560600637014861 0.04569041295404268 -0.13111295192256384 0.1352341089600085
1630188000.0 -0.10946233008860372 0.12367895275919527 -0.15625305574602122 0.04831420808548641 -0.15516892110136843 0.04871058025056129 -0.13129918569992993 0.13591267114618072
1630875000.0 -0.10956864389225132 0.12434474706704299 -0.15553380509952708 0.05164868478898329 -0.15438043535832321 0.05180766531558817 -0.13125571044178672 0.13683077609638478
1631562000.0 -0.10964336548138527 0.12509138492581337 -0.15458003499707554 0.054971504246111365 -0.15347489750026155 0.05480508504483487 -0.13136765351152307 0.13735543396448693
1632250000.0 -0.10964306687044657 0.12580857817917507 -0.15337787363062685 0.05827575975188435 -0.1524872339936889 0.05799531055454017 -0.13105799911285482 0.13819679143953645
1632938000.0 -0.10976143662214115 0.12654456808286021 -0.15226779725556316 0.06160050084039106 -0.15144449720129785 0.06105328877318656 -0.13117163889503558 0.13855742077368852
1633625000.0 -0.10975805903381812 0.12746040197909864 -0.15091951941035284 0.06482535691516177 -0.15037629883123538 0.06417855561745155 -0.13081885957249617 0.1394527179686585
1634312000.0 -0.10974519080928882 0.12823286717528476 -0.14939612838662275 0.06795569324005078 -0.14907606805841414 0.06723710075815352 -0.1305373258812254 0.13994772356041751
1635000000.0 -0.10966354522722482 0.1289867722698057 -0.14780525633791383 0.07105820165073504 -0.14771131872953322 0.07026855180123785 -0.13032623664477325 0.14045371881153446
1635688000.0 -0.10959189591007078 0.12984347841356342 -0.14605222930137826 0.07403778283771469 -0.14615252055036201 0.07332978651495245 -0.1297731100715902 0.1409800658915086
1636375000.0 -0.10938965157417288 0.1306171592253547 -0.14424499834168417 0.07691973973506351 -0.14464956360570969 0.07630600038447272 -0.1294429417317109 0.14162109093598393
1637062000.0 -0.1093476725186348 0.13137808023523864 -0.1424351511140385 0.07981696766101082 -0.14308206348464497 0.07931315240315676 -0.12878113469300004 0.1422565919603127
1637750000.0 -0.10918494213348477 0.1321897176468319 -0.14059298551147398 0.08245278438780007 -0.14128688086231433 0.0821520427182886 -0.12839439107867787 0.14261735432914843
1638438000.0 -0.10895974012794665 0.13296113737716553 -0.13862763766460012 0.08509823518660102 -0.13941649388677582 0.08488810061388286 -0.12786181051347476 0.14315148373234804
1639125000.0 -0.10877145849726885 0.13366331688303523 -0.1366264682308594 0.08754974990444211 -0.1375522504269481 0.08768443764277997 -0.1274568851632872 0.1437544772133772
1639812000.0 -0.1085695216046619 0.13426112209122307 -0.1346016059606608 0.09003738598561123 -0.13559507996558287 0.09018572147264499 -0.12677343048724213 0.1444418996975551
1640500000.0 -0.10845478871928586 0.13492461888029078 -0.13267539079883395 0.09229942908039937 -0.13358094446143354 0.09272075588357845 -0.12622509556875824 0.14500348832756518
1641188000.0 -0.10840804528314489 0.13552450702145222 -0.13086902582799215 0.09464165255105145 -0.13175832247996455 0.09526752022652653 -0.1260890790913503 0.14564668803910424
1641875000.0 -0.10838026901210528 0.13617478038643835 -0.12908623367574348 0.09699661404861189 -0.1297649179351645 0.09754210379026541 -0.125901483875884 0.14632653902647744
1642562000.0 -0.10839260557869727 0.136829468609904 -0.12716537496416394 0.09915466696046667 -0.12774819938241094 0.09980330868037643 -0.12550907192329108 0.14693011783064677
1643250000.0 -0.10846146742621093 0.13742633359490358 -0.1253345745479335 0.1012696065046603 -0.12577452968115757 0.10215017532385173 -0.12537805387393605 0.14742433564772564
1643938000.0 -0.1086024332065028 0.13809181066024084 -0.12345024605389258 0.1034746568539734 -0.12378838269894687 0.10438614292111931 -0.12528326043373142 0.14816631087006232
1644625000.0 -0.10884461598046978 0.13883071857511087 -0.12159233894214155 0.10567266733362427 -0.1218489127853703 0.10664476341213634 -0.12515555657867808 0.14884287490548104
1645312000.0 -0.1091495773781767 0.13965381789804604 -0.11975787158296514 0.10797184433217269 -0.1199595787498041 0.1089698069145469 -0.1253918559596212 0.14966706489053677
1646000000.0 -0.1094834894650369 0.14047476892975444 -0.11792831823336034 0.11021394798987488 -0.11794693805623539 0.1112490639704036 -0.12558100216272192 0.15038810758085544
1646688000.0 -0.10975680461765085 0.14144569849954586 -0.11592214155304864 0.11252762808984738 -0.11587994467431961 0.11351367983635653 -0.12578909150627765 0.15120981286514842
1647375000.0 -0.11020150955387446 0.14252716693222112 -0.11386211396806349 0.1147478348999395 -0.1138286958321039 0.11588863267137318 -0.12616910498042347 0.15205693533928877
1648062000.0 -0.11046208975764833 0.14348954645835602 -0.11183749692421649 0.11706006577908298 -0.11165663030699002 0.11815242113777526 -0.1265093258723031 0.15290279886053557
1648750000.0 -0.11078848740411681 0.14459769542316653 -0.10959567439217942 0.11934229319995046 -0.10944857827986601 0.1204797885170438 -0.1271089486564752 0.15381842846136923
1649438000.0 -0.11111607593952055 0.14582363928712044 -0.10742414431250945 0.12163016841892256 -0.10703416149902653 0.12285680476540864 -0.12748885176019314 0.15455610275673243
1650125000.0 -0.1113896488696545 0.14696295615906757 -0.10498691804906408 0.12395678238761801 -0.10462316269281349 0.12508493303825963 -0.12809592730208155 0.15538462541404444
1650812000.0 -0.11169067664623421 0.14817427740564978 -0.1025888909378352 0.12623566579818976 -0.10209861075640074 0.1272779789780718 -0.12859410645008382 0.15610867930825734
1651500000.0 -0.11192823179518097 0.14936000343147887 -0.10030043806156923 0.12852816434062192 -0.09950020862511294 0.12940091009404928 -0.12912479086880202 0.1568132144054382
1652188000.0 -0.11213956717564019 0.15041247509551145 -0.09763235627291336 0.13054994561571442 -0.09671974213275628 0.13146650630407616 -0.129588235052838 0.15744172644873236
1652875000.0 -0.11235781153568743 0.1514884372609424 -0.09496557317887155 0.13269906423960745 -0.09400969415040011 0.13342184250117828 -0.1299765250796862 0.15803882677305153
1653562000.0 -0.1125247709713177 0.15258857325034464 -0.09221941699201426 0.13483003035561436 -0.09116481720079084 0.13530120644656538 -0.1302691179708991 0.15863060220850014
1654250000.0 -0.11287531144412406 0.1534458248615042 -0.08944940352395768 0.13666279421019442 -0.08824323306738464 0.1370568137012018 -0.1305353262427633 0.15910328631646892
1654938000.0 -0.11314260774791705 0.15433259706492755 -0.0865167887718831 0.13853769869977123 -0.08533020569514513 0.1385882158247026 -0.13074005189898408 0.15954378301638797
1655625000.0 -0.11348252315671478 0.15528964800749961 -0.08358081125204271 0.14032951835447707 -0.08237135168356532 0.14012739473715635 -0.13077992501612212 0.1599204688745768
1656312000.0 -0.11391953309893427 0.15610012825534147 -0.08065715622374173 0.1418168388910096 -0.07944004995322804 0.14153736448203896 -0.13078489010166996 0.16021533574210237
1657000000.0 -0.11437488708590823 0.15696071326313607 -0.07761077820306629 0.14338356609533648 -0.07659351652296523 0.1428460395392327 -0.13081225635405333 0.16075740095911648
1657688000.0 -0.11480998130564916 0.15770281096964692 -0.07467232277128387 0.14483631382196288 -0.07369647251157416 0.144121909824579 -0.13063248427949342 0.16106805222377793
1658375000.0 -0.11543014969403025 0.15853174740751225 -0.0715985817693062 0.1461856982435248 -0.07084700920504976 0.1454091040811856 -0.13050641519603925 0.16143802555923537
1659062000.0 -0.11603678680658489 0.15931366073365116 -0.06843667855993404 0.14737698660211293 -0.06798740652582415 0.14648583243840416 -0.130282313155053 0.1618939489879764
1659750000.0 -0.11666983802710262 0.16035074690336798 -0.06535433027025192 0.14865587567769123 -0.06513004873223589 0.14769576250303443 -0.13008590044572682 0.1622951089374949
1660438000.0 -0.11737472485437055 0.1612584500647366 -0.0622008706468466 0.14980617394893841 -0.06236766854360168 0.14896531789495165 -0.12994909961620277 0.16293604775158793
1661125000.0 -0.11798937022195925 0.16222226153375344 -0.05913492083353914 0.15100543965019642 -0.05959976023290287 0.15007068612320412 -0.12970048211960308 0.16342890114691305
1661812000.0 -0.11871003687545366 0.16335094949356938 -0.0560630577166933 0.15198649499809214 -0.05679002055901755 0.15128196179823816 -0.12955262865171774 0.16403726330715993
1662500000.0 -0.11928551275159244 0.1644301680801502 -0.05305874629013638 0.15285813651734892 -0.053942624898214234 0.15242306595437755 -0.12943686856155776 0.16469178133021453
1663188000.0 -0.11979424894603505 0.16560955032384342 -0.049907762368218055 0.15388884212835688 -0.05114614229580982 0.15365474650207087 -0.1293897723102861 0.16548189796358165
1663875000.0 -0.12029859831186979 0.1668622529825023 -0.04685461930112623 0.1546412357680983 -0.04821365457479145 0.15468053754928573 -0.12937954408879976 0.16630781306163392
1664562000.0 -0.12073142690272548 0.16803100813279245 -0.04389297010160311 0.15549797188256936 -0.04514935319169725 0.15577456212029886 -0.1292896083292169 0.1672206066603214
1665250000.0 -0.12102528988850934 0.16930604094422888 -0.040797813229479514 0.1561864924591408 -0.042114768174688545 0.15682666143838916 -0.12934134161532812 0.168263386161024
1665938000.0 -0.12127200974916706 0.17049766528939703 -0.037815770242019736 0.1568746546311317 -0.039030934473436085 0.15790246032218808 -0.12943413178715546 0.16939199354382112
1666625000.0 -0.12152827927669946 0.17167526104195838 -0.03478336375235971 0.15744599462816466 -0.0358333395377087 0.1588990989280363 -0.12956265590913726 0.17062197133130722
1667312000.0 -0.1217008666841403 0.17286466407541964 -0.03183790240030129 0.1580427199778649 -0.0325219504838427 0.15964648264587494 -0.12986379510743867 0.1718182443515611
1668000000.0 -0.12184627045487774 0.17401124146015146 -0.028776708365263828 0.1585280281816101 -0.02919361939422069 0.16037030376661537 -0.13004164066574006 0.1731475968143027
1668688000.0 -0.12201693703531835 0.17513775621033548 -0.02593164857015072 0.15907959444655803 -0.025804713684047003 0.16098300229758947 -0.13040677283867985 0.17455678912125847
1669375000.0 -0.12216591350056288 0.17613349229784128 -0.022918491432940325 0.15939874845973184 -0.02243062283539817 0.16143024939429665 -0.1308068093555218 0.17590999638521018
1670062000.0 -0.12222809726781282 0.1772914941963466 -0.019813994033374558 0.15979671725400527 -0.01903399435600242 0.161764587348593 -0.13113752527644165 0.17728148895815557
1670750000.0 -0.12229047840407632 0.17832842523399348 -0.01675860596152499 0.16014141919445427 -0.015492534870886455 0.16194072301744158 -0.13146866425149284 0.17868231844409901
1671438000.0 -0.12248254996826388 0.17936455343953078 -0.01372408764222843 0.16044258853538101 -0.012150457078065767 0.16202346851107108 -0.13172718783516485 0.18000862412911642
1672125000.0 -0.12280211354561259 0.1804868831918948 -0.010684477900814164 0.16075834066978273 -0.008924316877092494 0.16202790537153008 -0.13234305291445608 0.18131124957178485
1672812000.0 -0.12291850590608983 0.18167899408651658 -0.007653025915340661 0.16092929779629755 -0.005576944850953023 0.1619464130299023 -0.13251479889926313 0.18246274795680348
1673500000.0 -0.12318773996500351 0.18284397174650885 -0.0045453316240746874 0.1611653527020289 -0.0023852158950003043 0.16177984797652362 -0.13275989816915568 0.18361452300911607
1674188000.0 -0.12341199182673071 0.18413162265875962 -0.0014909041040428307 0.16141896868180272 0.0006988536762288012 0.16156190650841826 -0.13296494694187516 0.18479411140992344
1674875000.0 -0.1236377083354667 0.18549321301170874 0.0017319161812881453 0.16157865163461296 0.0037998574339811564 0.16132703030750162 -0.1330654284166737 0.18577308208757556
1675562000.0 -0.12389597225319723 0.18691926956576335 0.004960096834405514 0.16162239183395968 0.006840127735139033 0.16093815374006967 -0.13298731977337355 0.18673540831659033
1676250000.0 -0.1240969883315366 0.1883389437698523 0.008100567642837748 0.1616276493522811 0.009773266910828754 0.16068068736140848 -0.13312704826903857 0.18790038402826514
1676938000.0 -0.12435748302831472 0.18997399946002472 0.011497668965768317 0.16152209422972647 0.012791746046543758 0.16029845648401683 -0.13294847155276768 0.18858430899205356
1677625000.0 -0.12452523261390037 0.19149326690409615 0.01465995978329975 0.16129435112899448 0.01563695385770658 0.1599862814434563 -0.132754746688289 0.18962366330931543
1678312000.0 -0.12472138248302735 0.19321255149679561 0.01793071235839352 0.16107817199672453 0.018567903938470527 0.15959519382243917 -0.13252864545971293 0.19046200429622817
1679000000.0 -0.1247199254590155 0.1948965387873573 0.021447742441617297 0.1607432405778442 0.0216029607872611 0.15923339477077122 -0.13231410285015102 0.19153754155152425
1679688000.0 -0.12473978091760743 0.1965744962957705 0.024667860761350593 0.16020963768952562 0.02457787358318303 0.15893445971133574 -0.13174457921048954 0.19239316830018102
1680375000.0 -0.12466270855140918 0.19827699173905244 0.02807519960938681 0.15967262175612554 0.027699946651441827 0.1585720181064501 -0.1314228941251245 0.19346855064738985
1681062000.0 -0.12455659707332592 0.19997217730028785 0.031380227935518035 0.15906221407686585 0.030815933821592978 0.1581863448482208 -0.1311635501556536 0.19455328276181613
1681750000.0 -0.12448698023817506 0.20151584560091187 0.03478491215244015 0.15834620549397407 0.03396124482867746 0.15764011324566626 -0.13061275596026029 0.1956465316152724
1682438000.0 -0.12438394321851981 0.20330830353326687 0.03813035011410157 0.15739447437534423 0.037195041927528046 0.15707331711649739 -0.13001660607003132 0.19692449983338253
1683125000.0 -0.12423817619486387 0.20483662229543953 0.04135935402857659 0.1564079589385947 0.04035154094225517 0.15637483420537407 -0.1296524878397804 0.19808764686293
1683812000.0 -0.12414643888468195 0.20658799201464065 0.044658376335370474 0.15536322056423973 0.04367821546123739 0.1557004965605249 -0.12909323321339064 0.1995186041747196
1684500000.0 -0.12397740575768651 0.20798558521022695 0.047691114462458155 0.15418338534590253 0.04694275677662654 0.15482159473315085 -0.12849066303815304 0.20091458173800417
1685188000.0 -0.12374924927495436 0.2096486831191662 0.05077337026823537 0.15306581407017603 0.05025621358348233 0.15388606545560043 -0.12800727288641883 0.20251912933713498
1685875000.0 -0.12361471454965126 0.21110368099683105 0.05386636997614502 0.15177769740134334 0.05340908790032627 0.15276355753311635 -0.1274415872667154 0.2041374090125184
1686562000.0 -0.12349373757956345 0.21267153216206683 0.05674175027169824 0.15039990884181478 0.056622047992793974 0.1515432760991828 -0.1266536300398906 0.20588476700896524
1687250000.0 -0.12337456987267573 0.21422343307474645 0.059650009762479694 0.1491035988405598 0.059760161466170525 0.1502132518916758 -0.12630976662467008 0.20801414066983542
1687938000.0 -0.12329793523319761 0.21574217166640652 0.062460960061195885 0.1477011650448845 0.06282849528625957 0.14885482433748576 -0.1257995082567359 0.20981408162261356
1688625000.0 -0.12319450210173992 0.21733260642779845 0.06518825293238141 0.14625022935276843 0.06577173203947231 0.14742377504182627 -0.12534129818372894 0.21195101412663092
1689312000.0 -0.1230179310192215 0.21897529109518787 0.06784983964121388 0.14481081808290977 0.06868090483656025 0.14583862661152383 -0.12474598780701514 0.21394321623633852
1690000000.0 -0.12282004866241372 0.22058847476326468 0.07056923798133924 0.14344285947349852 0.07149733359444889 0.1441945930936619 -0.12433165411537331 0.216086668952054
1690688000.0 -0.12265809555559622 0.222205817647368 0.0730564805689621 0.14201834540383915 0.074228035092787 0.1425911935624857 -0.12429415311298085 0.21821977621988045
1691375000.0 -0.12233710365449484 0.22392265488791108 0.07572577782651328 0.14039008924685556 0.07679280576187025 0.1408711311001229 -0.12391041044368084 0.2201474964825572
1692062000.0 -0.12204803084419844 0.22559236406380873 0.07821618723752735 0.13892938522006165 0.07947036531422337 0.13916647092251394 -0.12365696044005359 0.22222302482952241
1692750000.0 -0.1217288809510505 0.2272805288821087 0.080811532599634 0.137376233859313 0.08194038861031429 0.13738372714385969 -0.12330232279302522 0.22417553320102176
1693438000.0 -0.12130782790378188 0.2290284537717802 0.08318729485745592 0.13572919418672447 0.08439731254955561 0.1355465415681323 -0.12304197622192076 0.22566581699361477
1694125000.0 -0.1208181892818298 0.23076345925019806 0.08580513319503834 0.13411706163421536 0.08689080623831194 0.1338139153051157 -0.12274465070536607 0.22744268674339788
1694812000.0 -0.12031912218696052 0.2325300692644495 0.08832472438881626 0.1324672061819591 0.08925370750222937 0.13200077866694768 -0.12245361947916776 0.2291878523720856
1695500000.0 -0.11968048275426331 0.2342686144717893 0.09093447643350851 0.13056489542502933 0.09170920629307316 0.13018043168821464 -0.12208822075155695 0.23074430370340998
1696188000.0 -0.1190999920206967 0.23598444257349385 0.0933086883814557 0.12876953922715653 0.0940349101863726 0.12836514170873944 -0.1215781059019868 0.2321908856099384
1696875000.0 -0.11839604092144085 0.2376259096025325 0.09587245292113895 0.1270016400126105 0.09634971750300499 0.1265044528299864 -0.12107584566345377 0.23370366840016604
1697562000.0 -0.11761192302321963 0.23925093303279146 0.09826589523067515 0.1250245587452942 0.09876845775586746 0.12451767026234209 -0.12049999493982855 0.2349677506228803
1698250000.0 -0.11676274922334214 0.2411014827948703 0.10075098728932458 0.12302181669499282 0.10119091218100146 0.1225477941184176 -0.11992115296574733 0.23629323389040513
1698938000.0 -0.11597529846645419 0.24265427607638967 0.10319143015581302 0.12082073967738653 0.10352467032497428 0.12042975243077608 -0.11920460807193588 0.237570061720487
1699625000.0 -0.11514069641523256 0.24429565414186596 0.10555698147518486 0.11869346612123206 0.10576536303135388 0.11841314996374024 -0.11835378202451907 0.23886927121161172
1700312000.0 -0.11419170687552445 0.24593645870707914 0.10782519714545417 0.11650051809343491 0.1080969259847244 0.11623447661559413 -0.11754047831811294 0.24005503559872987
1701000000.0 -0.11324246480038633 0.24763134346204033 0.11013887874893129 0.11420041338541098 0.11043820645470369 0.11396005423751482 -0.116635703645512 0.2413313286773778
1701688000.0 -0.1122291753499079 0.24927752103658338 0.11241128800302327 0.11176723468767952 0.1126397635245793 0.11172723001787772 -0.1157811228444832 0.24263734218581576
1702375000.0 -0.11135414547487224 0.250883337856012 0.11455380713021772 0.10947831066583939 0.11480600465517844 0.10943382513611837 -0.11443713071086213 0.2440538385684727
1703062000.0 -0.11032433405230063 0.2526717105747407 0.11669677599896569 0.10707679744326984 0.11697103893856577 0.10693918876253541 -0.1135319505225065 0.24527460221454334
1703750000.0 -0.10930915079817709 0.2543549040264351 0.11867414809463724 0.10454426496965584 0.1190073177881164 0.10446367084938595 -0.11222423709592655 0.24674131091352747
1704438000.0 -0.10819281657119788 0.2559967554945641 0.12075311378746308 0.10202261750225997 0.12104838048998694 0.10190891332060674 -0.11095072558804298 0.24813802913916463
1705125000.0 -0.10704837984646011 0.25785072579267715 0.12268309614756338 0.09952697239861695 0.12310612376584353 0.09940001589377309 -0.10961645869464458 0.24974364920835138
1705812000.0 -0.1059313390529917 0.2595775361925018 0.12455243458642322 0.09691563284643104 0.12501674778219934 0.09677188546944122 -0.10820813446915471 0.2512867874044811
1706500000.0 -0.10486657634762932 0.2613190896769283 0.12639954364175224 0.094363491531698 0.12675014643410318 0.09416958903310013 -0.10683259064592175 0.2530188483390325
1707188000.0 -0.10360532998122196 0.2631133098799623 0.12815707104939997 0.09180801641366863 0.12849683318659583 0.0915889706505376 -0.10548783931691483 0.254762868858997
1707875000.0 -0.10238521716400611 0.264933166779213 0.1298245624112638 0.08917181654271504 0.13018072971505618 0.088864107685874 -0.1040749711239293 0.256499518047005
1708562000.0 -0.10109723485423236 0.26677071620837606 0.13151206781377126 0.08658070635155525 0.1318966574404443 0.08620368480715007 -0.10259825160609043 0.2585370329511819
1709250000.0 -0.09975822892439634 0.268598956028932 0.1330408559787129 0.08391564945511798 0.1334427799931509 0.08357842763460335 -0.10144279021972011 0.26041048930374544
1709938000.0 -0.0983705461997461 0.27047014497269545 0.13458806069147652 0.0812360465478124 0.13494680827522887 0.08087802636055313 -0.10022977155375776 0.26238528383631726
1710625000.0 -0.09717492029268217 0.27217544515500186 0.13606812137831026 0.07848496902002734 0.13637166847913115 0.07815750852905845 -0.09893452746151922 0.2643458856294402
1711312000.0 -0.09566185043451521 0.27401987520615145 0.13743931231716433 0.07576577976224165 0.13770813321136263 0.07544860027845804 -0.097685034701638 0.2662462837182273
1712000000.0 -0.09423543210462919 0.275966084128907 0.13884411773163674 0.07293282695797704 0.1389638764395665 0.07266825498182987 -0.09656740605027873 0.268302802242696
1712688000.0 -0.09288001600857912 0.2778131688745727 0.1400650271702555 0.07024229863552556 0.14024158997778846 0.06990833575420818 -0.09546132359984551 0.2700575068086203
1713375000.0 -0.09144876149476126 0.279637187637375 0.14132675193960198 0.06748141055820556 0.1414094260874635 0.06715550527828808 -0.09434367640320965 0.27194287190624766
1714062000.0 -0.08992129304624955 0.28126054628696456 0.1424618302516104 0.06465567779480726 0.14255395303457727 0.06442692908960324 -0.09334055256027608 0.2737293228965062
1714750000.0 -0.08854206106939021 0.2831710825128921 0.143523743962019 0.0617871358591023 0.14358615846986023 0.061602106881965844 -0.09222730743357772 0.2753143893886288
1715438000.0 -0.08692225960995172 0.2848901199116374 0.1445091053832101 0.05893305743604154 0.14455218473023063 0.05871424134586867 -0.09121527717102007 0.27696110608290003
1716125000.0 -0.08547821666103905 0.2867248401113577 0.14546149702056033 0.055945740228802214 0.1455219717197643 0.055969626542032275 -0.09010214390335342 0.2785123119991403
1716812000.0 -0.08387040676061246 0.288481589336524 0.14634091268078456 0.053049028412433745 0.1463420685953506 0.052998118859174034 -0.08901603711246045 0.2800651998557951
1717500000.0 -0.08220021795526866 0.2902283827340787 0.14714005265419466 0.05005755046713232 0.14716301515492233 0.050184480883189914 -0.08785569648600841 0.2814230714132366
1718188000.0 -0.08055707125103394 0.2919802192524095 0.14790602043185092 0.047188326798606614 0.14797076076485188 0.04725348406754557 -0.08661279660161257 0.28288857677458495
1718875000.0 -0.07892770709401795 0.2937737181235347 0.14861719801966783 0.044261957938546925 0.14877218683737017 0.04436868985027872 -0.0853435009196621 0.283980867009397
1719562000.0 -0.07718350078260258 0.2953632848720174 0.14927594797390656 0.041194541512655655 0.1493861562091302 0.04147280099080067 -0.08401637405589509 0.28536325475997515
1720250000.0 -0.07547377611908573 0.29714410485032694 0.1497602677056399 0.0383282597893015 0.15001854316981764 0.03848880345986962 -0.08262774889372317 0.2866157315220557
1720938000.0 -0.07380431459386005 0.29870828404424027 0.15024869306115576 0.03529875699439855 0.1506395741676078 0.03550635452964407 -0.08112345900994228 0.2877224152657195
1721625000.0 -0.07203649823689558 0.3003153224197277 0.15069858060259253 0.032353524269781594 0.15118921874728983 0.0325616222785581 -0.079461815780102 0.28892159351778807
1722312000.0 -0.07020623306421168 0.30186519274597085 0.15112769364558173 0.02940198879587704 0.15171738988012154 0.029560512894395253 -0.07787479250755135 0.29005888471224334
1723000000.0 -0.06828940137035783 0.30346722466491494 0.1514525208008146 0.026380277102440248 0.15215021601991763 0.02654585968037025 -0.07620174000673925 0.2911644237055197
1723688000.0 -0.06654493779868453 0.3050299705359325 0.15179361172962016 0.02351698887262097 0.15259712291285235 0.023530385287435958 -0.07445323378073655 0.29220368999549373
1724375000.0 -0.06480145741005318 0.30654244339204845 0.15195514670548552 0.020549672709690946 0.1529281447033447 0.020503069639222465 -0.07253435936256926 0.29337164119038117
1725062000.0 -0.06286285206672029 0.30816302619579894 0.15221880949071173 0.017552137337767306 0.1532732674857137 0.017460097071764838 -0.07044265047728888 0.2944819256350662
1725750000.0 -0.060827360782194875 0.3096652587955205 0.15249089454036352 0.014693829869274073 0.15348110369259882 0.014404064718321681 -0.06847727115833152 0.2955787281371631
1726438000.0 -0.05904750564846684 0.3112490528265553 0.1525672327489982 0.011836533862702689 0.1537088263461577 0.011368307450296494 -0.0664679260305032 0.2966317557852007
1727125000.0 -0.05702933525199938 0.312696869754643 0.15267685657982852 0.008857098515784678 0.15370677981392716 0.008310405871334955 -0.06440291629572298 0.2976408197309972
1727812000.0 -0.05504250468879517 0.3142296213314969 0.15277670325489984 0.005991345014995394 0.15370396240458015 0.005232581946610547 -0.06218906880730746 0.29907828456282903
1728500000.0 -0.052970782648734026 0.3157861604740401 0.15267690379355964 0.003189625672819262 0.1536231476115727 0.0020869343663880227 -0.06015423723981688 0.3001212689479119
1729188000.0 -0.05102108871262991 0.31715944068626784 0.15260637774908478 0.00039740015315880585 0.15338294103807354 -0.0009675953851623458 -0.05792361273477406 0.3014240227290106
1729875000.0 -0.04870140972778703 0.31878754191906594 0.1527393558942817 -0.0025165037945144293 0.15314981718018933 -0.003918491585598766 -0.05574758610315117 0.3027869221659937
1730562000.0 -0.04659048514530456 0.3201055833974618 0.15269616323725627 -0.005469498475301032 0.15292059756100823 -0.006872272692451832 -0.053624890856980995 0.3041984129201405
1731250000.0 -0.044428483407985594 0.32161036769300094 0.15269119873820008 -0.008282368172017895 0.1525664379794664 -0.009747939004795217 -0.05159253047900424 0.30561039962150655
1731938000.0 -0.042101688938909414 0.3228725447246209 0.15238436342509984 -0.011175092761692687 0.1520404492147894 -0.012601934979776935 -0.04954509681391626 0.3067486650327584
1732625000.0 -0.03975366277337205 0.3242798100527663 0.15216257157083848 -0.014139684569089787 0.1516262410057436 -0.015440485072091167 -0.04765161947093136 0.3080994511486666
1733312000.0 -0.03747227464960736 0.3256522968126905 0.15187678687276285 -0.016933146276369274 0.15117069641664058 -0.018166681157328786 -0.045725658212965814 0.30954223653473695
1734000000.0 -0.0353850699165947 0.3267384889961028 0.15159121373238474 -0.019935553968562957 0.15064845519022746 -0.020806682929166247 -0.04372902322567014 0.3108505067991031
1734688000.0 -0.03285762303856146 0.32802141645412314 0.15126682143788364 -0.022925347587230294 0.1502148749217376 -0.023541497543680293 -0.04184131857741488 0.3121232314529198
1735375000.0 -0.030496867666268117 0.3290118959185412 0.1506440009115093 -0.025781212976848142 0.14959779818772004 -0.026162153461516846 -0.04017518214483926 0.3131763612157332
1736062000.0 -0.028163114490973362 0.330110837677292 0.15013326546794525 -0.02867006170265561 0.1489763471678672 -0.028790792865213136 -0.03807793300344599 0.31415611056582915
1736750000.0 -0.025826559273741927 0.33108590546793476 0.14928177538414322 -0.03147018089460898 0.14840988258374244 -0.03148637896161137 -0.03627376469969194 0.3152333343020525
1737438000.0 -0.023523242120287724 0.3320536041312553 0.14859905510322716 -0.03457095728739612 0.1477582384651411 -0.03418397453760096 -0.03444794272893002 0.3161818506295691
1738125000.0 -0.021095747502888732 0.33312103793888287 0.14768927065880932 -0.03740458564078331 0.14712264649758922 -0.036910605442440535 -0.032388105942150566 0.3172093193020624
1738812000.0 -0.018866068667854993 0.33394627152760364 0.146755836925589 -0.040360698066536464 0.14637098828500353 -0.039620803702407795 -0.030266771845109987 0.318136782170705
1739500000.0 -0.016548735652116467 0.33483229415803534 0.14570065770300591 -0.0431777153365254 0.14567735887667485 -0.042342444041642786 -0.02835470452146839 0.3193050058428117
1740188000.0 -0.014303874393015779 0.33560499833561247 0.14456758821424437 -0.04612905012516091 0.14466596989430824 -0.04514742606370375 -0.026397801288956996 0.31993739521830444
1740875000.0 -0.011960120927348248 0.3365421244066138 0.1434294583803997 -0.04895277542243164 0.1437719645450166 -0.048023070330845075 -0.02418265040287645 0.32102170898776444
1741562000.0 -0.0096243767643733 0.3373667146876578 0.1422010152948231 -0.05164187206549969 0.14284425665140146 -0.05086245210109169 -0.02212438561163488 0.32159147946885575
1742250000.0 -0.007281916078459279 0.3380547310360682 0.14096727291930786 -0.05435676875435277 0.14171292279858738 -0.05376255136252094 -0.020067184247365387 0.32245392994364275
1742938000.0 -0.005157417358094691 0.3389832601485864 0.13946998524098858 -0.05698118689936891 0.14055488317900527 -0.05651187423353365 -0.017648793836759488 0.32292224295149996
1743625000.0 -0.002701886368049133 0.3397003205620399 0.13816932841613247 -0.059546926686071616 0.13930730710181433 -0.059268621677609774 -0.015436438169712977 0.32387270791019646
1744312000.0 -0.00041512694307264416 0.3404789661973019 0.13673263214240486 -0.06183276033989593 0.13795667262929753 -0.061965037030770186 -0.013314722570048756 0.32430368213376987
1745000000.0 0.002144836121924504 0.34124913494242864 0.13519092639495187 -0.06428802743795999 0.13651608030566587 -0.06467873872399836 -0.010971006095786865 0.32479306228452587
1745688000.0 0.004712765620787277 0.34179898627022265 0.1336666505714679 -0.06671985765905065 0.1350226668131583 -0.06734034119474845 -0.008515089037460802 0.32521156670287443
1746375000.0 0.0071416660816606345 0.34248705178222494 0.13225074167889092 -0.0689222826714935 0.13349493330541418 -0.06988262039776404 -0.006199044221059245 0.32573971294429227
1747062000.0 0.00954016754578804 0.34314354272171327 0.13086944040076287 -0.07112641011156312 0.13194710550299946 -0.07233846121066742 -0.0035996505898801367 0.32638150079188505
1747750000.0 0.012257125676941389 0.3436367643749355 0.12946359968162022 -0.07323804099285787 0.13029050312404178 -0.0747261819318458 -0.0013392147630754132 0.3265796545092745
1748438000.0 0.014921067265226703 0.34404102478949483 0.1279737139456776 -0.07540925528483926 0.12864148259929023 -0.07706386272354306 0.0011534736372356556 0.32711214179489145
1749125000.0 0.017315602898378052 0.34443987033726886 0.12662270325202343 -0.07758218703074383 0.1269864525703908 -0.07931820853592826 0.0037742482738014316 0.32760410378024996
1749812000.0 0.019863621515196536 0.3447249065231957 0.12531805740507312 -0.0796864724849176 0.1253541832347051 -0.08145643860714369 0.005985451318148993 0.3280071930477231
1750500000.0 0.022322402048567225 0.34493362710355635 0.12385249636914135 -0.08180229184025778 0.12373899372357824 -0.08351371539640161 0.008372483082340162 0.32843980565607045
1751188000.0 0.024868492487433294 0.3451326267147967 0.12259205698538991 -0.08403922912597662 0.1221121702338821 -0.08552996388630704 0.010630901028267773 0.32899355029603133
1751875000.0 0.02739479980357093 0.3452101956681143 0.12121928997822548 -0.08621755275396448 0.120537147909129 -0.08765426969188465 0.01285950508698956 0.3294537218885327
1752562000.0 0.029845470771378155 0.345226357771204 0.11988610880902852 -0.08851649435988218 0.11897624954686237 -0.08962439670240294 0.015272922712685237 0.330058005088735
1753250000.0 0.03230339576301456 0.34530315200855516 0.11850756603438688 -0.09073932637740688 0.11749995677672799 -0.09173453410026917 0.01729433124740119 0.33038539929057137
1753938000.0 0.03475863867421461 0.34532821644129136 0.11692975675026278 -0.0928766854983517 0.11590260379840979 -0.09370886147125097 0.01949840745609623 0.33071330352555534
1754625000.0 0.03716527094110124 0.3453389054041851 0.11551859091189501 -0.09520334322066132 0.11431114480881904 -0.09581844476444402 0.021498383576208455 0.3310895434209192
1755312000.0 0.03963134008667651 0.34520321679647015 0.11384420124633989 -0.09754006028860437 0.11272889578780652 -0.09787890382571732 0.023540315742862975 0.33126534699405813
1756000000.0 0.041944900537539694 0.3451428967597125 0.11231156665044027 -0.09985699414612793 0.11108687147365028 -0.10000074350938472 0.025583618852711064 0.3314527604291298
1756688000.0 0.04434003032433868 0.3453178837121405 0.11041618233994117 -0.10216452980455981 0.10940260987350589 -0.10217662157229573 0.027682769627425 0.33177638449783736
1757375000.0 0.04673251207444198 0.3452119068877511 0.10838360753228757 -0.1044210503582848 0.10753879437524355 -0.10431036496911032 0.02964011792757819 0.33210000138778156
1758062000.0 0.049112480025795956 0.34510099514024944 0.1064380898849561 -0.10665503028070952 0.10560265534997076 -0.10647224701057771 0.03161096641381383 0.3320029107769787
1758750000.0 0.0514412504866192 0.3449673297347248 0.10431654909368449 -0.1088308348291063 0.10366025857061525 -0.1085314467255263 0.03370181134569138 0.3321739014342699
1759438000.0 0.05382651310049191 0.3448453473090261 0.10204088706507444 -0.11097114931018726 0.10155080068822302 -0.1106324937000649 0.03586903799583195 0.3321874025983276
1760125000.0 0.05632075395042312 0.3448348328492024 0.09964391109053046 -0.11295372601380639 0.09930153181866423 -0.11269631965648517 0.03809539148715066 0.3319956624547475
1760812000.0 0.058842975298273925 0.344691600689795 0.09722477154569954 -0.11491156632384275 0.09697017874634531 -0.11472229547554028 0.040293255756707606 0.3320791801044439
1761500000.0 0.06105383056445389 0.3446285283502121 0.09469971774061742 -0.11683472581192052 0.0946562299376316 -0.11650151944722786 0.0425986934068793 0.3319273535907166
1762188000.0 0.0635866197875892 0.3443136406208883 0.0921585668023877 -0.11859464905224074 0.0921722040331433 -0.1183012943441463 0.044574949398918144 0.33146460848714304
1762875000.0 0.06592124345418861 0.3441765796723868 0.0896144469588087 -0.12026136777343484 0.0897377418510721 -0.11999937417318458 0.047122054455737104 0.33157661620558054
1763562000.0 0.06836482761719372 0.3437634063421201 0.08709892360039892 -0.12192039898666038 0.08713171551240419 -0.12161847566921913 0.049424916562982424 0.33142646310762813
1764250000.0 0.0708082684421039 0.3433312427251864 0.08441001305853381 -0.12339215430721555 0.08469136787582092 -0.12310421022786867 0.051558519713160424 0.3309881739459323
1764938000.0 0.07304468853682987 0.34295884019092304 0.08190443631911602 -0.12471496323215062 0.0822492109570075 -0.12449845032605644 0.05339677463805434 0.3306293904744623
1765625000.0 0.07514277418635008 0.3423975794838765 0.07936242437152731 -0.12590646029229838 0.07979111585053239 -0.12573612731579353 0.055743834516601705 0.3301223294001916
1766312000.0 0.07734191067770366 0.3417951737486025 0.07683159444617577 -0.12713665140050912 0.07731125530247965 -0.1270515204187957 0.05768063359645728 0.32971799911596356
1767000000.0 0.07947019133665857 0.34115029362872834 0.0743567047554878 -0.12827349940043697 0.07485630821152973 -0.12824981300630584 0.05951732193991561 0.3291936723826928
1767688000.0 0.08154496063799291 0.3405282531599682 0.07199137110765351 -0.12939727359835443 0.07250023194672645 -0.12951819111668036 0.061408102729721414 0.3286017869709089
1768375000.0 0.08349765881677763 0.339788098876761 0.06953310296543548 -0.13040386604681214 0.07016763791871136 -0.13066800817838825 0.06332197990036194 0.32783400141299823
1769062000.0 0.08540383191808908 0.3390384647434977 0.06722940675603013 -0.131514636197569 0.06785684753782942 -0.13193304653437857 0.06522698261377673 0.32711439004717696
1769750000.0 0.08738424872899772 0.3381471292429568 0.06505184457506726 -0.1324647924719393 0.06549016330496102 -0.13313835219759446 0.06707458564961248 0.32634271431118245
1770438000.0 0.08923605662298863 0.33741918936162946 0.06272335849545448 -0.13348977195551012 0.06320314805707089 -0.13428640391203256 0.06880239460919604 0.3255123520237169
1771125000.0 0.0909814570513855 0.33670955205529485 0.06037180906178932 -0.13441534397558316 0.06079601370569035 -0.13547035771246976 0.07064587586652006 0.3245790823747573
1771812000.0 0.09289971522234419 0.33585636291329674 0.05799357707282929 -0.13553316280935127 0.058359806780584986 -0.13666075283804371 0.07250379252026666 0.32374374443090703
1772500000.0 0.09474794232252856 0.3349721327240429 0.05572043789320895 -0.13658101565258912 0.05592665705585043 -0.13785250609368255 0.07425833769206738 0.3227495937027185
1773188000.0 0.09655232816379045 0.3342864138996298 0.0532899965132764 -0.13770441714246082 0.05343751672368015 -0.13904031853982507 0.07599736424900275 0.32189433355403674
1773875000.0 0.09856530715142958 0.3333994510140003 0.0508720794240194 -0.13864813239177598 0.050737703742002684 -0.14014253226495718 0.07789543664942054 0.32101264963911136
1774562000.0 0.10051207125931104 0.3327038520414114 0.04850818030422695 -0.13980664674667795 0.04816853088014336 -0.14126813371257874 0.07955299341373258 0.31993813595776516
1775250000.0 0.10233219918133206 0.33175277710524226 0.04599957145872993 -0.14094920965628538 0.045335138633210606 -0.14225299373297448 0.08135710407217893 0.31921299306215245
1775938000.0 0.10423902216797593 0.33087159394466203 0.04340376133756305 -0.14204000202646563 0.04253113944004907 -0.143256757935723 0.08317266169553034 0.3181853201400542
1776625000.0 0.10625520403414312 0.33006690209132805 0.04076150955180089 -0.14297956820581162 0.03962288477250545 -0.14411392842259216 0.08497684407740336 0.3171569166144407
1777312000.0 0.1082886125581557 0.32911973134703626 0.03804229068190082 -0.14405435321391674 0.036721229665790826 -0.14492305316239507 0.0868131180831108 0.3163075146041701
1778000000.0 0.11037215873943183 0.3280876271203454 0.035199059302645656 -0.144982052724407 0.033756506661408454 -0.14558369846046904 0.08862611324930691 0.3153617159497184
1778688000.0 0.11243299709414531 0.32696784092712583 0.03239477436042832 -0.14580671632748232 0.030853715145085885 -0.1461332831276328 0.09041543757868804 0.3145797488798598
1779375000.0 0.11450229143348054 0.32584754865602666 0.029452692184365054 -0.14657381711770232 0.027882920331658352 -0.1466033917845992 0.09244828708628397 0.3136952305715863
1780062000.0 0.11642519286745391 0.32503397966090436 0.0265416351422271 -0.1472060057803457 0.025013142889999663 -0.14700436363975586 0.09434917773657657 0.3126942234159079
1780750000.0 0.11835022163729167 0.32378374740828764 0.023502122191790493 -0.14779632992704636 0.022102800508977543 -0.14728464050870252 0.0963836743957606 0.3117804912043846
1781438000.0 0.12025370571187761 0.32265195350125775 0.020502352849831137 -0.1483752808917216 0.019290229326647996 -0.14762257739414444 0.09833191425179602 0.31105175627205445
1782125000.0 0.1222482307722308 0.32154259584651435 0.017554358684147894 -0.14882568378311717 0.016536517179298965 -0.14791703440190582 0.10027734883587844 0.31020794445032174
1782812000.0 0.12404393309058245 0.3204237968618482 0.014518831487283525 -0.14897135589261687 0.013706948324743883 -0.14808688452441257 0.10223219711942398 0.309322564741382
1783500000.0 0.12578829263940894 0.31926488934088426 0.011436861000840466 -0.14927106240029553 0.010978793471081669 -0.14825591949156702 0.10418435438515032 0.30852015371771074
1784188000.0 0.12761759297263484 0.31814686963698974 0.008405754528351987 -0.1494184408276437 0.008235626602619117 -0.14845489138329024 0.10593066803479737 0.30782512502077136
1784875000.0 0.12917763358169737 0.31711058171995216 0.005480067689896271 -0.14942047966107994 0.005600361303616413 -0.14859456317231137 0.1076279723749561 0.3070390669064268
1785562000.0 0.13094473824255037 0.31604255349425076 0.002589823607462206 -0.14942495877621195 0.0028958148166481346 -0.14874303654205898 0.10908073434373963 0.3064460935062192
1786250000.0 0.13255113201131072 0.31492472744008854 -0.00036231771690226696 -0.1495188428540146 0.0002243928915123632 -0.14892124597642767 0.1107734938646145 0.3055496123680372
1786938000.0 0.13421273273852152 0.3139908285191435 -0.003303850503425713 -0.14936293478704638 -0.0024222661996828156 -0.14904041310316124 0.11211242461247731 0.3048764133763206
1787625000.0 0.13572097691147592 0.3129173149591298 -0.006084776208563974 -0.14928259731792373 -0.005278009872910915 -0.14903038286139622 0.1134942424316133 0.3040348415973134
1788312000.0 0.13740595542187964 0.31201322988369173 -0.008946634043643192 -0.14901197183441064 -0.00810314029835667 -0.14916900818521656 0.11456603859124852 0.3030773793078817
1789000000.0 0.13909379872929403 0.3111204825520448 -0.011754700322010243 -0.14877073102505387 -0.011020611618139057 -0.14911534452541123 0.11579452187703163 0.3020355350130418
1789688000.0 0.1406093495387979 0.31017312705982447 -0.01459594585503109 -0.1484452122170003 -0.013918763330741706 -0.14906453579077902 0.11675896496563357 0.3009760184612745
1790375000.0 0.142242875540344 0.30929224172007314 -0.017447745777416545 -0.14820779166315554 -0.016809787940063034 -0.14895442148180235 0.11785710817984217 0.29987143480219164
1791062000.0 0.14404296926260265 0.3083992261704885 -0.020194552722107337 -0.14785371962444513 -0.019869320805767178 -0.1487277675853818 0.11899797637753497 0.29853423283567915
1791750000.0 0.14561440895285196 0.3075414802371333 -0.022889203458798503 -0.14736234312798396 -0.02286003648958483 -0.14846185603028056 0.12007136388832794 0.29733282572942593
1792438000.0 0.1471101532689917 0.3065051918526222 -0.025833371336912415 -0.14703510352944626 -0.02592224619392803 -0.1480691651698961 0.12123627569315325 0.29601881724956963
1793125000.0 0.1487510628025604 0.30572111952131104 -0.028497907958437898 -0.14641341459860036 -0.028878365104572933 -0.1475236959977983 0.1223819681303074 0.29463468548538313
1793812000.0 0.1504554785499789 0.3048406048054541 -0.03135744971596723 -0.14589781745956637 -0.03187042324366059 -0.14697187120073735 0.12354144435722103 0.29331785162295393
1794500000.0 0.15192751703652851 0.30382657557694426 -0.03401916419906068 -0.14529173460123565 -0.03485735035950285 -0.14636103436013456 0.12477501825608395 0.29203860014067895
1795188000.0 0.15347329494590853 0.30289770782451436 -0.03687648784810804 -0.14463897091589467 -0.037688075188221405 -0.14563068311379665 0.1261202445219349 0.290706137531409
1795875000.0 0.1548683751167613 0.30199602916987306 -0.03953369486664522 -0.14397579484047635 -0.040578747839909356 -0.14487802230328192 0.12754380069405272 0.2895685285110201
1796562000.0 0.15625744860476942 0.3013143132219999 -0.04228854025149479 -0.14329190798473654 -0.04337313031945878 -0.14394384842029875 0.12881353853983674 0.28836622404072937
1797250000.0 0.15751769711842642 0.3001827147535107 -0.04503284170175553 -0.14252029478392864 -0.04620086027917982 -0.14287500415925591 0.1302659615765333 0.28691246563537004
1797938000.0 0.1588243559940372 0.29930687823861374 -0.047744761042386626 -0.14176749448045375 -0.04886523906180205 -0.14193119266383694 0.1320139957521543 0.2860590351165378
1798625000.0 0.16027590147423235 0.29845114219438407 -0.050567355941359214 -0.14094632398310436 -0.051531564878842924 -0.1409665144464005 0.13344885706373824 0.28501716828819934
1799312000.0 0.1612893071188652 0.2974317533449031 -0.053246721885912056 -0.13989507228728362 -0.05426216572603567 -0.13989408388073135 0.1350175583700603 0.28397601265179545
1800000000.0 0.16255765055420734 0.29658807993923464 -0.05602619313441523 -0.13910050551675765 -0.05698858705030682 -0.1387608862902967 0.13682087473371496 0.28291384014928056
