! Created with skrf 1.9.0 (http://scikit-rf.org).
# Hz S RI R 50.0 
!freq ReS11 ImS11 ReS21 ImS21 ReS12 ImS12 ReS22 ImS22
1800000000.0 0.16188902894723367 0.29718206702991334 -0.057442394564879734 -0.14003889276358197 -0.0584416570674624 -0.1396686207705364 0.13529111644740638 0.2778856346123111
1801062000.0 0.16383482847283667 0.29584355723912276 -0.06171075040769388 -0.1384324864729788 -0.06254483035581108 -0.13804231139670442 0.13886764753700126 0.2764176823920531
1802125000.0 0.16563658280767316 0.2942726589062765 -0.06593678575194792 -0.13667457246552026 -0.0666337390831976 -0.13610563298419712 0.1419678195441687 0.27579203031163496
1803188000.0 0.16756985846500827 0.2929404687707817 -0.07011561882745472 -0.13480434657451673 -0.07073813597433476 -0.13432808823371836 0.14547154372297466 0.27502311743281715
1804250000.0 0.1693804026241242 0.29150710801197793 -0.07438945919704412 -0.1327194982247808 -0.0746678700315149 -0.13237189771014657 0.14807195634260534 0.27515091199434516
1805312000.0 0.17127023590458101 0.2898832209365249 -0.0785757119100771 -0.1307149715786823 -0.07865072367007163 -0.13031413538571335 0.15085591540621127 0.27579586400802447
1806375000.0 0.17321808569359282 0.288266635269526 -0.08263204416895399 -0.12832059164474313 -0.08268631710398282 -0.12806943772459728 0.15305405159506044 0.27635517362249373
1807438000.0 0.17514796872080107 0.28680370023509777 -0.0865953580373926 -0.12597202004198246 -0.08654642402428418 -0.12574879178853993 0.1546786948963541 0.2773572380878065
1808500000.0 0.17732011019283025 0.28527919758545484 -0.0904652387412183 -0.12335794729720964 -0.09047554441955254 -0.12313931228763782 0.15565990854550343 0.2781309108514392
1809562000.0 0.1792337433840944 0.2838812082164098 -0.09427078409094687 -0.1206148193070794 -0.09427850550759122 -0.12052696027001444 0.15608672739791324 0.2784415014598855
1810625000.0 0.18127414736638714 0.2823970379698782 -0.09804504499436237 -0.11775237231107732 -0.098029223980031 -0.11755704804296438 0.15629751725963517 0.2783632036764376
1811688000.0 0.18320947371108454 0.28104013814592976 -0.10155277598555215 -0.11467008810123946 -0.10170741060839078 -0.11454912096510594 0.15613823717245448 0.2776975120523273
1812750000.0 0.1852123843955816 0.279531552404119 -0.10503301273827736 -0.11141424902230446 -0.10522931567742438 -0.11136102465834656 0.15635856111636545 0.27628004147555496
1813812000.0 0.1870558154757011 0.27825305824827806 -0.10848699093232902 -0.10798827511875012 -0.10865573228980824 -0.10802061385397498 0.1564153846128839 0.2745814387709745
1814875000.0 0.1888696513458352 0.2768440977451564 -0.11168637644178268 -0.10457114942752842 -0.11198113393489055 -0.10458511893584764 0.15763086518052333 0.2721095576568471
1815938000.0 0.19078700128724077 0.27554026915691887 -0.11488276098487886 -0.10103882124505673 -0.11509763100530473 -0.10094001488022829 0.15894529612758482 0.2698152025415976
1817000000.0 0.19232705005873788 0.2743528637748174 -0.11786646117306403 -0.09732122205492941 -0.11809722251493578 -0.0972415013338496 0.1610869825839674 0.26768408762420604
1818062000.0 0.1938555149818202 0.27311646726364036 -0.12073534013558769 -0.09351678840260279 -0.12094179637749919 -0.09348964344100627 0.16342311923052458 0.26574754921078036
1819125000.0 0.19552045645983687 0.2718388520852083 -0.12357871121455169 -0.08955524883392434 -0.12365031256547804 -0.08948373635859863 0.16614225961849555 0.26422971531099787
1820188000.0 0.1970582655154441 0.27058095122138703 -0.126276226805139 -0.08558646376743821 -0.12630333941825747 -0.08551920304273944 0.16894697850496943 0.26304761986768294
1821250000.0 0.19869920324477738 0.26947028000274575 -0.12873571699504707 -0.08154296382223675 -0.12875977200103866 -0.08145060652514273 0.17215557645330024 0.2623724458831654
1822312000.0 0.20030641840843466 0.26829486108635536 -0.13118396819699507 -0.07733373754024725 -0.13121964958035714 -0.07726594228944564 0.17506157598919883 0.262101068693794
1823375000.0 0.20199082279445718 0.26726160571274765 -0.13345849939785467 -0.0730766677791957 -0.13350883384381895 -0.07310374242014941 0.17830574049245057 0.2623827850659192
1824438000.0 0.20358434251736493 0.26622592744275925 -0.13558259151764024 -0.06872855957863402 -0.13576822689709278 -0.06903114143888993 0.18143533593556924 0.2628013978308654
1825500000.0 0.20534769281315784 0.26531693173131493 -0.1375894223930596 -0.06458025577211457 -0.1379279602658302 -0.06490763765691289 0.1840907870008489 0.26391320127354206
1826562000.0 0.2069339578912475 0.26450168750357983 -0.1394828691157506 -0.060368257192020734 -0.13999777896819007 -0.06067280732242978 0.18647737087784438 0.26500523475440035
1827625000.0 0.20867211208640318 0.2637389633376475 -0.14133332172296814 -0.056201714873840104 -0.14193381090895013 -0.05646393161155012 0.18868399516326279 0.2664647468816025
1828688000.0 0.21013620695715943 0.26289104574821803 -0.14296495009337604 -0.05202499163332058 -0.14382262126037024 -0.052175932502559794 0.1903668247270951 0.2680146110320165
1829750000.0 0.21164821344175758 0.2621552791249149 -0.14452430127367977 -0.04788883968882412 -0.14538054763561872 -0.04775535128845167 0.19127926102584908 0.2690389725302751
1830812000.0 0.21326124166534086 0.2612689584466236 -0.1459974868316906 -0.04362275539161773 -0.14692641512716687 -0.04336043283891789 0.19193289239393807 0.26975535238226217
1831875000.0 0.21464923640086547 0.26039700039327607 -0.1472548175637255 -0.0393488984168608 -0.14818790306559904 -0.03865557345251332 0.1922785589812575 0.26965426803956616
1832938000.0 0.21603769156928423 0.25937002272012993 -0.1484862928681404 -0.03481964436015802 -0.14935832744165162 -0.03389087095078721 0.19278120085153716 0.269008801504961
1834000000.0 0.21732517530294213 0.25839012423207136 -0.14945776224175727 -0.03007085502592908 -0.15019525292814237 -0.02903774703614224 0.19336063303202922 0.267550976175241
1835062000.0 0.21860604722497018 0.2573783886914383 -0.1504218102614419 -0.025312313566936584 -0.1506864580365159 -0.024084908687342102 0.19462666107626458 0.265324441395016
1836125000.0 0.2198823748683887 0.25628552278913236 -0.15101414994534887 -0.020442919495617114 -0.15102986350461847 -0.019197596523595484 0.19624271935060203 0.2629489038602035
1837188000.0 0.22125194911433652 0.2551627753544131 -0.1515715453031538 -0.01542352764899307 -0.15121539964354122 -0.014284868429927582 0.19847741161360277 0.26043939259952376
1838250000.0 0.2226207415081261 0.2541191389902013 -0.1518330960941884 -0.010418772915953946 -0.15108611595307445 -0.009426347686616987 0.20106359142027197 0.2581580710406119
1839312000.0 0.22408626341782423 0.2532488045189758 -0.15186066122736142 -0.005217635213308358 -0.15085156022143176 -0.004602387130389559 0.20420145157716524 0.25608213797621304
1840375000.0 0.2256922257258736 0.2523714727778693 -0.15163472148287238 -0.00018206826375853825 -0.15035510176170697 0.00010713402530852781 0.20764210522949839 0.2543019736417969
1841438000.0 0.22732902460053234 0.2514730706395906 -0.15129341263133161 0.0050126833772856805 -0.14999031330160867 0.004798110348819943 0.21115602694367258 0.25289895414726626
1842500000.0 0.22909563752367842 0.2503727907918821 -0.15053165556527623 0.009981449572786813 -0.14944918570824892 0.009257219307942618 0.21476171051412649 0.25178313279510445
1843562000.0 0.23097719424348997 0.2495237296335696 -0.1496304009999517 0.014898663380638617 -0.14885575052268998 0.013789265002641292 0.21847721325956118 0.2510173746357611
1844625000.0 0.23279024936454576 0.24843084547534633 -0.14841140645289688 0.019733161952586866 -0.14825779538353206 0.018305860131274554 0.221987013620536 0.2505501842904627
1845688000.0 0.23475883149290572 0.24737395955622926 -0.14723692160633978 0.024332574717252448 -0.14780421704848334 0.022892388776303875 0.2255224646990597 0.2503414649280623
1846750000.0 0.23647428305277968 0.24604398494141705 -0.14604746151406875 0.028974844949595607 -0.14716768950858766 0.027523851119173787 0.22881793880645168 0.2501234098776122
1847812000.0 0.23828025061184205 0.24476890109915625 -0.14471481260412922 0.033190180545896376 -0.14656728412856446 0.032284111412739104 0.23183333169115705 0.25018951445387405
1848875000.0 0.24011707605118188 0.24335992713747562 -0.14349067727405262 0.03744542201989397 -0.14558547135783662 0.03702428857459976 0.2344544820219157 0.25010160509429724
1849938000.0 0.24166508359861466 0.2419805621589512 -0.1421645431800092 0.041510465503362556 -0.14442829567537008 0.041766835693968184 0.23666660933644518 0.2498678471603574
1851000000.0 0.2434757690311511 0.24076090805936987 -0.14078105351191345 0.04553308748099985 -0.1428096743786975 0.046556073581683344 0.2385095947342131 0.24902791156193524
1852062000.0 0.24519681285647388 0.2394288367960572 -0.13935118425634394 0.04943543318929275 -0.1408867877433486 0.051236357401599195 0.24019018748977178 0.24763199263025246
1853125000.0 0.24721261143413006 0.23818861379695322 -0.1378269959270555 0.053438555811553164 -0.13874768145248012 0.05572447677196324 0.24189766395328136 0.24560577068514902
1854188000.0 0.24915435458596435 0.2369709566397519 -0.13616600515395433 0.05744051370858641 -0.13631214809316297 0.05995611846848717 0.24353335734275477 0.2428804582115352
1855250000.0 0.2512540897650325 0.2356840298661244 -0.13422490931414952 0.061435018565746694 -0.1337105301129622 0.06394540028378287 0.24548905485097935 0.2397287225014719
1856312000.0 0.2534632357887333 0.23426772464370083 -0.13207724751446775 0.06551446583061799 -0.1309511973653897 0.06770971162280898 0.24794835109401261 0.2362662348081514
1857375000.0 0.25586880471019247 0.23288742169058027 -0.129791714135174 0.06959980036555805 -0.1282667748190448 0.07133224967992968 0.25074143293160994 0.23273143441232805
1858438000.0 0.258196053275889 0.23135868231790177 -0.12734901677739696 0.07376685839288266 -0.1256751510580356 0.07464230372074991 0.2540132008515411 0.22936304926655257
1859500000.0 0.26076655065490156 0.2296950979658255 -0.12487241883300684 0.07791367842124856 -0.12302278180731523 0.07796181926118702 0.257647037823292 0.22622839729017818
1860562000.0 0.2630489778000537 0.2277722467768592 -0.12201939917356565 0.08173200753013622 -0.12040438919255657 0.08120261624524597 0.2612654164129724 0.22342527339343762
1861625000.0 0.26543521437103645 0.22582345915360982 -0.11918751261245532 0.08563911170072713 -0.11776933425743652 0.08450896464006062 0.26503456864599184 0.22081985249491026
1862688000.0 0.2677614621679614 0.22370087258289784 -0.11607319864700599 0.08927903017242363 -0.11515641596867049 0.08793598753769935 0.26862782557784876 0.21863584124147958
1863750000.0 0.270068588877574 0.22157462276482914 -0.11278765487029176 0.0928766791321675 -0.11246027028417614 0.09147020986170123 0.27244201596610235 0.21663406455829243
1864812000.0 0.2722907360986321 0.21935785013979067 -0.1093898328970398 0.09631513140657946 -0.10959718624922338 0.09496960353648876 0.27604071616163744 0.21477983200065742
1865875000.0 0.27435786367006026 0.2171063868390436 -0.10582079916507729 0.09949231354433548 -0.10658114339751995 0.0985435414911224 0.27976454665751094 0.21326809787255938
1866938000.0 0.27662449287523383 0.21479491284598942 -0.10231320924527593 0.10271852483767802 -0.1033418594385042 0.10213763740740962 0.2830102501142195 0.21193399306763694
1868000000.0 0.2788746662592091 0.21267182266945725 -0.09849939685577122 0.10567968031630676 -0.09989261049651216 0.1055557352466983 0.2861182248053219 0.21023140021282874
1869062000.0 0.2812144550087258 0.21041494676993328 -0.09485327813643116 0.1084365648279028 -0.09624191202052318 0.10876326130377553 0.2888523094680172 0.20872275188351155
1870125000.0 0.28358263338921585 0.20823726880556084 -0.09113253198485421 0.11087702214126216 -0.09245576822727819 0.11173325008542426 0.29135705660797756 0.20670565614831338
1871188000.0 0.2861144549549822 0.20589233318852027 -0.08744990157774048 0.11328412709077099 -0.08859887418907783 0.11429416488908718 0.2934836251214419 0.20437756016356165
1872250000.0 0.2887162005171607 0.203440903393678 -0.083745915100409 0.11547632238176116 -0.08452018656775427 0.11659890403070601 0.2954971340915658 0.20158136521437905
1873312000.0 0.2913683751143326 0.2008984550546313 -0.08020274991958479 0.11738976986418456 -0.08055469131389656 0.11857444235560667 0.29696684303214427 0.19843416900177022
1874375000.0 0.2939664953449955 0.19831389356913431 -0.07656248460018039 0.11924533870879428 -0.07658132630501838 0.1203374413989048 0.2986180937066579 0.19471008447721708
1875438000.0 0.2962923180131157 0.19546009182018878 -0.07299728196270903 0.12104186700258836 -0.07255470707456915 0.12198228667221911 0.3005541991153149 0.19057563902100794
1876500000.0 0.2989983867336187 0.19250917764350867 -0.06938359248398566 0.12255492424694064 -0.0687197080090834 0.12353939587645035 0.3024045438882824 0.18598039442854555
1877562000.0 0.30135027516096596 0.18948426563083892 -0.06570371927446725 0.1240565219043294 -0.06490981973346335 0.12495611503896202 0.30466874307100006 0.18132766530099323
1878625000.0 0.303378538285997 0.1865228644182219 -0.06197529041194327 0.12564483914720168 -0.06107070498267655 0.1264144029798723 0.3069460938076749 0.17731567610007948
1879688000.0 0.3054623939682131 0.18353756435071045 -0.05811218365534535 0.127248304820931 -0.057228519949393444 0.12786411740535894 0.3099799507194142 0.1732086859136803
1880750000.0 0.3073573389698054 0.18026979457418987 -0.05418538422120213 0.12868978763301633 -0.053287035932673185 0.1292201346297649 0.3124356418745738 0.169338747170659
1881812000.0 0.30936125928427455 0.17719222931967435 -0.05017705461442134 0.1303023226456269 -0.04933445366496739 0.13058017888173243 0.3150988720542853 0.16611252862837375
1882875000.0 0.31136552205329227 0.17395587041139363 -0.046043997240613505 0.13179007867790274 -0.04522539215225865 0.13178565356609379 0.31748484998806487 0.16308011180622806
1883938000.0 0.3133105056438539 0.17070280326105708 -0.041903359526670604 0.13319771827020005 -0.04109169717648913 0.1327298719489034 0.3193726171962588 0.16012901856060344
1885000000.0 0.3152594464826356 0.1673980648623994 -0.0376088508472021 0.1341374045573051 -0.03689432395936993 0.13360816537515816 0.32095839229688816 0.1571569860744415
1886062000.0 0.3173286238085202 0.1641056572023038 -0.03319455135900726 0.13511567270519767 -0.03254545773834701 0.1342890746884962 0.322618545836329 0.1544105836100041
1887125000.0 0.3191455849658299 0.16062610166162303 -0.02872226424361102 0.13581355817173937 -0.0282996561328621 0.13474823717221981 0.32363807507456477 0.1511379694859545
1888188000.0 0.3212382605520453 0.15707198372914705 -0.02421206190373692 0.13625369927634648 -0.02417657187818673 0.13518988080229083 0.32479753470987405 0.14770128312398695
1889250000.0 0.32324332465790234 0.15334707208394402 -0.019757174776904973 0.1364403931043578 -0.020037279149681238 0.13552416701099934 0.3255961349768425 0.14405238702779785
1890312000.0 0.3250603853395177 0.149490039679166 -0.015289441452751656 0.13638225534162998 -0.01598346123445158 0.1357119850652893 0.32641666645137707 0.14000905891827978
1891375000.0 0.32677172021573997 0.14572900829916624 -0.010974422212139845 0.13598881369133747 -0.01204361284962314 0.13574777322216186 0.3271097777040074 0.13569096098152272
1892438000.0 0.32853204937587216 0.14171405403927265 -0.0068900025773888166 0.13559365749834698 -0.008143826326166089 0.13576700869146027 0.3277157087610675 0.13119562495910195
1893500000.0 0.32997665061902803 0.13792937373606448 -0.0029741357912618114 0.13504873319248897 -0.0042555532696302075 0.1356664714890678 0.3285560519207883 0.1268039990888563
1894562000.0 0.33123112945044386 0.13404731407485357 0.0008349687843647389 0.1344494249412007 -0.00036799901753592647 0.13537031309255826 0.32937799195627276 0.12185527766365988
1895625000.0 0.332561843557561 0.13000774965207063 0.0044751754582797445 0.13379641355628333 0.0036858925331771956 0.13498702081520442 0.33030231357955675 0.11699966287870424
1896688000.0 0.3338070473214719 0.12646994004710216 0.008083012940529578 0.13303286106286002 0.0076612095382385 0.1344623337858319 0.33145292236625856 0.11219146730181603
1897750000.0 0.33495185982166414 0.12284440902505657 0.011569517894721179 0.13226165899262232 0.01174895619602881 0.13376759350731326 0.3324315960035036 0.10765068494880706
1898812000.0 0.33615933122626457 0.11923807897995364 0.015140905066825592 0.1315191048133682 0.015775823081666248 0.13289936141104652 0.33371195919825314 0.10300995327673357
1899875000.0 0.3371965204810078 0.11544750717036849 0.01864412837711891 0.1307085190936296 0.019794414346968353 0.13182277276008592 0.3346597339776655 0.0989925717359882
1900938000.0 0.3383916011957001 0.1120920837643358 0.022314314460095772 0.12987687034101514 0.023734765355634548 0.13071653482305753 0.33588704568756983 0.09543943144954889
1902000000.0 0.3394231962685165 0.10839913558585677 0.02599356098101032 0.12898893793148467 0.02765507417210219 0.12940154939951465 0.3368096356459838 0.09158488193536118
1903062000.0 0.34034958488830636 0.10510300212032958 0.02975051399674019 0.12786422244434575 0.031283377119649375 0.1280076117391032 0.3374907999966516 0.0884588398244406
1904125000.0 0.34137137574600646 0.10132417308357755 0.03362882901022443 0.12679781946338725 0.03490272246036873 0.1264885977936953 0.33713493764004615 0.08525437834159566
1905188000.0 0.3420457890248446 0.09792205413423109 0.037444698978788216 0.1255577751884217 0.038319849229091256 0.12491672173678041 0.3368636466338902 0.08209592823997539
1906250000.0 0.3426348518404129 0.09438911100653181 0.04124465129569977 0.12416980107765382 0.04167512393735292 0.12332134279927803 0.33620949734756994 0.07854062992160096
1907312000.0 0.3430255163349785 0.0908781426785317 0.04495743671976718 0.12258565861926962 0.045026022244091225 0.12165980616610324 0.3347950217409031 0.0749140144557022
1908375000.0 0.3433760027818049 0.08740009090268876 0.048571361704081 0.12083699444146417 0.048290754851455946 0.120053688730364 0.33337116770409286 0.07108490430699246
1909438000.0 0.3433705206125816 0.08401138041748872 0.051973446905541884 0.11895796283818731 0.05163095351342098 0.1182737113463114 0.33181605020075167 0.0666725652554732
1910500000.0 0.3434717473673524 0.08050501202167817 0.05536768362991768 0.11691124114240267 0.054890301194501896 0.11665944807672227 0.3302423754040383 0.061921483395794785
1911562000.0 0.34323759009878885 0.07713665422727993 0.0586330424832697 0.11487876351531613 0.05814596624229753 0.11483749292256061 0.32871171241549796 0.05668535351512636
1912625000.0 0.34293169129168377 0.07371395676177625 0.06175553259213072 0.11260194819092786 0.06131414907447915 0.11288177649153444 0.3277085305969861 0.05134091444876391
1913688000.0 0.34282736455618984 0.07018711103633363 0.06463339283870757 0.11040021154959785 0.06438511252280306 0.11082657635472007 0.3267269881363874 0.04582384402607359
1914750000.0 0.3424177430517037 0.06691575854714449 0.0675643471988592 0.10802613086960774 0.06745613604113339 0.10862381983345068 0.32632046068279674 0.04049992783785287
1915812000.0 0.3420645754087625 0.06351930759642388 0.07028648784004966 0.10571349120034784 0.07043987410791934 0.10625711831141113 0.3261367501345535 0.035390992555754446
1916875000.0 0.34163209157484437 0.06014175970700663 0.07304172166544202 0.10318514959332649 0.07331630422981704 0.10378058022984221 0.32630356837442637 0.0305786437937788
1917938000.0 0.3410672865199368 0.0569395547666128 0.07574554742480763 0.10068987851640722 0.07611014568261763 0.10116084548577794 0.32623107551461483 0.026111270343890387
1919000000.0 0.3403414426050253 0.0536568476423113 0.07831731678462737 0.09816272408966681 0.07870105282784756 0.09842296708197969 0.3263025931442076 0.02222450197499331
1920062000.0 0.33973533455151556 0.05027952895060636 0.08089888372541644 0.09548148755872471 0.08124269127522347 0.09564010724563046 0.32657592632725363 0.018663712353454487
1921125000.0 0.3391488574653014 0.04705943897665748 0.08324232448928191 0.09265222622315383 0.08380446119955885 0.09286635775497909 0.3260545827527113 0.015458463785615455
1922188000.0 0.3382963076699541 0.04398356269013348 0.08571175052398078 0.0898711270560175 0.0862017117559563 0.08994837273394933 0.3258538421647544 0.012541780714821689
1923250000.0 0.337546056280136 0.04059004765535005 0.08803233440373474 0.08696433443497276 0.08852885506649591 0.08706754455801953 0.32502961209889375 0.010101510472257495
1924312000.0 0.3365928648582146 0.037528584894262175 0.09023573042597567 0.08407561566183376 0.09076726820997359 0.084167483981258 0.3238637257426172 0.0076983926344214425
1925375000.0 0.3358394760755543 0.03440615137479442 0.092310045440868 0.08103308363189843 0.09286328086664501 0.08111714495257692 0.32221688918666164 0.005415170109418304
1926438000.0 0.33500413233631054 0.031305179485909634 0.09432576226623306 0.07804795927995778 0.0948703020651236 0.0780740616837403 0.3200206406811165 0.0030127466214730364
1927500000.0 0.3340018883062518 0.0283062855886516 0.09613966952696976 0.0750569141641825 0.09669220330961809 0.07505747745625418 0.3174672718761894 0.0004444497760505083
1928562000.0 0.3330582993480795 0.025202760788362043 0.09789691240948148 0.0720527071180425 0.0984358887181085 0.07195100557910326 0.31480812958745363 -0.002465862096474812
1929625000.0 0.33202551476134273 0.022135039149498003 0.09952859614672338 0.06903264691000797 0.10007347878439186 0.06873974871295438 0.3116807528416969 -0.005905633746255126
1930688000.0 0.3311112631815808 0.0192956604352496 0.10128244911431737 0.06605210697043602 0.10170733849754801 0.06567869432982477 0.3085709231133769 -0.009658115502190097
1931750000.0 0.3299757420969334 0.016199163050239277 0.10272962246660237 0.06298302983387363 0.10313259140784325 0.06254676516648089 0.30594888972638296 -0.013877014209911586
1932812000.0 0.3288547714282168 0.013418975596422106 0.10415199505085768 0.05989506858013552 0.10449346996799173 0.059429024132176635 0.3035877138294657 -0.01839768539584889
1933875000.0 0.3275660240221234 0.010534661992292929 0.10553347106889632 0.05676269465464261 0.1057473431764734 0.056375397759970726 0.30176783747334546 -0.02299307308996814
1934938000.0 0.3263861043982246 0.007778647407061125 0.10680534009810762 0.05364163432021426 0.10689390756871325 0.053247511846422055 0.3003193084459992 -0.027405396136866877
1936000000.0 0.3250405285498287 0.005072992976971267 0.1079453045867868 0.050412991411122786 0.10808006535343376 0.05008663916008548 0.2994774484553589 -0.03148320949150794
1937062000.0 0.32374005671874906 0.0022208819368386102 0.1091005892049567 0.04715346738604073 0.10915536527697085 0.04689083609502028 0.2989046986259953 -0.03513977865319118
1938125000.0 0.3222316210789199 -0.000482357612048657 0.1099821850944509 0.043722289545852555 0.11004075078338099 0.043645492560898454 0.29830768940517216 -0.038341277261211094
1939188000.0 0.32064728583299384 -0.003238994372163862 0.11094376256675911 0.04037996918429096 0.11090571992704526 0.040278617488301756 0.29775055660487976 -0.040922663259554154
1940250000.0 0.31918706124810287 -0.005983108000054301 0.11170099637543822 0.036867084965469164 0.11171792985427834 0.03681877031402922 0.2972947560435231 -0.04304021956144623
1941312000.0 0.31753001545324644 -0.008759310183490037 0.1123386850819036 0.03343871519794628 0.11231651478005299 0.03327089403763972 0.2962716535073531 -0.04481994819671568
1942375000.0 0.31581434669090896 -0.011705250759749389 0.11275352702283398 0.029907324036575336 0.11271309617537838 0.029729310349377928 0.2950366861957119 -0.04614627429926298
1943438000.0 0.3140376342371865 -0.014545221060425858 0.11307123225768527 0.02643713840879128 0.11314620157094303 0.02618507791343114 0.2932906930267735 -0.04722516101266535
1944500000.0 0.31227043857780357 -0.017312317391045048 0.11321833900437142 0.022904363245315838 0.11337273877834553 0.02275994497830579 0.2911454499028405 -0.04820251642848476
1945562000.0 0.31035660147933203 -0.019905586872995727 0.1133041885135471 0.019555980586436268 0.11335745360996508 0.019491176031656364 0.28847450457447404 -0.04901664315508779
1946625000.0 0.3083544640742791 -0.022682395712955793 0.11326563526673757 0.0162714962950458 0.11338366618827479 0.016291857671178734 0.2852671430008509 -0.04992079015650898
1947688000.0 0.306357954099584 -0.025257255506778462 0.11306877851626458 0.013034738465993512 0.11331158869076133 0.013203904788309835 0.2817041102485398 -0.05107245529871432
1948750000.0 0.3042986445756802 -0.027786155454575 0.11289075691272632 0.009961460616983263 0.11313962323230196 0.010150728037904299 0.2776585572661923 -0.052638319812596014
1949812000.0 0.3021875259329248 -0.030246949818122985 0.11260238188432456 0.00691964877861283 0.11282714465876102 0.00714279612297725 0.2735135529856545 -0.05456213036645242
1950875000.0 0.30011363927858326 -0.03291706455401134 0.11223748530638349 0.003940392669416158 0.11263988157586843 0.00417902411061029 0.2695531317971667 -0.05720569495252072
1951938000.0 0.2979983356302862 -0.035227521196227074 0.11186120984409241 0.001082917636956064 0.11236418946226734 0.0012754281320080589 0.26580135925785553 -0.05998160637166573
1953000000.0 0.2957723363665629 -0.03763594591115953 0.11143078398076442 -0.0017479975394661409 0.11205266764665175 -0.0017635281199510015 0.26268911228439235 -0.06314548092680017
1954062000.0 0.2939076766453265 -0.040142309054615584 0.1109773122762042 -0.004604485667701331 0.11171614291289544 -0.004844494575944913 0.2599617248151411 -0.06644894143114286
1955125000.0 0.2917794630898557 -0.04266795216058291 0.11053833193429516 -0.007418001731532753 0.11129949864294164 -0.00789697693725045 0.25796389804480085 -0.06970751681054024
1956188000.0 0.2897590700327815 -0.04515550788476608 0.10991954858795307 -0.010364465949999846 0.11070252788675307 -0.011005831584176904 0.25629336277702286 -0.07262412974641629
1957250000.0 0.287710009766474 -0.047679143755876105 0.10932936927961652 -0.013133922439339038 0.10999975506222721 -0.014096916121832797 0.2549754697603203 -0.07507509004225564
1958312000.0 0.2856559925181355 -0.05034513500743261 0.10856325030661164 -0.01609990824295961 0.10904832055542209 -0.01715014509593867 0.25393825161052247 -0.07712110954143683
1959375000.0 0.2834360931840505 -0.052852817468412014 0.1077592965152248 -0.01905254528921482 0.1079454076980492 -0.020188339451423884 0.25281958484995154 -0.07875161908671285
1960438000.0 0.2812979070041804 -0.055170408205645886 0.10695445132541075 -0.022100884659790366 0.10680249036782893 -0.023108898450163902 0.25151280760153344 -0.07973577757278724
1961500000.0 0.2791418474648045 -0.05750564903768168 0.10591369573893424 -0.025067963560529823 0.10542777958548517 -0.025962419200125833 0.2500813815936824 -0.0804730428406479
1962562000.0 0.2768859978689049 -0.059884228402666544 0.10486711112924837 -0.027952088604689677 0.10406438180328563 -0.028665707055850777 0.24798713912196377 -0.08092084343471437
1963625000.0 0.2747415341601632 -0.06209107917831743 0.10365929143596486 -0.030953732972271226 0.10272441837194611 -0.031209482549590696 0.24565658717326433 -0.08105360350729798
1964688000.0 0.27250051050613766 -0.06411222662662441 0.10242876327440352 -0.03378646422031332 0.1013957162483724 -0.033698356421662495 0.24287386828378618 -0.08122195835206157
1965750000.0 0.2704182064842696 -0.06614584402215766 0.10101425914503347 -0.036498413714570556 0.10020358998515451 -0.036100056129678273 0.23941672378959608 -0.08139818636117814
1966812000.0 0.2683153873605348 -0.0681994255987033 0.0994980340824669 -0.03908861638136157 0.09905481586122819 -0.03845368531611799 0.23569867352328586 -0.08153505063975064
1967875000.0 0.26624273059710823 -0.07019281287878128 0.09784220792818955 -0.04153253581254549 0.09782036813837484 -0.04080324512553854 0.23159932404215314 -0.08211500752976322
1968938000.0 0.26418295965168714 -0.07211826005100498 0.09626709801080745 -0.04387808173973271 0.09673633137977947 -0.04317020003918373 0.2272778672616646 -0.08287663510193724
1970000000.0 0.26214885702893165 -0.07420720247714568 0.09475182618131549 -0.046065098747430935 0.09550201431500317 -0.045529634407462036 0.223024648323205 -0.08419459800927316
1971062000.0 0.26023671017462074 -0.07614379287831567 0.09318488349451025 -0.04833078400093813 0.09420092465631011 -0.04802033465818567 0.21871940865683356 -0.08595519550668436
1972125000.0 0.25819336557190237 -0.07804718298567336 0.09154355629328038 -0.05043212056672604 0.09280235356923593 -0.050445909724206275 0.21491983153054658 -0.08831507844246073
1973188000.0 0.2562143680815519 -0.08008126666272812 0.089983134274529 -0.05256097913454168 0.09122145053607925 -0.05291830167119282 0.21174607787389735 -0.09087416084504527
1974250000.0 0.25420633510398005 -0.08192344407516604 0.0884865926298034 -0.05457161703639657 0.08943164119171115 -0.05531953358864219 0.20899616724138576 -0.09350884046218194
1975312000.0 0.2522759031311652 -0.08375071638090059 0.08697445320522099 -0.05651559461519313 0.08755964737198112 -0.05755989800161291 0.20699413873518993 -0.09625101830700918
1976375000.0 0.2502819353423881 -0.08531020883182489 0.08534902022973356 -0.05860111254286288 0.08562939721636247 -0.059770092792769555 0.20542959612903156 -0.09869470891265264
1977438000.0 0.24813399279211043 -0.08701433476212084 0.08379690167848626 -0.06047099658807554 0.08357797024857985 -0.06186245315194561 0.20461058694704903 -0.10076631120702237
1978500000.0 0.24617720788230907 -0.08835673602437717 0.08209313637235965 -0.06236224782721091 0.08151041016478645 -0.06359499597087265 0.2037412933911971 -0.10223995519821612
1979562000.0 0.24413505816194478 -0.0898432386873846 0.08016111002438378 -0.06435713194709401 0.07944906984388354 -0.06528821291184957 0.20286542074858155 -0.10323776435214536
1980625000.0 0.24203889368982606 -0.09128387178286143 0.07824756195571 -0.06617807291283409 0.07748955078375805 -0.06693428444444412 0.2021020645366599 -0.10358611531349243
1981688000.0 0.24010839995936487 -0.0924949364062748 0.07624715336654035 -0.06818986145779 0.07548402092233349 -0.06845811965203867 0.20091654134839873 -0.10381652326974737
1982750000.0 0.23819442708152497 -0.09371759890206076 0.07427378075534966 -0.06991233228920245 0.07353381877314143 -0.06993141483285568 0.1993613114030176 -0.10361159353733049
1983812000.0 0.23614209472399939 -0.09507045718976871 0.07209407523841845 -0.07174446576178624 0.07165132100037372 -0.07150034658804828 0.1972489002689972 -0.10335649382126921
1984875000.0 0.2342412636587832 -0.09633944311045362 0.07003685497261386 -0.07352988985325334 0.06967906703939651 -0.07302496636038056 0.19463339115546907 -0.1028439249559172
1985938000.0 0.23226177194035774 -0.09759031998190185 0.06799188543329028 -0.07507323922495521 0.0678752739249063 -0.07463189959101016 0.19165475316153524 -0.10265005630253575
1987000000.0 0.23020194480221956 -0.0989644656761031 0.06593489987138713 -0.07671427446800766 0.06593667691297762 -0.07628471763307756 0.18830758289997096 -0.10235020690474705
1988062000.0 0.22825629958574958 -0.1002251893727038 0.06381806431223662 -0.07822476423637953 0.06393831384325097 -0.07794799630255596 0.18498018867833332 -0.10259689343131499
1989125000.0 0.22618596002386818 -0.10142728606559438 0.06167353182183209 -0.07955725815649568 0.061911569195953545 -0.079584020604472 0.18132488807299282 -0.10305918988383693
1990188000.0 0.2240550568437235 -0.10265142219814193 0.05940892644066769 -0.08092591410674033 0.059763406116806216 -0.08111315283107487 0.17784143772404565 -0.10384372170251718
1991250000.0 0.2219549313917878 -0.1038197899160969 0.05723360066929943 -0.0822628974675254 0.05751423108399418 -0.08271892887206952 0.17456400133874067 -0.10506177808434669
1992312000.0 0.2198435691767351 -0.10476838617691174 0.055061991391412636 -0.0835074583815295 0.05525964504755381 -0.0840658703264978 0.17154820919135724 -0.10633257319236804
1993375000.0 0.2177019224038823 -0.10578131221507925 0.05286157024470451 -0.08472888072078431 0.05294367542177772 -0.08531806587054394 0.1688754845579284 -0.10774926086246353
1994438000.0 0.21551097338796574 -0.10667138622276173 0.050686407443034445 -0.08589075430103113 0.05067932160946465 -0.08645182362423479 0.16679874426154143 -0.10934312624975488
1995500000.0 0.21330622511014133 -0.1075445435851904 0.048415264048413446 -0.08707194302471705 0.04830387033403589 -0.08747693581138093 0.16495769639064675 -0.11074521194530218
1996562000.0 0.2110802085230991 -0.1081906324369117 0.04614544986995589 -0.08810958639052432 0.04588889131138796 -0.0883457257470195 0.16367773389659182 -0.11181436306468973
1997625000.0 0.208883785471909 -0.10914081388741917 0.043854370927072076 -0.0891474568254525 0.04357375797460831 -0.08921705284140649 0.1626010767044347 -0.11265509923986733
1998688000.0 0.20677197052833304 -0.109734141844004 0.04158702461464077 -0.09000925566720502 0.04131414587397823 -0.09004005701152394 0.16168157420000884 -0.11290652790293383
1999750000.0 0.20445262620761234 -0.11053397986053953 0.039240625324156266 -0.09086594327424367 0.039093906603589496 -0.09085860555320219 0.16077931726534694 -0.11287699153954989
2000812000.0 0.2025204172008284 -0.11106029084135226 0.037017123310156094 -0.0916831189235591 0.03681230445502972 -0.0916167872542438 0.15952357845711074 -0.11247829150521804
2001875000.0 0.2003989763605199 -0.11181998510359838 0.03461686167857614 -0.0924355095487172 0.03452884160059759 -0.09239360092991948 0.15823474378995947 -0.1117360872781496
2002938000.0 0.1983239536164898 -0.11239135447461336 0.0322764548044168 -0.09300619007675041 0.03235156124454435 -0.09325518070958842 0.15646212675135807 -0.11063614359716537
2004000000.0 0.19609025611704206 -0.11304490004637757 0.029931605697034246 -0.09375131839031627 0.03006297771768942 -0.09400483509713149 0.1542743909183668 -0.1096767473773668
2005062000.0 0.19384745311855833 -0.11354366889220882 0.02769254108557962 -0.09434820326556802 0.02785817367941881 -0.09477303882080254 0.1516735017401177 -0.10846032721021301
2006125000.0 0.1917269744611379 -0.11392021756368144 0.025395228601151818 -0.09499567445882252 0.025540052284311533 -0.09543959713732048 0.14882602228697758 -0.1076159401575848
2007188000.0 0.18952945746327313 -0.11412950482901105 0.02325062417546637 -0.09554364179902636 0.023190880169276375 -0.09606107489640238 0.14570607833784943 -0.10707458004545872
2008250000.0 0.18738857966091838 -0.11435324970234484 0.02091921769345267 -0.09612848507570886 0.020782008577687684 -0.09657588266937225 0.1425718875820972 -0.10675773155047502
2009312000.0 0.18516312363454207 -0.11421424078040528 0.01869801384221296 -0.09659986124251362 0.018376636465896087 -0.09697416127714567 0.13919690768582804 -0.106732919063726
2010375000.0 0.18289302461930854 -0.1142480488505739 0.016346541118003828 -0.09711382394671869 0.015826210240033063 -0.09736097146091918 0.13608565520229368 -0.1068288350529439
2011438000.0 0.18057732421949732 -0.11408581600979825 0.014041756516882335 -0.09754570894597357 0.0133468491545737 -0.09768607876632789 0.13334814505048126 -0.10741926260489247
2012500000.0 0.17827449551178517 -0.11386759757708989 0.011466661173526073 -0.0979069708275645 0.010949227751054197 -0.09793352786266599 0.13085236333725245 -0.10804649528195835
2013562000.0 0.17595975265803868 -0.11361396929884213 0.009107588069146525 -0.09813285641073127 0.008513356916492765 -0.09814419089139623 0.12875348995032176 -0.10877969911719353
2014625000.0 0.17363977326574648 -0.11325424119402229 0.006494316842482827 -0.0983314376272119 0.006055981697780257 -0.09828080389382432 0.1272676185515759 -0.10900022845023186
2015688000.0 0.17124675625405184 -0.112850040267507 0.004041910737067805 -0.09847720954423261 0.003649970885280721 -0.09841658576647337 0.12590900877412903 -0.10907852484502918
2016750000.0 0.16883364830602968 -0.11234868601651812 0.0014606528557669705 -0.09864928913853392 0.001385907185934287 -0.0985293325284283 0.12479200263509223 -0.10845725767546258
2017812000.0 0.1662970440918856 -0.11192496166953714 -0.0010849909332711672 -0.0986583720469045 -0.0010045834993985328 -0.09854971714315792 0.12352444319025249 -0.10746339361710344
2018875000.0 0.16388209525152628 -0.1114110637890596 -0.003590914848947642 -0.09860771500566136 -0.003476907824923093 -0.09845211839775231 0.12219422141965752 -0.10623689926938176
2019938000.0 0.16142023356589996 -0.11088728577581829 -0.006138733923997023 -0.09841042501547856 -0.005963336905991166 -0.09841692514091532 0.1205668298929097 -0.1046743455950241
2021000000.0 0.15875008113660152 -0.11011244463100105 -0.00860573019324768 -0.09829604556143112 -0.008438250853612847 -0.0983487206720634 0.11857339858849128 -0.102910840359079
2022062000.0 0.15617736470174337 -0.10946720534296932 -0.011111066634045099 -0.09807458509737518 -0.010948718875686736 -0.09813656790024007 0.1162526652707798 -0.10076496528609662
2023125000.0 0.15359697000658498 -0.10886086154715024 -0.013572243639162292 -0.09781282744988941 -0.013472169985158192 -0.09797659215968292 0.11363979668144596 -0.09892133120691421
2024188000.0 0.15103411381369014 -0.1080965504376319 -0.015945396388645696 -0.09742238807167859 -0.01604916302011602 -0.09776639128130374 0.11071738976056165 -0.09732963145068353
2025250000.0 0.1484357016866214 -0.10735407361119392 -0.01848904200612707 -0.0971396315319507 -0.018537860934076833 -0.09751911404615533 0.10765664492224054 -0.09550794585934753
2026312000.0 0.14588874166563376 -0.10645872725269952 -0.020879569211220344 -0.0967309441038234 -0.021093039556734663 -0.09712781916832824 0.10437808293123756 -0.09453621427660724
2027375000.0 0.14329252377541116 -0.1056430312424103 -0.023206428075869766 -0.09614518603037883 -0.023455392616005228 -0.09672834210514909 0.10111835325011553 -0.09342992062396102
2028438000.0 0.140946954425615 -0.10481503178614307 -0.025510651647970957 -0.09583033318130316 -0.02584271256387833 -0.09627413990670532 0.09803706426214548 -0.09264622719059762
2029500000.0 0.1382965332542778 -0.10385471409180484 -0.027945851974898326 -0.09530897675461876 -0.02823640019176765 -0.09565388340911325 0.09487000431526002 -0.09233950416732127
2030562000.0 0.13581557974225467 -0.1029935480136944 -0.030337252812551486 -0.0947178647235446 -0.03063317755962615 -0.09506425445457498 0.09204095296941478 -0.09212804242876996
2031625000.0 0.1335844302476994 -0.10213582996910744 -0.032652857724458605 -0.09412233608301165 -0.033014341906665155 -0.09432462680626547 0.08960007515239139 -0.09227585764756681
2032688000.0 0.13119710911829116 -0.10124588909157546 -0.03501162226727671 -0.09348877207063683 -0.03546990256001238 -0.09355967394605406 0.08775725217273642 -0.09236753730910348
2033750000.0 0.12899276186869463 -0.1002922162687543 -0.03725402669327682 -0.09276160828367046 -0.03782153642267634 -0.09275071237795741 0.0865095450459767 -0.09225888086570835
2034812000.0 0.12688316131051505 -0.09943377046259792 -0.03973429286702097 -0.09194507926838613 -0.04018207261761357 -0.09188417180278016 0.08539851546147295 -0.09196419097837881
2035875000.0 0.12468200495306776 -0.0984602193933216 -0.042134162119165486 -0.09108975381991657 -0.042601458306309396 -0.09095608560888604 0.08488180613837944 -0.09111971994210635
2036938000.0 0.12264990512209391 -0.09744993485154652 -0.044456962499282555 -0.09020349020887204 -0.0450094914496351 -0.08996666239992052 0.0844409474609226 -0.08987395866322503
2038000000.0 0.12065625010318122 -0.09645923698219229 -0.0469280953771169 -0.08920463588570846 -0.047354533971766734 -0.08899010692266598 0.08366126923896956 -0.08807943285846533
2039062000.0 0.11856845905187822 -0.09536127901077937 -0.049384078052977794 -0.08816018246740763 -0.04966986559807727 -0.0879142066346585 0.08291626051950411 -0.08534394727214352
2040125000.0 0.11664413083374113 -0.09422259653114072 -0.051784457761434866 -0.08702502916469143 -0.05203331635697132 -0.08680737933247269 0.08191168446880892 -0.08261275459701359
2041188000.0 0.11476494907657474 -0.0931881126356537 -0.054213814700120516 -0.08576735242501068 -0.054361844731524 -0.08564869524241256 0.08011508625742494 -0.07957220192576109
2042250000.0 0.11271578890843728 -0.09179047489246289 -0.05658976931940921 -0.08449284950453262 -0.0566659798644401 -0.0843707912111971 0.0779776429427175 -0.07649436417948507
2043312000.0 0.1108748804549207 -0.09065867627769245 -0.05903505262625199 -0.08319704269694675 -0.0589648363858605 -0.08291642807096022 0.07546558944162209 -0.07379523533536629
2044375000.0 0.10899835759731281 -0.08942035745336141 -0.0613914672859542 -0.08173524540466616 -0.061297830770907315 -0.08158403915226742 0.07262989691339204 -0.07131694814219315
2045438000.0 0.10715289860713245 -0.08807130869033232 -0.06375704635481373 -0.08035850624666178 -0.06366672339015131 -0.08013890719430612 0.06957605798001479 -0.06944825054468462
2046500000.0 0.10526250920659529 -0.08678838453992781 -0.0659738255369597 -0.078638792568953 -0.06596588386928894 -0.07865018136034323 0.06681358373563338 -0.06796382309878743
2047562000.0 0.10340165232995313 -0.08541693248797064 -0.06824650163687157 -0.0768812665161373 -0.0682800480249477 -0.07700013494402319 0.06400985693129989 -0.06685889280620622
2048625000.0 0.10181102559890265 -0.08412020023684905 -0.0703933375744211 -0.07512535427750745 -0.07049785026127856 -0.07531275872664979 0.06158354124140109 -0.0661492278847223
2049688000.0 0.10014302849729126 -0.08293013009139136 -0.0723717430584307 -0.07337925769808153 -0.07268637212739194 -0.07358758755585777 0.059550065075387494 -0.06589515842029614
2050750000.0 0.09842182270389808 -0.08157829724581588 -0.07448590206547884 -0.07154166904970194 -0.07474160470430924 -0.07179400345343169 0.05805694289819091 -0.06563328589299418
2051812000.0 0.09679806722703364 -0.08041871361210194 -0.07641974520733362 -0.06969377584491238 -0.07680196379696705 -0.06995486749800751 0.05715367570722339 -0.06555183964226004
2052875000.0 0.09526620189038351 -0.07922248038506315 -0.07838175635975822 -0.06778661924418704 -0.07877668417624847 -0.06799755055561127 0.056594086720448945 -0.06536649704753003
2053938000.0 0.09373927894693362 -0.07809131868416193 -0.08023689590235952 -0.06590386425772966 -0.08067504395963762 -0.06607239971424125 0.05666874467166761 -0.06498028254673503
2055000000.0 0.09227783485133774 -0.07688054377696252 -0.08205185205761277 -0.0639619008226573 -0.08252900456541386 -0.06393621569058398 0.05720596623639732 -0.06413963549372778
2056062000.0 0.09084811102420334 -0.07576092100858714 -0.08394362896859203 -0.06196278973154381 -0.08431414840399067 -0.061857725513929034 0.05815555941716797 -0.06268112828169531
2057125000.0 0.08940320394685454 -0.07461422082425218 -0.08570691340682057 -0.05980805294298934 -0.08622641584357751 -0.05973102565952054 0.059258382883699307 -0.06065593469107586
2058188000.0 0.08814178118991692 -0.07331373030364648 -0.08755922359268103 -0.05771071138890219 -0.08802300152179313 -0.05751212932459843 0.06018144419612796 -0.058013164738049114
2059250000.0 0.08667449274598833 -0.07215883660305333 -0.08938595949585182 -0.055457715371674654 -0.08979375062069464 -0.05521030325399601 0.06099877912311673 -0.054695143660921056
2060312000.0 0.08549929057293935 -0.07096053140059283 -0.09110699071820184 -0.05315795318005818 -0.09154174410185024 -0.052848230438717746 0.061267617152131006 -0.05108147543303524
2061375000.0 0.08416677518257741 -0.0696939260073864 -0.09280366588099077 -0.050798702264027495 -0.0932737877128249 -0.05048642423840329 0.061014134978317314 -0.04714458755896473
2062438000.0 0.08309856329428153 -0.06838608897091297 -0.0945156562518771 -0.04832191429999131 -0.09489010627962692 -0.047977225335549774 0.060221564167612165 -0.04334361838035615
2063500000.0 0.08219349978899514 -0.06700648253629297 -0.09608739333172217 -0.045821518571545636 -0.09638892010637988 -0.04545762208791254 0.05905695323467801 -0.039802117666835175
2064562000.0 0.0812719198740767 -0.06567439345764779 -0.09765642588740395 -0.04326662143816979 -0.09785967350887453 -0.0428591514332177 0.057501112689928933 -0.03684290638911446
2065625000.0 0.08037891313315605 -0.06434749743719788 -0.09906653604873811 -0.04072585985954796 -0.09923601987424402 -0.04024624151785871 0.055804824139887105 -0.034214847557159485
2066688000.0 0.07973563746538588 -0.06294959450276359 -0.10045699180495857 -0.03797085445709221 -0.10053385108666167 -0.03761976799666894 0.0541833906240925 -0.032282126532185165
2067750000.0 0.07897496259452515 -0.06167766907430455 -0.1017011994093536 -0.03527496955796627 -0.10168819392419567 -0.03488831197382122 0.05278470227692463 -0.030847676973886868
2068812000.0 0.07830098702695433 -0.06036645415324695 -0.10292736533447316 -0.032624679359220296 -0.10279496318514457 -0.03219406503948961 0.051738159276656134 -0.02999996598895896
2069875000.0 0.07769131445699214 -0.05894474403128103 -0.10393183477683382 -0.02970265530385048 -0.10376943795855914 -0.029431832252869532 0.05114291779034127 -0.0294914783830744
2070938000.0 0.07701623039922703 -0.05754205387541259 -0.10498347708169785 -0.026849924174256256 -0.10480288644972864 -0.026683278306935454 0.05120401070056023 -0.029112503559902435
2072000000.0 0.07641682866539014 -0.05604738591477951 -0.10584302147498557 -0.024014741303034822 -0.10571871849511934 -0.023919328705765353 0.05177266146549298 -0.028794091041234874
2073062000.0 0.0758700720085037 -0.0545494783252278 -0.10667254707592204 -0.02109842684755647 -0.10658328854906045 -0.021104683768618272 0.05294243323039139 -0.028358293325660183
2074125000.0 0.07533197469565957 -0.05293865857010468 -0.10754276079487556 -0.018006863251618942 -0.10740226096163472 -0.018297498153610148 0.05467622257807141 -0.027587536466873296
2075188000.0 0.07497887665649203 -0.05137997286030682 -0.10822398241312511 -0.015020393723051816 -0.10830473195177191 -0.01539597889392148 0.05669273004225727 -0.02648793049134702
2076250000.0 0.07454146333573708 -0.04966498918942625 -0.10875807813068906 -0.011979122081242468 -0.10898961406763859 -0.012324033683749349 0.059089519158306195 -0.0244937411774209
2077312000.0 0.07438960228159364 -0.04799432184522634 -0.10926002183448091 -0.008961808751687998 -0.10963225996376091 -0.009292645153691383 0.06147930471432157 -0.022175273261347352
2078375000.0 0.07421837062150141 -0.046239699909534325 -0.10966756011770398 -0.005866549705202424 -0.11011741784554083 -0.006082259558086154 0.06390784949380683 -0.019022867471107978
2079438000.0 0.07424528578965156 -0.04453315415330103 -0.10985776256912666 -0.0027625380828970054 -0.11056204330340264 -0.0028827131019640525 0.06592188937173507 -0.015471222212344222
2080500000.0 0.07433663628644425 -0.0427802979040747 -0.11008587998520267 0.0003378419177625779 -0.11084316303269011 0.0004951309027907873 0.06737707443008957 -0.011425458338506101
2081562000.0 0.07453468319165403 -0.04106051720840492 -0.1101439276824411 0.003464034063195629 -0.11099178500354105 0.003758260954171393 0.06817334627197881 -0.007495619234136996
2082625000.0 0.07484337751534376 -0.03942899575593694 -0.11033978534143242 0.006505640153880644 -0.11103733668119029 0.007063613238743224 0.06847679135042127 -0.003454938440688149
2083688000.0 0.07519728418849866 -0.03779122592885533 -0.11032923351127928 0.009635374682973478 -0.11092788759486849 0.010338221846165022 0.06814049187727363 9.652887095494182e-05
2084750000.0 0.07582641882514546 -0.0360160692125149 -0.11033907537556359 0.012684411746360364 -0.11065662266097834 0.01346807759691602 0.0674319239936593 0.0031362897476975046
2085812000.0 0.0763811638816007 -0.03436598040924524 -0.11027622805349882 0.015684442868064988 -0.11040892586152275 0.016509179188308937 0.06668391413202192 0.005255914305484513
2086875000.0 0.07698330998487825 -0.032563555604493116 -0.11005433901481 0.01875100471396093 -0.10997869329668608 0.01953197874646587 0.06581630257805747 0.0069710286412620415
2087938000.0 0.0777147784814534 -0.030795694549976615 -0.11003686347213293 0.02172893389046682 -0.10958544143257677 0.02258179593524647 0.06526367973056883 0.007820883861112675
2089000000.0 0.07848878494294524 -0.028866727221705222 -0.10966325858368539 0.024787690836292897 -0.10915017677331756 0.025359458166216466 0.06523460887287481 0.00823168572769424
2090062000.0 0.07938484252641466 -0.02701805289298698 -0.10923971109112454 0.027821324791784997 -0.10861396572374865 0.028283800218295484 0.06576351652287254 0.0080753249040184
2091125000.0 0.08039666657467988 -0.025079991915387265 -0.10865251927327967 0.03094389039666141 -0.10810023835800019 0.031166553127725108 0.06652957989952958 0.007839157600993423
2092188000.0 0.08152707589160492 -0.02314399131228136 -0.10796640657486911 0.03409353759111451 -0.1075660964399635 0.03415412824978724 0.06830012855645852 0.007570191749963329
2093250000.0 0.08266551503274087 -0.02116916361378682 -0.10726801353001456 0.037291207742793854 -0.10692684181753359 0.03707818011717058 0.07053403171550196 0.00741734757100782
2094312000.0 0.08402388609770375 -0.018977763021072538 -0.10637871553583644 0.04040903444110076 -0.1062904340314346 0.0400904957541412 0.07298993429129728 0.007698396484989104
2095375000.0 0.08543029370231288 -0.017119704213079595 -0.10531154334354585 0.04370016475693464 -0.10544051415361444 0.043197362740817674 0.07595355206124846 0.00829333674147065
2096438000.0 0.08689830800782257 -0.015172105786747296 -0.10418045130376075 0.0468185920432986 -0.10453525282823595 0.04638625593659843 0.07879338252444783 0.009137241045705981
2097500000.0 0.08842770888743778 -0.013366147614854435 -0.10286816165265764 0.049993928884351835 -0.10337796995819874 0.049558597525573 0.08190488756983022 0.01067267180557181
2098562000.0 0.08998525766045831 -0.011508589471030327 -0.10152875755390202 0.052903307330932195 -0.10213001894692154 0.05280466546142069 0.08479115190470066 0.012688123642785749
2099625000.0 0.09149806792232884 -0.009829933565814176 -0.10001959674425824 0.0559112800677692 -0.10060577917901858 0.05593380572212765 0.08723228272498595 0.015093926679722388
2100688000.0 0.09305034634138291 -0.008114784965471458 -0.09843461835935176 0.05869847154798467 -0.09901971173064149 0.05898774590866518 0.08938979563137121 0.017732225994754557
2101750000.0 0.09465898120969461 -0.00653536231235349 -0.09667235771461989 0.06155806129643001 -0.09719101051918098 0.06214816375468491 0.09092097706775663 0.0205725952351227
2102812000.0 0.09620412185662415 -0.005011029237439513 -0.09502840385862904 0.06429708266395585 -0.09536167742389277 0.0651176482823868 0.09181234042371006 0.022988793542948624
2103875000.0 0.09769039934008461 -0.0035688890516117054 -0.09311975092729767 0.06713585547837116 -0.09341141072525062 0.06798033362249607 0.09206857545328513 0.02522551215817836
2104938000.0 0.09935847643434907 -0.002019797326079428 -0.09139923711618782 0.06970837995981521 -0.09140262793015996 0.07069734808048744 0.09215936829493135 0.027217443276885404
2106000000.0 0.10096266795113173 -0.000627328796173478 -0.08944675086001548 0.07246925092650999 -0.08942683656169294 0.07325492138022227 0.09192284872289741 0.027957520538220555
2107062000.0 0.10274254393727267 0.0006049099708371886 -0.08770038110525409 0.0752814082668205 -0.08746841828796725 0.07588785178610893 0.09179103190017462 0.028415248515368238
2108125000.0 0.10451084307317916 0.0018627757767734987 -0.08581558027152095 0.07786647021032335 -0.08544579204086908 0.07827886586791494 0.0920535240040341 0.028244631942038877
2109188000.0 0.10635405718516573 0.002975749955526955 -0.08393795783446824 0.08045699332755113 -0.0835085078877796 0.08071451791338222 0.09257346233889945 0.027196705254363726
2110250000.0 0.10813173677521826 0.004063742065357856 -0.08185059171794118 0.08302161096424795 -0.08143917764324027 0.08303778864092226 0.093485065104343 0.026145118477310433
2111312000.0 0.11000391758821053 0.004829187684132622 -0.07985312135654164 0.08545370446649295 -0.07943971428745558 0.08544831922526346 0.09540018546825012 0.02476530143000185
2112375000.0 0.1118209584874828 0.005482210150722084 -0.07772144329012315 0.08786156314324559 -0.07727057365763927 0.08781221269347692 0.09742173524961271 0.023595926127984772
2113438000.0 0.11369279150146896 0.006150765606911297 -0.07533039869096493 0.090133656796862 -0.07509533164386654 0.0902079122139352 0.10041792036420813 0.022478773397747977
2114500000.0 0.1154643206159624 0.006498116623311124 -0.0729445402133013 0.09247626815360975 -0.07281682289290028 0.09252402476120647 0.10341477236624746 0.022003173100952466
2115562000.0 0.11731152486593889 0.006951373918142428 -0.07042483279554716 0.09468892665110712 -0.07038624088308497 0.09487575473406133 0.10658664347134134 0.02173363826618089
2116625000.0 0.11896482380466865 0.007066229085214202 -0.06777791867393249 0.09684043932739814 -0.067837570524803 0.09712638439671387 0.1101291389913752 0.02194502521706683
2117688000.0 0.12068002378623345 0.007385730408674216 -0.06508622778932677 0.09903265808714987 -0.06520856698782991 0.09930046454882659 0.11354193770850551 0.022378220713603014
2118750000.0 0.12221261678298227 0.007430288175793306 -0.06215425270602811 0.10117612389418636 -0.06240713042759764 0.10147182499045573 0.11646860855690265 0.02326589304881615
2119812000.0 0.12385464015234779 0.0075549162770226445 -0.05933543617924929 0.10316152551298155 -0.05953491826081694 0.10345055878469124 0.11921187666117351 0.02462724970301554
2120875000.0 0.12553192584325149 0.007629429357501548 -0.056451287684670545 0.10494822333619795 -0.05653148328660318 0.10534852372002447 0.12136122398887697 0.025963275706035464
2121938000.0 0.12693068637308297 0.007629590565585171 -0.05358558047174964 0.1068687769316754 -0.05351799927058383 0.10709177414631187 0.12309753809242917 0.02713279213258807
2123000000.0 0.12840424515281795 0.007632946791270957 -0.050643560260271225 0.108497040547919 -0.050407749943686735 0.10878041221885414 0.1244472686952356 0.028173138216248585
2124062000.0 0.12975232745485973 0.007542112247202583 -0.0476891114416565 0.11017821625552508 -0.04734619061586334 0.11041672695499521 0.1253693434026843 0.02896809932007874
2125125000.0 0.13099496546075753 0.007392119252954495 -0.0443958922613254 0.1116325552691913 -0.04409087485208442 0.11196898283862275 0.12584266694561286 0.029315204633637012
2126188000.0 0.13215877785265448 0.0072365021597630575 -0.04133791503446182 0.11301443730471336 -0.04099283256219306 0.11347059373339628 0.12645068769141582 0.029043151028045427
2127250000.0 0.1331696887226698 0.007140751672141125 -0.038065142196173345 0.11458228014916978 -0.03777278610055508 0.11481955510166189 0.12682155440851012 0.028200405192257014
2128312000.0 0.13401484404243183 0.006994939015124033 -0.03486875594717345 0.11587790610473653 -0.03452282324813338 0.1161936599309365 0.12750151754728795 0.027094330439301352
2129375000.0 0.1347748497391852 0.0067117914259728325 -0.03145672048321196 0.11715396662455452 -0.03131183526350861 0.11744538845987747 0.12857710325655775 0.02562005476578745
2130438000.0 0.13546084518492088 0.006375190188219013 -0.028109933477536382 0.11835906145731621 -0.027960169197918532 0.11871903633264327 0.13024697778005626 0.023829332350941135
2131500000.0 0.13581408593895625 0.0060974823953039384 -0.024720204433202417 0.11949531819420825 -0.02457616260672927 0.11969858900093351 0.13211343988166582 0.022015127058221427
2132562000.0 0.13613060416975037 0.0057868146393481755 -0.021327982726020454 0.12052610221590589 -0.02118716308187621 0.12058593778193955 0.13442330719325965 0.020539542143534113
2133625000.0 0.1363758174717953 0.005480650205331068 -0.017988549856209127 0.12153116513703953 -0.01771496244344542 0.12141667755324921 0.1372415836567137 0.01922012326423423
2134688000.0 0.13655320958894104 0.005126222941611628 -0.01434001386841839 0.12223351603117921 -0.014192571958908981 0.12224111989696926 0.14005146363705273 0.018391861205972918
2135750000.0 0.13649549866677427 0.004704500535136778 -0.010833054777538098 0.12280822487951615 -0.010642463938798004 0.12286151094238011 0.14289776613092467 0.0178957322777471
2136812000.0 0.13633622012016203 0.004420585828541759 -0.007226913115781226 0.12326846532602621 -0.006963148223848105 0.12335584879208952 0.14565668254847597 0.017852974363906624
2137875000.0 0.13619979268050858 0.003986900831038082 -0.003701049439861771 0.12366715086115303 -0.0034542935514313296 0.12390741441569518 0.14808008309971987 0.01811351819677611
2138938000.0 0.13583588535513325 0.0034965906260411165 8.453939997920102e-06 0.12400114553315944 0.00016600818847396843 0.12433895753166764 0.15023019132896726 0.018522687758843973
2140000000.0 0.13543504260868106 0.0031945753708213097 0.0036751065889619222 0.12433210040844588 0.003796693228786228 0.124660921171514 0.15168223997928645 0.019149656603575232
2141062000.0 0.13505637759129313 0.002826202104997971 0.007334625249351334 0.12436463197953262 0.007414007201033662 0.12481918309475565 0.15263262007813305 0.019602178363708835
2142125000.0 0.1346194388694592 0.0024336724072611155 0.010985801389430101 0.12442050150721858 0.011148812985518486 0.12485087989372842 0.15315786013836843 0.01983849780187326
2143188000.0 0.13433562996481074 0.002129493268605153 0.014724806932904934 0.12439475738767003 0.014990389635868856 0.12477600559608922 0.153366360274206 0.019791171593881697
2144250000.0 0.13395916779411834 0.0019181354618261525 0.018364148546386783 0.12416586144991276 0.018677932733722823 0.12450713047146564 0.15311949688296014 0.01932248940188085
2145312000.0 0.13356204024646776 0.0016918929411079238 0.021960488883364174 0.123996045410525 0.02251848766458719 0.1241391857279838 0.1528671222403881 0.018372139073659387
2146375000.0 0.13332190103986177 0.00159770277081187 0.025705172981671024 0.12359270284000716 0.02634030075551801 0.12367407756867325 0.15266551426613317 0.016956013774073134
2147438000.0 0.13313458351232146 0.0014503981679623989 0.029479028784647487 0.12310432776105537 0.030202885703066826 0.12312026259706992 0.15259495734468076 0.015100409541927286
2148500000.0 0.1329623680917495 0.0014703747371841303 0.03327054434095443 0.12255644066112868 0.03401547016093502 0.12242246258384049 0.1529219408088329 0.012989993603860009
2149562000.0 0.1327786257609378 0.0013920757612023668 0.03697677902391547 0.12185015228274422 0.03766397790177859 0.12164870457023264 0.15382678225292357 0.010740260356236224
2150625000.0 0.13276458107344521 0.0014818775306984844 0.040677359369291365 0.12097932543833571 0.04129189759594594 0.12076625925083015 0.15503642942101378 0.008473942811536937
2151688000.0 0.13283264594248528 0.0015756876599369919 0.044588822424209314 0.12011461105378049 0.04483097062778537 0.11980117381998227 0.15675471237154448 0.006649107429290052
2152750000.0 0.13280944429780467 0.0015910091198516817 0.04841605989939288 0.1190599609113007 0.04839188996851792 0.11868560352330389 0.15876647664711716 0.005121985832754733
2153812000.0 0.13292287253170884 0.001983693038595528 0.05221365594935253 0.11781476829414912 0.05187171597517582 0.11747058159379968 0.16070624719865642 0.00402516326670464
2154875000.0 0.13288279262199792 0.002348337249056977 0.05607573512591175 0.11636672761505433 0.05555617340765336 0.11617491281547153 0.16264237810428164 0.003468817238686669
2155938000.0 0.13290452361596855 0.002717621489226735 0.059776499807955935 0.1148069098464126 0.059208600749422066 0.11482142732600806 0.16435108601722487 0.003407446370932749
2157000000.0 0.13302012719322082 0.003311368245907728 0.06349733190260333 0.11296839920628751 0.06292400313802098 0.1132878931723538 0.16568301365915197 0.003540213159081154
2158062000.0 0.13328715956621234 0.0038568173251686162 0.06704259241617969 0.1111066374518913 0.0667433810411359 0.111647493594413 0.16662052017611034 0.003777694745479483
2159125000.0 0.13352808046753148 0.004503802191940275 0.07045023091281358 0.10902299454895005 0.0703831436098585 0.10984807656689188 0.16690258534603566 0.004256089921715012
2160188000.0 0.134087954912436 0.005341350942408167 0.07372199495179164 0.10687753902693736 0.07415166341543257 0.10777375954971555 0.16658877128186866 0.004537844636597951
2161250000.0 0.1345458342041763 0.0059943631884116595 0.07698498627115367 0.10448634995994326 0.07767219126353749 0.10549828113966754 0.16580535815753952 0.0047029234704817555
2162312000.0 0.13514303167028116 0.0066905593884512855 0.08015289063519666 0.10227247421079233 0.08109086802903348 0.10308083980129569 0.1646522384368862 0.004350375793505571
2163375000.0 0.13597275370475354 0.00721708147488281 0.08320357467323797 0.09988029784234721 0.08433543826693521 0.10041323586314294 0.1632745191531579 0.003953254045205048
2164438000.0 0.13676350455204683 0.00778388346997387 0.08614656060245839 0.09747477128599114 0.08740313747853527 0.09767057233825382 0.16170717683983082 0.0029539834098471305
2165500000.0 0.13765781317039022 0.008169046096524506 0.0890043760924025 0.09487378354408837 0.09025593354690514 0.09477795426036596 0.15999872221594783 0.0013531384456391617
2166562000.0 0.1385332160769808 0.008526585969413754 0.09198614114709101 0.09239839175455573 0.09294170241310512 0.0918126191659838 0.15891015022788604 -0.0007275284886079293
2167625000.0 0.13945284326804064 0.008858591571603893 0.09479069795695805 0.08980142536405945 0.09552895167213993 0.08888763691760844 0.15818757185494287 -0.0030399286919527277
2168688000.0 0.14051456360056896 0.009002743096729568 0.09761864164407034 0.08723303153816482 0.09814920366890334 0.08614026500093423 0.15764077133613924 -0.005455720924747038
2169750000.0 0.14156952902549508 0.009303284048101403 0.10051608777087752 0.08457719153200653 0.10061300885865439 0.08328161766997629 0.1579725728333335 -0.008199124901630448
2170812000.0 0.14271447566949402 0.009475084791426608 0.10323271799042857 0.08153963876108566 0.10299920715257732 0.08062667628958937 0.15915020667986646 -0.010513441828673135
2171875000.0 0.14392872773432602 0.009743640892847797 0.10597323243939552 0.07856510737319296 0.10558061882369792 0.07785462941489367 0.16071702061939394 -0.012481791700326296
2172938000.0 0.14514021713332592 0.009937741810159075 0.10866920592926671 0.07539555267289837 0.10810543524070874 0.07508501671555147 0.16289383740827867 -0.013779563563507197
2174000000.0 0.1466938043921188 0.010162574377920529 0.1113274775298189 0.07213677792386988 0.11060515374577334 0.07221724936374 0.16533882918654463 -0.014574067838558172
2175062000.0 0.14839813405473573 0.010319082521565038 0.11385581481643592 0.0686664025678903 0.11322188962850877 0.06905933569596256 0.16743068764591382 -0.014622336612835749
2176125000.0 0.15020310705080045 0.01048939723633953 0.1162010070502112 0.06494482705092214 0.11578822526953077 0.0657091762200709 0.16939278161593144 -0.014135893246223842
2177188000.0 0.15207095587158884 0.010592424669206025 0.1184530007138197 0.06132620335092856 0.11831728791163043 0.06212308213810785 0.1706040759781161 -0.01318648829325337
2178250000.0 0.1541076057203377 0.010400135031645634 0.12034045084449851 0.05756165606702649 0.12068886739048221 0.05831031974008686 0.1714193745750979 -0.012056133987082222
2179312000.0 0.1561478811867524 0.0103479554835988 0.12203855435256307 0.05368343162961493 0.12270361340765559 0.054325265932289875 0.1717339707577296 -0.011062861975603683
2180375000.0 0.15824041407767422 0.010050074948330481 0.12368862563128645 0.0499802505302755 0.12458924585855723 0.05018679726675502 0.17118742149394597 -0.010079109159259874
2181438000.0 0.16040131064708346 0.009641791648014507 0.12500210698312905 0.04601106111957498 0.1261507462542651 0.046013464945644365 0.17022564266374804 -0.009544468456473637
2182500000.0 0.16238043365080007 0.009287507961283822 0.12641797586026046 0.04215674359757984 0.1274592013704773 0.041906518578322643 0.16885401164355252 -0.00924303296744404
2183562000.0 0.16432279845505962 0.00890172874743509 0.1274917571173743 0.038242931814155647 0.12841895515733986 0.037762175443525975 0.16731431490457996 -0.009714769709239044
2184625000.0 0.16628553736391488 0.008605407601531301 0.12835847754370755 0.03435084431377803 0.12928109750524147 0.03373075998800807 0.1659866182748028 -0.010418637926162617
2185688000.0 0.1681847114074813 0.008123910412601507 0.12947825933877316 0.030581494821943396 0.1299930478143577 0.030008349551393722 0.16504391279634667 -0.011643796143126219
2186750000.0 0.16986489862200346 0.007990921356257863 0.13028150118635787 0.026890169239215892 0.13045899450611648 0.02621434888103185 0.1640945687954751 -0.013195895238342166
2187812000.0 0.17185146569131107 0.007805963309803458 0.13101820986719437 0.023151459657389517 0.1310902736660739 0.022552105084420012 0.16415759992089504 -0.014825273504648014
2188875000.0 0.17376531648617158 0.007562723158040285 0.1317587406514048 0.01936786089278938 0.13163390150354548 0.01880999075415765 0.16458279684010055 -0.0165512891545919
2189938000.0 0.17573305838779824 0.007409152566844215 0.13242606297823484 0.015410837850886625 0.13234347568361102 0.015162894693088888 0.1658234376989986 -0.018284990121974685
2191000000.0 0.17770326616064833 0.006998776041395409 0.13310927516625343 0.011649978784982407 0.13302936056402143 0.011329452396181695 0.16769337514690077 -0.02006311214195653
2192062000.0 0.17973973020613998 0.00677821838804287 0.13374327858218263 0.0077334354171252045 0.13373540760908534 0.007449281954004835 0.17026494647356924 -0.021048497596832985
2193125000.0 0.18173748168119216 0.006357831639723565 0.13416222344064846 0.003621316767641453 0.13436078960740205 0.0034593116354858107 0.17299908295847216 -0.021624927086380023
2194188000.0 0.18376343288204297 0.005717008180637595 0.13454917472612887 -0.0004596392398195451 0.13491327177047874 -0.0007279756365008006 0.17619010573521 -0.021504214597742533
2195250000.0 0.18566740680975294 0.005066596172045388 0.13479173701931715 -0.004749382084974207 0.13518618263675586 -0.005032933639573113 0.17923581408003855 -0.02092075137160578
2196312000.0 0.18750476483239933 0.0044584239014242265 0.13495524352076288 -0.008984137559261085 0.13534715259713553 -0.009369756512389126 0.1818140005965259 -0.01964084017935303
2197375000.0 0.18928796458223127 0.0038703474826561257 0.13479436679517107 -0.01333882381697987 0.13513643639117448 -0.013718387913041002 0.1839313190949028 -0.01781234889669045
2198438000.0 0.19116361161835885 0.0032543947273958544 0.1347034042114838 -0.017578664796337774 0.13479604388635205 -0.018117990353741665 0.18541325303280357 -0.015908685002014072
2199500000.0 0.19271618191949852 0.00284242353695133 0.13429301018866108 -0.021938992121714584 0.13421989820198663 -0.022361009112799753 0.18616434616815283 -0.014108720260852955
2200562000.0 0.1943162566168587 0.0024140979810765213 0.13358587911082265 -0.026162845804272722 0.1334369148628876 -0.026629504744587428 0.1862264006803748 -0.012430493625612287
2201625000.0 0.19584792701262116 0.0020289974387854726 0.1327963451988588 -0.030216780613366752 0.13245425228651966 -0.030677189395274865 0.1858658575468306 -0.011150792045818758
2202688000.0 0.19745771116095395 0.00170107248446692 0.13175952771942137 -0.03444081991777519 0.13145832125859447 -0.03464923305557924 0.1850485922708311 -0.01048924280198695
2203750000.0 0.19906616658319523 0.0015553932800093612 0.13068802157768972 -0.03849646583947605 0.13037097447887852 -0.03855291525969655 0.1843878734168627 -0.010509020577849628
2204812000.0 0.20088496476605228 0.001486944807752028 0.12937889507421518 -0.04245274124679638 0.1292739413143784 -0.04233627168461438 0.18384136965586775 -0.01102520420999998
2205875000.0 0.2025728899596577 0.0013230970295275849 0.1280426126046811 -0.04643389031979075 0.12801202084269148 -0.04609883799081004 0.18348461788274137 -0.011982877075375957
2206938000.0 0.20453309168968442 0.0010963150311186925 0.1264633103424558 -0.05022511344817584 0.1268345046559521 -0.04992597830601822 0.183671221997607 -0.013316501792257863
2208000000.0 0.20629429158616733 0.0008504399201936762 0.12490493596335407 -0.05396764128934786 0.12552083666743283 -0.053719832487899556 0.18449960786193123 -0.014886943155698813
2209062000.0 0.20813270785625157 0.0005126500258292615 0.12322165452584252 -0.057802160617996354 0.12402969619849144 -0.05757902417095137 0.18590232036147114 -0.016623379190830734
2210125000.0 0.21000020805952796 0.000333893063674827 0.12147980130877932 -0.0613629345203157 0.12234111022728152 -0.061474239929581474 0.1880470967066047 -0.01842394998315395
2211188000.0 0.2118696010648533 7.98534992768571e-05 0.11965609470306601 -0.06501302232041459 0.1205991199379064 -0.06537699527850939 0.1908862772860305 -0.0198350978389086
2212250000.0 0.21358034097174336 -0.00019331748192549385 0.11768304597250402 -0.06850551854177744 0.1184291410877048 -0.06943820095858502 0.1940020186930078 -0.02087216526998022
2213312000.0 0.21524231702535068 -0.00043566060042720333 0.11574960767332924 -0.07197001936583604 0.11627209918361578 -0.07321574490600327 0.19744576678923606 -0.02147367225293504
2214375000.0 0.2168604132287773 -0.0005569976957378126 0.11354476052824751 -0.07554496731087577 0.11366490810546451 -0.07696629825495623 0.20091562526630966 -0.021573681574531895
2215438000.0 0.21844024505237325 -0.0006303838624654071 0.11128652828128255 -0.07914364578126783 0.11120095404126079 -0.0805489236081027 0.2042844747036161 -0.021028387289402987
2216500000.0 0.2200787375701845 -0.0005733797975352765 0.10894681282256409 -0.08267373481130295 0.10849952333905073 -0.08398655514223788 0.2070150504698967 -0.020036302257380994
2217562000.0 0.22199072326956737 -0.0006996555962730352 0.10651673679932355 -0.08623121236185914 0.10579291142068263 -0.08724836946557786 0.2092595584396341 -0.01885800896339392
2218625000.0 0.22357258016757736 -0.0007429677409017737 0.10380707669110419 -0.08970222493845036 0.10308716347136058 -0.09027041683051269 0.2106425184294197 -0.017579241325089284
2219688000.0 0.22549761606390722 -0.001027226889436105 0.10111145925416393 -0.09313600731225687 0.10030776625277153 -0.09324233418734601 0.21158818804131801 -0.016517903934841597
2220750000.0 0.2274685857806226 -0.0011561416270144302 0.09836921398296726 -0.09649689674613889 0.0975599764592198 -0.0962255621820137 0.21169206268545618 -0.015787167601663734
2221812000.0 0.22943421739979925 -0.0014714001864330186 0.09548407331500995 -0.09968560614616281 0.09481103017270211 -0.09915655342561427 0.21153407516849362 -0.015481851440586636
2222875000.0 0.2313603206908818 -0.0019797635813114016 0.09239964555785583 -0.10260705273103796 0.09186853007873162 -0.10202025317145608 0.21111087329494516 -0.016011520308385402
2223938000.0 0.2335544588196603 -0.002559835339840661 0.08909201606325273 -0.1054507551451525 0.08895327445850884 -0.10492223909735202 0.2107279442274726 -0.017037613913806895
2225000000.0 0.23570165196496734 -0.0032737157195423996 0.08577778891102937 -0.10817790451812972 0.08590857390857531 -0.1078249716958925 0.21073611116473112 -0.018774767823005356
2226062000.0 0.23784007570682056 -0.003988565985524163 0.08218799718119307 -0.11077929914306722 0.08261453310668451 -0.11068981968234025 0.2109965348927246 -0.02103531097725894
2227125000.0 0.24012919614853445 -0.005026012698352888 0.0785844698599905 -0.11331562595954067 0.07927032858077965 -0.1133459069360466 0.21172378811976963 -0.02357393509610043
2228188000.0 0.2420281695593217 -0.005810804522069307 0.07507895293966485 -0.11560110081832253 0.07579239970549143 -0.1160425963541623 0.21320765626965885 -0.02613506378546255
2229250000.0 0.24429433476542586 -0.0069590599420154995 0.07128664821475969 -0.11785004418575541 0.07200497838844677 -0.11836460749879368 0.21496482044830398 -0.02919584329849602
2230312000.0 0.24652075857380212 -0.007910681478128186 0.06757082983136664 -0.11998335280758396 0.06809568146622517 -0.12074772003966817 0.21755461715408966 -0.032167184622985144
2231375000.0 0.2486535436532652 -0.009108050041931081 0.06377286117441229 -0.12190044717644224 0.064071734126144 -0.12269840792024468 0.22057261247587664 -0.03496762726184999
2232438000.0 0.2509191373178115 -0.01041669449224037 0.060030267322914464 -0.12376801534882455 0.060063204462575445 -0.12449753495472131 0.22391263023581773 -0.03724863900580872
2233500000.0 0.25311046439055995 -0.011744529309579041 0.05614197194389417 -0.12546882264633957 0.05594794632733375 -0.12617808775459186 0.22738459495878155 -0.039358809962890186
2234562000.0 0.25539329451579706 -0.013184715839393494 0.05213658308262433 -0.12699903830010958 0.051776173733789746 -0.12759790869167792 0.2308933769059972 -0.040774568751514445
2235625000.0 0.2577585627087865 -0.014744205191990626 0.04823966725474184 -0.1283320279447414 0.047567503417634965 -0.12889949048736893 0.23405738660828893 -0.04181921096485767
2236688000.0 0.26006539892681957 -0.016381374563457094 0.04418688151578021 -0.12975666761082866 0.04346544839386932 -0.13019122807027572 0.23716470404075038 -0.04229785821147745
2237750000.0 0.26225796551989145 -0.018294022086778064 0.04005026271447732 -0.13085218954139424 0.03943461158756394 -0.1312917847868573 0.2389736645834628 -0.04248700295957139
2238812000.0 0.2646558141224077 -0.020174340209593085 0.035802022834044184 -0.1319442922937278 0.03521323493705104 -0.13221489577370787 0.24019396376570593 -0.042939018350687454
2239875000.0 0.26682591184023374 -0.02222505147588569 0.03157713107043976 -0.13292945589476238 0.031134142662681365 -0.13310211629336424 0.2411633160576147 -0.043407551031252205
2240938000.0 0.26894268006993133 -0.024512288063392066 0.027343995992464842 -0.13388360472460875 0.027079033615046256 -0.1339036982168556 0.2408686144346343 -0.04457989285342861
2242000000.0 0.2710139201607168 -0.026887982480039516 0.023008497492713803 -0.13448246005890863 0.02283668807473751 -0.13461349657736194 0.24048392004972033 -0.04625649765896951
2243062000.0 0.27294786185796466 -0.029274339241949356 0.018793258360839168 -0.13513806001070325 0.018630970284943305 -0.13511003671569122 0.24030475559938683 -0.0485938335252609
2244125000.0 0.27507377184676524 -0.031845772100123716 0.014446950093260988 -0.13565115933488256 0.014416990000156055 -0.1355671418149743 0.2397442906175574 -0.05152254362403939
2245188000.0 0.27686483793510736 -0.03451323233064146 0.010255369728158 -0.13592557594554303 0.010138819066281963 -0.13584437298727967 0.23964989336303766 -0.05523145613977524
2246250000.0 0.27859103545662056 -0.037373155373600926 0.006035649088107765 -0.13607696531958718 0.0059346329687372 -0.13598202607814464 0.24012946309340152 -0.05898637949578895
2247312000.0 0.28030223016405176 -0.040116100781505556 0.0017161136765192384 -0.1360799067730108 0.001605389657762111 -0.13601240878119522 0.24105956731824002 -0.06344812019153426
2248375000.0 0.2818924426269764 -0.04326025098974284 -0.0024443437837559 -0.13581704086724475 -0.002736484959183562 -0.13596172162211753 0.24253378242589615 -0.06756374961029732
2249438000.0 0.28323363520825506 -0.04624904380887294 -0.006694661258684539 -0.13551370938293059 -0.007008251395403413 -0.1357678820935793 0.24459452329830042 -0.07161616150638378
2250500000.0 0.28464827125710007 -0.049588581843693295 -0.011048357093154304 -0.13519327414070642 -0.01131396402727189 -0.13545100679351274 0.247081097173158 -0.0754063258139229
2251562000.0 0.2859592066177586 -0.05283340480257226 -0.01518884714409508 -0.13454998175118893 -0.015555949227289248 -0.13498920430142866 0.24964664398007622 -0.07894234885081147
2252625000.0 0.28726458578631076 -0.056416878370453304 -0.019436589250609954 -0.13393433271401012 -0.019754177426839003 -0.1343250752137362 0.25261820585229605 -0.08182832664815495
2253688000.0 0.2883740031422026 -0.05995285812429717 -0.02374375060666457 -0.133155344934571 -0.023984678589924667 -0.1336108999280804 0.2553539525601133 -0.08450607714590883
2254750000.0 0.2894860662571808 -0.06371835139221982 -0.027832505362134278 -0.13228327300356746 -0.028171528406077756 -0.13260098470652285 0.25801881462855736 -0.08675039586127062
2255812000.0 0.29047755712533124 -0.06737045351856247 -0.03194085436522301 -0.13137690027326254 -0.032152309024023405 -0.13133217853423862 0.2604194851748225 -0.0883842869182018
2256875000.0 0.29158499978086344 -0.07127610285645179 -0.0358573534609945 -0.13002383876819637 -0.03633191035288918 -0.12998599929360644 0.26248659548385894 -0.08972683644679502
2257938000.0 0.2925332890429443 -0.07525812585047478 -0.03984958809676117 -0.12877746367947485 -0.04031315686625999 -0.12851480367221635 0.26391221558005323 -0.09106388359774076
2259000000.0 0.29352550965001634 -0.07930927389600322 -0.04383739364407604 -0.12696722075644037 -0.04417965050872437 -0.12685821498866165 0.26475441986249676 -0.09235763611832336
2260062000.0 0.29430389376649413 -0.08341016674805143 -0.047651562103539095 -0.12531058476930598 -0.04785208703510844 -0.12505809542989954 0.2649136218264416 -0.093860747328274
2261125000.0 0.29504340486298525 -0.08748957834516326 -0.051528475055403304 -0.12341286620575496 -0.05163976800813161 -0.12324339884435674 0.2644317742299934 -0.09577471189519021
2262188000.0 0.29574808920256773 -0.09170150712232064 -0.0551060080564171 -0.12148925518829845 -0.0552117851030615 -0.12141204348175094 0.263669589403897 -0.09819519850176754
2263250000.0 0.2961367815676595 -0.09580216109995389 -0.05874547199201763 -0.11931084474127567 -0.05868110110582757 -0.11940123351878017 0.26281870438613214 -0.1011103931371063
2264312000.0 0.29647575927596903 -0.09983043672595793 -0.06213728820301324 -0.11722723527777731 -0.06203382197354336 -0.11742217420108614 0.2619969903670288 -0.10466932531162242
2265375000.0 0.29683123302599396 -0.10396486929716713 -0.06551654694575025 -0.11482377108447363 -0.06537544195002153 -0.11530693063059928 0.26135436485377245 -0.10875344724656641
2266438000.0 0.29704102234586416 -0.10794169601580428 -0.06875467941288 -0.11258971156852253 -0.06851668649098897 -0.11310224829957277 0.2612944347251298 -0.1129214162156748
2267500000.0 0.2974209981299987 -0.11192642488098112 -0.07168823193934237 -0.11019482437225449 -0.07185513623151935 -0.11079218762612038 0.2613273306235342 -0.11730417523742401
2268562000.0 0.29742713403858756 -0.1158792532016659 -0.07479598343161872 -0.10769367899574557 -0.0751097969868829 -0.10834514541959865 0.26194899147943307 -0.12164002138225759
2269625000.0 0.2974342074617285 -0.11982861538681393 -0.07764947762044973 -0.10525807822412185 -0.07839307467545951 -0.10584265184652676 0.26284585234246804 -0.12557516500028748
2270688000.0 0.297502530555888 -0.12359347810373603 -0.08049328754697442 -0.1027509810582518 -0.08149603285083916 -0.10318184975816186 0.2640463492171258 -0.12910929620026507
2271750000.0 0.2975025732073903 -0.12733859452425547 -0.08345541407575836 -0.10025196932963715 -0.0846170342131649 -0.1003426277926971 0.26535490059071704 -0.13238871944672276
2272812000.0 0.29733628939496015 -0.1311258750888771 -0.08629952868850102 -0.0975956575767127 -0.08756963867375121 -0.09753690160053444 0.26658403837405537 -0.13495912634586177
2273875000.0 0.2971490892156841 -0.13485137622251275 -0.08920739800613642 -0.09502001822679722 -0.09029550905478792 -0.09456803748957715 0.26778534477921495 -0.13710458998940225
2274938000.0 0.2969304561040557 -0.13850018011665324 -0.09189264216383486 -0.0923384230309498 -0.09279042221697252 -0.09167852946839587 0.26853379789373155 -0.13892269192466897
2276000000.0 0.29651091011919795 -0.14209694303397222 -0.09457723103663489 -0.08941755092023507 -0.09514690808382816 -0.08863247843443585 0.26878051202619996 -0.14031897895109177
2277062000.0 0.29602732369853446 -0.14562971654046644 -0.09714459763811746 -0.08657249129774085 -0.09735386161740386 -0.08560074077426373 0.2684918536935256 -0.14175267024415883
2278125000.0 0.29535785873365467 -0.14895930089287282 -0.09972702962806906 -0.08345373032185543 -0.09950993973697453 -0.08253752132972624 0.26777800743980434 -0.14310037064989523
2279188000.0 0.2945776053992359 -0.1523704819717529 -0.10209861150350244 -0.08018128913384907 -0.10151402772955956 -0.07951943292465322 0.26631172270331105 -0.14473122522094992
2280250000.0 0.2937986356237023 -0.15559181132882222 -0.10435209309902582 -0.07701208971928046 -0.10361183605933323 -0.0764975715334239 0.26439332688527095 -0.14675973283398208
2281312000.0 0.29293804980612603 -0.15873539056566371 -0.10633265544366496 -0.07372097241211929 -0.10555432974519435 -0.07354611156653001 0.2623757078629003 -0.1492450845911241
2282375000.0 0.29211447354295955 -0.16187548044075517 -0.10838122266512548 -0.07010177999976794 -0.1075907928484106 -0.07043809394730773 0.26019762114979583 -0.15247369517187231
2283438000.0 0.29130188238831367 -0.164837128376568 -0.11000566840374644 -0.06659397059671397 -0.10951080143079846 -0.06730705723930752 0.25837556752140683 -0.15609155604994435
2284500000.0 0.29059633815110003 -0.16788754429194339 -0.1115384519332259 -0.06306977576126725 -0.11145281216947546 -0.06410204091034455 0.25656132709659574 -0.16022374038599554
2285562000.0 0.28983623698980754 -0.17086378715132167 -0.11308466294786501 -0.059489917994950556 -0.11324387076207021 -0.06070780414168911 0.2552541672127923 -0.16444215032811255
2286625000.0 0.28918887619011396 -0.1736986497585374 -0.1141855741055872 -0.05606715784900764 -0.11500423705461357 -0.05720111450109171 0.25442313129733346 -0.1687761075243476
2287688000.0 0.28861873424627926 -0.1765164174818513 -0.11533395357084654 -0.05265345080779658 -0.11647493445004771 -0.05353330592252666 0.25395845404168216 -0.17305999962701513
2288750000.0 0.2880162607689982 -0.17933278674735326 -0.11638822017500519 -0.049243798581450955 -0.11780067168433757 -0.04974893357500169 0.25385036012114376 -0.17694343627429204
2289812000.0 0.28751062091778035 -0.18198133256794485 -0.1173270082944972 -0.046025405650973863 -0.11879140349686465 -0.04598590259926211 0.25424953741972794 -0.18041722060224955
2290875000.0 0.28697769982497373 -0.18471290976672197 -0.11832941260625147 -0.042731048044047815 -0.11975959032841535 -0.04223618873870888 0.2547212931557294 -0.18355382908462786
2291938000.0 0.2861722391680957 -0.1871523702032227 -0.11921279900954743 -0.03936387612329382 -0.12048415953594645 -0.03852249750152392 0.25506558149926023 -0.18609073812041574
2293000000.0 0.2857003960031413 -0.1895344450602333 -0.12022406028102459 -0.036226738439981046 -0.12116985847623361 -0.03505106330465391 0.25535516877663167 -0.18825959697689257
2294062000.0 0.2848210594047155 -0.19187834560786496 -0.12128113716711912 -0.03287495379329805 -0.1217613222595716 -0.03154973132251267 0.25540871076681637 -0.18995572458436502
2295125000.0 0.28417438492875746 -0.1941573006384127 -0.12225671138602653 -0.029614015478903605 -0.12223099636847633 -0.028350198522990873 0.25506366495637933 -0.19132627893461585
2296188000.0 0.2835792494547302 -0.19628887265748066 -0.1230128021555427 -0.026243401807592555 -0.12282853193642282 -0.02516440320113098 0.25436680664862615 -0.19227777247307615
2297250000.0 0.28285631253854676 -0.19840766824477246 -0.12386894595682768 -0.022796281914948792 -0.12334240655503174 -0.021916575961715222 0.25288356581042104 -0.1933846594967075
2298312000.0 0.28225203611615357 -0.20033186553171312 -0.12457477752115516 -0.019198035165887247 -0.12398241694278554 -0.01869650203276152 0.25121121426954934 -0.19440157590566243
2299375000.0 0.2816958370023669 -0.202309524188698 -0.12511727904525952 -0.015495040200916962 -0.12449807632444472 -0.015361936761924305 0.24890179128358472 -0.1958509326536439
2300438000.0 0.28132192148024754 -0.20414950004455606 -0.1253125720894735 -0.01181500437733959 -0.12498580319584827 -0.011824237056045416 0.24617276935423657 -0.19773071313193033
2301500000.0 0.2808123626138285 -0.20620176463603504 -0.1256728833755852 -0.008046209878803586 -0.1253634402319454 -0.008242801724241054 0.24331303675369895 -0.20029692122726406
2302562000.0 0.28049527616074726 -0.20804043013546206 -0.12575912174751938 -0.004226559672260827 -0.1257310624169307 -0.004489494364919325 0.24057188595057558 -0.2036738363533969
2303625000.0 0.2800277160563938 -0.2098483853860835 -0.1256562528120081 -0.00037837145446462507 -0.12585190853450748 -0.0006877397487679745 0.23814345950765192 -0.20725746411710144
2304688000.0 0.27964129218907824 -0.21184998533781144 -0.12532438916612415 0.0033549860322135473 -0.12574870710214947 0.0032021604121830827 0.2360949974144326 -0.21144025377131875
2305750000.0 0.27913873365735054 -0.21377110067587557 -0.12492589466026816 0.00708164728120975 -0.1254380605090183 0.007111770926631979 0.23461145738011344 -0.2156215392860956
2306812000.0 0.2787026634970803 -0.2155412000378593 -0.1243987377628578 0.010889060276881404 -0.12489974954876473 0.010983097630668428 0.23393840228866117 -0.21972851596964676
2307875000.0 0.2780069300261113 -0.21743713309312102 -0.12368398282146768 0.014459294263346379 -0.12427365509041759 0.014713994910182207 0.2338545683666308 -0.2236539027559349
2308938000.0 0.2775144661918377 -0.21926749379323812 -0.12299066859029772 0.018046399067292385 -0.12332912167262902 0.018340031097927183 0.2339674130082443 -0.22701492292476533
2310000000.0 0.2768622290709193 -0.22124553883862452 -0.12201086964491008 0.021558620101830486 -0.12233901288361636 0.021817141785266184 0.234523027034523 -0.22965249486108125
2311062000.0 0.2761566907044924 -0.22286770236242553 -0.12127389310683702 0.025180463101718335 -0.1213313234763723 0.02533294312378488 0.23505872418644158 -0.23189721294305368
2312125000.0 0.2755054062403738 -0.22480707702625205 -0.1202092127885198 0.02845845073658253 -0.12031853274604604 0.028711949263138553 0.23540390540559974 -0.23354964222057084
2313188000.0 0.2747135303935869 -0.22641678398098136 -0.11928575036042843 0.03175922611553635 -0.11936848130642233 0.03199145705289232 0.23561126986981562 -0.2346637109567563
2314250000.0 0.27414264899985497 -0.22837673712612677 -0.11827567414941943 0.03513314241949048 -0.11838808930102163 0.03534435497388339 0.23543689350687114 -0.23551329538390745
2315312000.0 0.27365639149053034 -0.230112687132886 -0.11717788310771028 0.038325823058588566 -0.11747733270450207 0.038560831825337066 0.23489010309195213 -0.23601220666546763
2316375000.0 0.2729394751187629 -0.23192704752798346 -0.11614712516892235 0.041690378656445065 -0.11651003592429003 0.04182777862744762 0.23384593277695764 -0.23637962380805325
2317438000.0 0.2723465593499723 -0.23398068433808927 -0.11504663389256056 0.044716198433387554 -0.11547190653889915 0.045207726108372266 0.23240580974141345 -0.23675165628379166
2318500000.0 0.2718008117082145 -0.23594147609656388 -0.1138366014953438 0.048063042130401926 -0.11432127127363835 0.04849003616684708 0.23040946997012213 -0.23738044909353628
2319562000.0 0.2712334811679798 -0.2379234989501095 -0.11246296590414157 0.05123210602947727 -0.11292907173193752 0.05185358458675837 0.22792715171627026 -0.23834179362665397
2320625000.0 0.27052873446183295 -0.2397213704950912 -0.11108027408855037 0.05447185225564467 -0.11133170927324894 0.055117077612901 0.22512262370507402 -0.23988667615963513
2321688000.0 0.2696214204439428 -0.2417873742581007 -0.10961231391227191 0.05764154806004803 -0.109677461658835 0.0583697294794084 0.22239997671091846 -0.2419586669992238
2322750000.0 0.26889133887347133 -0.24376229967176052 -0.10797319054811899 0.06077706574880403 -0.10775423038977495 0.061520485291620776 0.21979665680032548 -0.244709486647985
2323812000.0 0.26776697354191675 -0.2457699900711939 -0.1062054102235994 0.06389038440238166 -0.10568085519890823 0.06456174808228876 0.21752098500607112 -0.24793583306889205
2324875000.0 0.26662934714663333 -0.2477431741957911 -0.10428009197719094 0.06690964132140663 -0.10357414173752046 0.06754421757761236 0.2160039998557604 -0.25148004062337703
2325938000.0 0.265501036486251 -0.249783557679251 -0.10213085290751389 0.06992753040706014 -0.10146923162298997 0.07033617905623701 0.21492489012668434 -0.2549412707949826
2327000000.0 0.2643688025320021 -0.2517348513342311 -0.09989032370548832 0.0729306656918512 -0.09925867185165557 0.07311938611528902 0.21466440624955582 -0.25819566845436814
2328062000.0 0.26308509079745185 -0.2537725691537921 -0.09748555597005247 0.07582616440851188 -0.0970388402696493 0.07580068186194043 0.21447424479193647 -0.26100432892538744
2329125000.0 0.26178955006459 -0.2557726053925716 -0.09511873718898801 0.07861155344211294 -0.09474343746492274 0.07835499510454617 0.2147235595361037 -0.26338002613302924
2330188000.0 0.2604936221041551 -0.25796388870372977 -0.09251924428384668 0.08124129323236882 -0.09249705549434027 0.0810440010285232 0.21511754835199445 -0.26526632893916746
2331250000.0 0.2592003018839197 -0.2601112020757595 -0.0898743119749581 0.08411117504728285 -0.0900980759805544 0.08362414102882854 0.2153400278402837 -0.26659899438644885
2332312000.0 0.25810010734916106 -0.2622895070590552 -0.08731909586363681 0.08666292420878292 -0.0876817222266225 0.08630255676962292 0.21540453899218068 -0.2675154035322595
2333375000.0 0.2567990850766664 -0.26442100103186245 -0.08457948690933978 0.08905682535274946 -0.08504226454693199 0.08884184064431355 0.21538423508749116 -0.2679702885086556
2334438000.0 0.255564668053025 -0.2667686711506986 -0.08199083552513685 0.09150267112857773 -0.08232692068935796 0.09145670247400021 0.21473997337046533 -0.2683488876403367
2335500000.0 0.254195748210671 -0.2691540085147329 -0.07921497719572301 0.09379034009723854 -0.07963594555644747 0.09405215940622194 0.21375857935878298 -0.2683412130831673
2336562000.0 0.25276666815618815 -0.27138253999922884 -0.07629566065233478 0.09591020516461797 -0.07679544619137983 0.09651762724007769 0.21244525877956538 -0.2682621460309316
2337625000.0 0.2512892370745209 -0.27376295923508454 -0.07365600612545706 0.09811292354672269 -0.0739000586599574 0.09879280222105416 0.21007909502230768 -0.26830737190333087
2338688000.0 0.2497915014754676 -0.2761758748219433 -0.07066996185492172 0.10025311221262174 -0.07094187257927556 0.10096393331313568 0.2074200331788179 -0.26886442357017026
2339750000.0 0.2484247814500298 -0.27854927114534217 -0.06765165101369819 0.1021828515092598 -0.0679569003071667 0.10303569780299804 0.2045279136913198 -0.26955973240011083
2340812000.0 0.2467480396865539 -0.28078626509180654 -0.06485236775743466 0.10409633968673378 -0.06490066094142487 0.10492256689693633 0.20130819530414018 -0.271316824954937
2341875000.0 0.24526751069112318 -0.28320269188010183 -0.06181235779322487 0.10596122193861013 -0.06181901926916148 0.10665265657747716 0.19812235426914424 -0.27386503857221217
2342938000.0 0.24365559936764317 -0.28564608374153494 -0.0589008793294619 0.10782830181956846 -0.05857021344233404 0.10835944448543436 0.19517258995148692 -0.2772177351836511
2344000000.0 0.24209958390365194 -0.28819397810646497 -0.05573649448248242 0.10937231828367554 -0.05549601613317474 0.10990267184253175 0.19319853781900634 -0.2807204162227467
2345062000.0 0.24044423110796478 -0.2905902072800485 -0.05258163107946036 0.11091688319068363 -0.052256991045836115 0.11132514530048745 0.19162355892492305 -0.28484404733387175
2346125000.0 0.23884039910584065 -0.2930270070284588 -0.049372356584375436 0.11215470968351243 -0.048932109104582885 0.11263929317001681 0.1910519532807929 -0.2887214401213686
2347188000.0 0.2371841868649269 -0.29541735179752165 -0.046235159128236315 0.11352477207953311 -0.045657466229447954 0.11386256567663063 0.19089681713339782 -0.29261510202592256
2348250000.0 0.23552213260613244 -0.2980734939624253 -0.04282791739222388 0.11482733259112995 -0.042277683760810585 0.11506052674344393 0.19157979186867866 -0.29567819116106575
2349312000.0 0.2339400460077695 -0.30038491894249014 -0.03932197090256414 0.1156964080713246 -0.03881525510934566 0.1159931017208988 0.19177655516260722 -0.2982316171106464
2350375000.0 0.2321586647123391 -0.30291833455074496 -0.03586508707648059 0.11656338750854639 -0.0352510114737764 0.11680505246092421 0.192154463758858 -0.300046219777667
2351438000.0 0.23034685476412095 -0.3053344929653278 -0.03228702438979325 0.11750366631120175 -0.031819863516786874 0.11765236923567393 0.19251052667580787 -0.30133101797579065
2352500000.0 0.22848463857589132 -0.3079053987886353 -0.028632541404853842 0.1182953162901231 -0.028295623304617632 0.11836856224760721 0.19188102362537282 -0.30272279727160445
2353562000.0 0.2265140886265355 -0.31049404524852836 -0.0249032475183635 0.11907156683807318 -0.024706684246040885 0.1189630013398639 0.1908711769038366 -0.3031554146411762
2354625000.0 0.22450625636315863 -0.3131129921250856 -0.021291747947736337 0.11978059738935515 -0.02115566331255177 0.11956217532059973 0.18934312888674273 -0.30384783901619195
2355688000.0 0.2225351933979262 -0.3155751614482451 -0.017621160438429956 0.12041300867203236 -0.01756197384716225 0.1200524046885557 0.1875439985258337 -0.30453483395434944
2356750000.0 0.2203400878106676 -0.31809248575241944 -0.01390234002156035 0.1207814249228922 -0.013874852457667444 0.12048211671908779 0.18483209913162268 -0.3053847728586475
2357812000.0 0.21816508931002693 -0.320762525778902 -0.010114864285433825 0.12106467963829796 -0.010216668094348774 0.12085859641980405 0.18235056550599993 -0.30634269738187675
2358875000.0 0.21582095781480007 -0.323448131814532 -0.006310473706384072 0.12127695796852571 -0.006520120508848951 0.12109845339690474 0.17910733459162603 -0.3078449355352349
2359938000.0 0.21356960510119039 -0.32608473259934395 -0.002538549953320826 0.12121967598039007 -0.002693338176733152 0.1212725077680501 0.17544051598620383 -0.30939897021077395
2361000000.0 0.21140143241160897 -0.32865457575562496 0.0012448000936368185 0.12105150822668691 0.0009362329356438997 0.12128121108423456 0.17193673535824114 -0.3120583909657034
2362062000.0 0.20912556732762783 -0.33153016412370556 0.005152915405292223 0.1208251991897195 0.00481122913916665 0.12122559835915817 0.16863412936379618 -0.31494102164811405
2363125000.0 0.20695676904817392 -0.3342537736083418 0.008744075159342076 0.12028413641651818 0.008616505664129399 0.12098149767544633 0.1653444102523313 -0.3189869205797542
2364188000.0 0.2047248562791149 -0.33701991663658964 0.012429884745995346 0.11979829464285649 0.012282157976518177 0.12050960531017833 0.16322374083079158 -0.32356464765619436
2365250000.0 0.20248247780865034 -0.3397317262146499 0.01583189991552077 0.11909003600643608 0.016023536793276998 0.11984684913317614 0.161269742194053 -0.3281913712140954
2366312000.0 0.2004894416098822 -0.3425813357050489 0.019423454373522355 0.11830152019452125 0.01965524957539571 0.11902972256815408 0.1602782438381068 -0.333100072270033
2367375000.0 0.19815628514887007 -0.3453005868655561 0.022588821391051075 0.11751685518888226 0.023073777555038335 0.11810864228317478 0.16024161939195591 -0.3379912500812346
2368438000.0 0.1960757164034022 -0.34821666709838356 0.02575808376049994 0.11656660144969494 0.02645754041971881 0.11703645267890764 0.16082643828363724 -0.34266487351054853
2369500000.0 0.19415903874653176 -0.350859102634662 0.028950087563434382 0.11572871694693684 0.02963855083204069 0.11587603371670255 0.16172324532069365 -0.346121025103277
2370562000.0 0.19195774473942323 -0.35373600528357635 0.0320111591959116 0.11458782887422035 0.03281494457459647 0.11470262928212363 0.16266168691204702 -0.3488317714396404
2371625000.0 0.18986008611771069 -0.35652819107653816 0.03505531776137083 0.11361430549857993 0.03586813291889381 0.11350139792399411 0.16307100596724516 -0.35106308548436194
2372688000.0 0.18768164703849213 -0.35928655982857577 0.03819887549565809 0.11245455887458154 0.03894447837779932 0.11224747808542412 0.16283225247011832 -0.35243991494308924
2373750000.0 0.18540095512342775 -0.3621984370832933 0.041264826912050565 0.1112394198498916 0.04196335590838415 0.11098258891627906 0.16175046173547464 -0.3532150677156616
2374812000.0 0.18317785446760798 -0.36488150722503326 0.044362795696226906 0.10987133270560724 0.04497330110344 0.10973748483171057 0.1604265554201696 -0.3542740443290406
2375875000.0 0.18092061862683073 -0.36761639083857073 0.047743778070914865 0.10859835548795427 0.048114321910096784 0.10848616513971814 0.1580001428291937 -0.3551390708629078
2376938000.0 0.17880125138468894 -0.37019691013477973 0.05097324566952795 0.1071636115150193 0.05117427174698222 0.10677215422928732 0.1550703143790407 -0.3558793089033911
2378000000.0 0.1764326327113546 -0.3727554653786328 0.054217665352944776 0.10535249936590972 0.05438402198665697 0.10518165110805461 0.15167698088302117 -0.3570109993400342
2379062000.0 0.17424732252540098 -0.3751621862069859 0.05748029846122262 0.10364453254243013 0.057505615430484165 0.10328804258456636 0.14806011484077278 -0.3587910431858203
2380125000.0 0.17215022452226722 -0.37743908493829254 0.06063514544796729 0.10153526083561533 0.06065356035130151 0.10125103506573474 0.14427728432777293 -0.36065663435584056
2381188000.0 0.16975670789040676 -0.3797959898178092 0.06373947979499206 0.09941177002923551 0.06373027256433168 0.09897804889656583 0.14058598719820062 -0.36308522297508805
2382250000.0 0.1674778076718079 -0.3818443103675997 0.06663142039256946 0.09693393309210242 0.06656002525361474 0.09660192227938326 0.13697201683732374 -0.3655490991101976
2383312000.0 0.16528111358335995 -0.3840580349690201 0.06952097925870279 0.09443345781583774 0.06933744802170616 0.09411689997550372 0.13358795354361702 -0.36859758455182995
2384375000.0 0.16288998704170843 -0.386109581003372 0.07210853988399096 0.0918441105543279 0.07196775556847185 0.09158863067670138 0.13043531384277404 -0.37187302665527544
2385438000.0 0.1605073600734463 -0.38841579217840316 0.07447384256655008 0.08897347303263338 0.07432761429446572 0.08913276989866305 0.12763919100775567 -0.3753539717300925
2386500000.0 0.15787771684403296 -0.39050871757297223 0.07693014565175565 0.08634310062013793 0.07654728368314213 0.08669234967349108 0.12541760522376455 -0.3792072121714015
2387562000.0 0.15527972864597692 -0.39282799355091963 0.07908007577785806 0.08374924153991577 0.07878564902580745 0.08431917659898777 0.12380301024499786 -0.3829526172335032
2388625000.0 0.15243224283628057 -0.3951272361787107 0.08108310973002895 0.08121247105277998 0.08084722370591098 0.08204329812254423 0.12265751945898865 -0.38627228976652955
2389688000.0 0.14962943482529792 -0.39719021770238966 0.08306694636154575 0.0788196663635405 0.08294758845707582 0.07980941374044459 0.12189206973969623 -0.38912119850338955
2390750000.0 0.1468327673438636 -0.3992841363245207 0.08475496941528132 0.07648753301875781 0.08504463998033365 0.07751197321993174 0.12106768636549169 -0.3910896236640444
2391812000.0 0.14404657833627954 -0.4014580035193992 0.08657600590145212 0.07420857182816547 0.08727442887451296 0.07513116980314119 0.12012911191711746 -0.3922490127927107
2392875000.0 0.14114026852021958 -0.40354075866499095 0.08832763471262525 0.07186570947381939 0.08939724212399214 0.07262571985086934 0.11841620366979647 -0.39310294008308955
2393938000.0 0.13844469599379564 -0.4056479907389858 0.09017411916477708 0.06946466214684371 0.0914663816815082 0.06990125116738923 0.11606684210420505 -0.39323995909288734
2395000000.0 0.13551325954516422 -0.40756837989006023 0.09192827752459573 0.06707792499740571 0.09359219431534417 0.06708863565880632 0.113172436594784 -0.39360291236845946
2396062000.0 0.13268716179980247 -0.4096677199223996 0.09377531671862173 0.06463341255523244 0.09539720373008762 0.06418983321669304 0.10935261810201749 -0.39394072946515307
2397125000.0 0.12993430574349482 -0.4116589565520535 0.09542189191113967 0.061920103462050666 0.0971055563853651 0.061141764171751295 0.10530181265702533 -0.3944599159813178
2398188000.0 0.12718107376769225 -0.4136006265593887 0.09728373117520597 0.05937481455925881 0.09845204647513832 0.05805258609281215 0.10084095716057732 -0.39512503457647824
2399250000.0 0.12448262605611617 -0.4157585314351 0.09890683856063395 0.05660935074219102 0.09968784474640015 0.05502034514984956 0.09644630661501398 -0.39602054368466555
2400312000.0 0.12150817351769583 -0.4175665904556702 0.10039643141635567 0.053509232900399765 0.10056975513410925 0.051972348435429194 0.09202877945760157 -0.3972793801585276
2401375000.0 0.11864371147493093 -0.41963213414987394 0.10184465593753339 0.05065168635887335 0.10130107020882087 0.04907495698968808 0.08781684658463829 -0.39867997791121634
2402438000.0 0.11557631819754148 -0.4215656792984482 0.10308234615483806 0.047425763727652455 0.10205959487462907 0.046177532235068645 0.0834540981793617 -0.40041541244461853
2403500000.0 0.11259704532411464 -0.42317862542351 0.1041849491014917 0.04423233990103407 0.1028856601437485 0.04346557091255985 0.07939659380253813 -0.4023477657298634
2404562000.0 0.1094692403468371 -0.4249811526528111 0.1051985486096744 0.04092040547967225 0.10373294550614749 0.040796498913935685 0.0754686571839479 -0.404378438616805
2405625000.0 0.10610841643551522 -0.42645344213267605 0.10600693229808096 0.037611225009122944 0.10473077809492327 0.038094369079919296 0.07199634568289694 -0.4065411429897587
2406688000.0 0.10297252128529598 -0.4278681325705731 0.10684348580132942 0.03438836909220854 0.10584005051747164 0.035376307849801905 0.06899916847104558 -0.4090174498329014
2407750000.0 0.09962013303319082 -0.4291723519592931 0.10739950551337765 0.031178584792097758 0.10696087142905253 0.03255491320844369 0.06644529623296883 -0.41121754518562764
2408812000.0 0.09640514774501609 -0.4302127164073775 0.10799574188289725 0.028083320585035813 0.10816381766733082 0.029626018201752168 0.06418339134150311 -0.4131315605354047
2409875000.0 0.09304247113075445 -0.43134974315659125 0.10835925482304327 0.025102403009469906 0.10920073878046095 0.026617077930068345 0.06200981115313339 -0.41458323325815194
2410938000.0 0.08975169723590905 -0.43240818271745235 0.10883581577629578 0.022131493080683125 0.11015202318320677 0.023401318105310903 0.06000568437773349 -0.4151802976824919
2412000000.0 0.08638701762823683 -0.43321280889214436 0.10931588725763368 0.019254226317956372 0.11094894024468405 0.020006913890334745 0.05694546969902716 -0.4156599167774319
2413062000.0 0.08284302403390552 -0.4340710432708822 0.10948960210339029 0.016398219308426974 0.11131235985558482 0.016516458324863325 0.05380700394872126 -0.4153834937238657
2414125000.0 0.07949511927616634 -0.43488590714507797 0.10965445192796024 0.013606053612771538 0.1115390641708542 0.013070843507469863 0.05005593593165668 -0.414811205228243
2415188000.0 0.0758589215520218 -0.43559150210967945 0.11003165529724035 0.010738460142709778 0.11148382972854906 0.009757518968212427 0.04563803204318817 -0.41451554395594836
2416250000.0 0.07233835891319247 -0.4361092719861026 0.11023244259433504 0.008067977173984657 0.11128162194229665 0.006442544300809933 0.04077386249330901 -0.4141853251139119
2417312000.0 0.06840173022404329 -0.43684190195147693 0.11036539335814868 0.005133473819639927 0.1109632917362841 0.00342961604461726 0.035275058894107154 -0.41422074679465815
2418375000.0 0.06453242927775688 -0.4373706470494869 0.11047354260750615 0.00226814148645882 0.11052868244921216 0.0005199385029795299 0.030131971501740976 -0.41463734353268267
2419438000.0 0.06058728476936904 -0.43821754029010507 0.11046495910491051 -0.0006567355396616884 0.1100571827479776 -0.0021593142732770298 0.025035107693049508 -0.41522041011324384
2420500000.0 0.05648660599189755 -0.43847170279919745 0.11042683123474382 -0.0036678169985575127 0.10955196192276148 -0.00481267434984756 0.02013610461423237 -0.4162961694931646
2421562000.0 0.05260649076670356 -0.4390274048094239 0.11014942528637912 -0.006708903900657349 0.10916774572169068 -0.007386081086055424 0.015968100245163645 -0.4172683975051186
2422625000.0 0.04871678206367067 -0.4393161743689426 0.10990836420923021 -0.009655481284049066 0.10876563658890986 -0.009876458260548513 0.012090645127198854 -0.41820317141204966
2423688000.0 0.04462614232119298 -0.43978467640505675 0.10945675601770358 -0.012779005158115819 0.10841106307266114 -0.012546220265171668 0.008517507773374233 -0.4191699111285047
2424750000.0 0.04078867674715256 -0.4399554724194982 0.1088878459849507 -0.01595576822761073 0.10820429341881044 -0.015463842315583136 0.004889810620113728 -0.41988216335072437
2425812000.0 0.036973309103906754 -0.4403635985075347 0.10818232463876615 -0.019099577584814096 0.1077483580137013 -0.018486376823659622 0.002015360493213114 -0.42021914591013776
2426875000.0 0.033118231621115025 -0.44060324143076546 0.10744992784940002 -0.02224330316379272 0.10735470207948096 -0.021571023115925497 -0.0011440939271684042 -0.42111488216678017
2427938000.0 0.029198634753624723 -0.44072470496640653 0.10654693938594921 -0.025458008100659537 0.10688735991898166 -0.024951432289590764 -0.0042059592438766676 -0.42105626406172164
2429000000.0 0.025423849241998815 -0.4410224654232786 0.10567761695077658 -0.028719092437321805 0.10621928540683302 -0.028207153652635302 -0.007126473408115342 -0.4214287268566409
2430062000.0 0.021487168971494244 -0.44077772923243236 0.10481845944194876 -0.031751044139075 0.1054923519198458 -0.03155886993145004 -0.009808693592280399 -0.42128172713692785
2431125000.0 0.017614991237076806 -0.4407258477661033 0.1037289817597563 -0.0347930568576107 0.10446571789830802 -0.03478219954825594 -0.012773168214616269 -0.42070168399721014
2432188000.0 0.013747923722016489 -0.4405682835079462 0.10264323781576656 -0.0375216809235343 0.10330839485095833 -0.037899991145371396 -0.016185327925814376 -0.4198737756310142
2433250000.0 0.009804053882339427 -0.4403619952771414 0.10144330791418806 -0.0404186144798586 0.10202141977469154 -0.040913551779810105 -0.019941352002015165 -0.4188981470196668
2434312000.0 0.0059404272492302465 -0.4399591931074553 0.10021847984979607 -0.043165230194023546 0.10063017346941248 -0.04366783298941962 -0.02395661957112526 -0.41801335786305854
2435375000.0 0.0018968852689694058 -0.4397576186027273 0.0991630768126436 -0.045924917336760455 0.09919812189890283 -0.04640264221105588 -0.02833600960356986 -0.41683678286476417
2436438000.0 -0.0019244651096814826 -0.4391537815315819 0.0977757146035534 -0.048418152240196057 0.09773056317477376 -0.04898423429418915 -0.03343490718274908 -0.41605207268963174
2437500000.0 -0.005724015268113002 -0.43845995930573034 0.09643937480472949 -0.050928090010523785 0.09629601209429837 -0.051432384231202624 -0.03868617260032715 -0.4155357253122545
2438562000.0 -0.009541771610237355 -0.43797708991437234 0.09493356101123349 -0.05342932747558705 0.0947545387699276 -0.0538067904397058 -0.04364697054554228 -0.41556300708903016
2439625000.0 -0.013115222725378434 -0.4371236430902189 0.09347652675145726 -0.05596063399647599 0.09330264394674391 -0.05630717491766855 -0.04873503609537143 -0.41614174610204324
2440688000.0 -0.01692102113206537 -0.4365112429241619 0.0919801727856901 -0.05832332506878918 0.0917446028029584 -0.05866119876723877 -0.053417268983834296 -0.4171542703539762
2441750000.0 -0.020747059274543247 -0.435823238621141 0.09033388001350674 -0.0609753189737631 0.0902558718715315 -0.061025193985856936 -0.057301599182522964 -0.41824778064248336
2442812000.0 -0.02427921356585943 -0.4350272162337766 0.08856149103225171 -0.06334411088400232 0.08860104028381287 -0.06339400850620243 -0.060379792105734145 -0.41938246960201986
2443875000.0 -0.0278937476995254 -0.43434739278579826 0.08685487709811714 -0.0657665416892835 0.08675546429423987 -0.06583301158816945 -0.06313178768298916 -0.4204239869797473
2444938000.0 -0.03157307877217194 -0.43351646146070577 0.08483131608159555 -0.06809233249479316 0.08483287708945378 -0.06816322130151206 -0.06531586994923859 -0.42085275674736855
2446000000.0 -0.035374814342728336 -0.43311306102436514 0.0826786339017659 -0.07053551177344322 0.08270120181035917 -0.07053718748747784 -0.06710405579788742 -0.4208611003914353
2447062000.0 -0.03919081015585259 -0.43213360323183203 0.0803459480418527 -0.07279301630464433 0.08036357059362147 -0.07285092752920073 -0.06906576101820966 -0.4203568553829709
2448125000.0 -0.0429727202780435 -0.43159731792153133 0.07804555866616421 -0.07508583163568651 0.07803345639264904 -0.07516521405959799 -0.07079469242575288 -0.41900324751091805
2449188000.0 -0.0466567111265651 -0.43075484645983136 0.07563955964365328 -0.07733770694250794 0.07564334945468962 -0.07738097228307848 -0.07300209797309198 -0.41769335266359076
2450250000.0 -0.050207035970171655 -0.43025368523816154 0.07323566970987676 -0.07956948131318868 0.07324824111676076 -0.07959876862057633 -0.0753829862808151 -0.41575032912740095
2451312000.0 -0.05383760212631893 -0.42982741922508694 0.07063449019401054 -0.08169304724915204 0.07082256189302324 -0.08178794776578498 -0.07810308394425246 -0.4133668041059304
2452375000.0 -0.05718536092341004 -0.42921819055801813 0.06809200186064863 -0.08374908634675865 0.0683987346393102 -0.08382418137500947 -0.08124063975234261 -0.4111895563870691
2453438000.0 -0.06042564239101269 -0.4288018860459064 0.06562363608653475 -0.08562262419775363 0.06596430560747735 -0.08582845396910885 -0.0849426776923207 -0.40888549477461295
2454500000.0 -0.06365581037066877 -0.4282507790580668 0.06311122948339831 -0.08746530937380154 0.06346929307493351 -0.08772793235906053 -0.0886642445718962 -0.40645764802470175
2455562000.0 -0.06680433971550946 -0.427764953517921 0.060778267713688945 -0.08923745283676517 0.06094621657078784 -0.08952372723690025 -0.09302525618988475 -0.40453108168396723
2456625000.0 -0.06981443647836558 -0.4272394499763531 0.05816761059294044 -0.09089425711869542 0.05839094010174121 -0.09122328727576862 -0.0975581343024227 -0.4027593322397782
2457688000.0 -0.07290945219947474 -0.4266366308674093 0.05567060479535039 -0.09244370639057474 0.05579411557968468 -0.09284393806044207 -0.10223388928789094 -0.4015912452928367
2458750000.0 -0.07595351031761055 -0.42608766653219604 0.0530976936395212 -0.09394594458368156 0.05309334136443041 -0.09433018617018997 -0.10673280366302342 -0.40094456137550993
2459812000.0 -0.0790266210724357 -0.4254371119261168 0.050584097800774025 -0.09540586802512287 0.05026421050564016 -0.09585655897267194 -0.11114722265650481 -0.40082183469155924
2460875000.0 -0.08172052134843735 -0.4245603555147565 0.04793311366982056 -0.09680684349298521 0.04759652191615532 -0.09717350780508599 -0.11503235640749354 -0.40123472174313524
2461938000.0 -0.08459809304702103 -0.42403379664939234 0.04531178959919824 -0.09826896420019111 0.044910997281237826 -0.09852588092426794 -0.11855468643827605 -0.40169208156108843
2463000000.0 -0.08745114397425224 -0.42276900070750584 0.04253885076146805 -0.0994321207046629 0.042158874821086524 -0.09961371724753039 -0.12129519978997563 -0.40226475763646263
2464062000.0 -0.09020986817515007 -0.42197266524102334 0.03966330368123849 -0.10065980062202692 0.0394446637472402 -0.10072596947296887 -0.12373656280216597 -0.40305519098962755
2465125000.0 -0.09293259604101446 -0.42108751497446584 0.03677715416972834 -0.10172181417770089 0.03672860474421804 -0.10170013198796062 -0.12544480454735232 -0.403481416763805
2466188000.0 -0.09553929329973104 -0.42037385110258063 0.033738742266461896 -0.10276597976679393 0.03378202261703616 -0.10254350310969794 -0.12679146593334534 -0.4033408894144139
2467250000.0 -0.0981982555378814 -0.41953796761401646 0.030645057760873843 -0.10347844969416606 0.03081827351090404 -0.10342173457128846 -0.12774333174216387 -0.4027081110841304
2468312000.0 -0.10077947106783038 -0.4187189243796805 0.027490699496921893 -0.10420927838713383 0.027771968998549397 -0.10420955306012251 -0.128746898580127 -0.40163071790684246
2469375000.0 -0.1034886954258502 -0.41803587286232424 0.02432966560306333 -0.104804109650662 0.02462821072969754 -0.10490364853771598 -0.12969897998336744 -0.3998506154682745
2470438000.0 -0.10611334072222167 -0.41729473490910896 0.02117934457531611 -0.1053328564820351 0.021328615231573107 -0.10559214321264228 -0.1310558397321024 -0.3974761161975291
2471500000.0 -0.10866055080320865 -0.4166023366778216 0.017997619235153577 -0.10562979502424898 0.01810171267205555 -0.10606994900140101 -0.1328893268915117 -0.3945401597467426
2472562000.0 -0.11153161314281274 -0.4158815396885106 0.01474732556011644 -0.10590884866030421 0.014735824202992166 -0.10651895184701145 -0.135329091953209 -0.3914275451809176
2473625000.0 -0.11438286702471087 -0.415423320268634 0.011668701191547684 -0.10599649991036052 0.011504585202644935 -0.10682420719788041 -0.13840580297875782 -0.38850892916776425
2474688000.0 -0.11697224857863518 -0.4144914656623391 0.008661088279602257 -0.10617797348405143 0.0083117843134374 -0.1070006663330966 -0.14233646557522678 -0.3859730463983785
2475750000.0 -0.11985148441540233 -0.4138114912551909 0.0057105408829746206 -0.10641072540931916 0.005227823345001574 -0.10702569165519935 -0.14620528101293978 -0.38382713068989227
2476812000.0 -0.12267050248654092 -0.4133353949107981 0.0026820890780756305 -0.10651026693890349 0.0022986672192656923 -0.10704378523602369 -0.15056381227491303 -0.3822407610114416
2477875000.0 -0.1255762643442488 -0.4127394919640217 -0.00014946316594515336 -0.10669249757193033 -0.0006505685379257058 -0.10696296960426119 -0.15473121866472578 -0.38143778006341506
2478938000.0 -0.12826925353601634 -0.41222608649980663 -0.0029756590112156012 -0.10673617774726853 -0.0035372611345908384 -0.1068824993867848 -0.1589644724512033 -0.381166358629893
2480000000.0 -0.13082087666536668 -0.4118803586459814 -0.0058806406768312875 -0.10675540955868289 -0.006405673293669306 -0.10664076211149028 -0.1626579441157226 -0.3813646854834958
2481062000.0 -0.1336059733782343 -0.41163712646810435 -0.008775767299580102 -0.10687062964118314 -0.009246020271279598 -0.1065714146768173 -0.16601041944468764 -0.3818791664412089
2482125000.0 -0.13601502949508223 -0.41128248876344814 -0.011772176682854896 -0.10655804881432507 -0.012147927647308382 -0.10638263403692906 -0.16889164643442908 -0.38247541899946985
2483188000.0 -0.13857112054105478 -0.4111546004308019 -0.014835562858382952 -0.10644670585947774 -0.015109209228746798 -0.10615233858544908 -0.1711041663065618 -0.38301573162206975
2484250000.0 -0.1408615422789219 -0.41095413229272726 -0.017958048614312352 -0.10609414668624538 -0.018173993115256304 -0.10586039100241121 -0.17329624557598905 -0.38357076836872284
2485312000.0 -0.1431941111973322 -0.41067799902284186 -0.02114764295143616 -0.10554391176288946 -0.02122388536542145 -0.10549241681193931 -0.1749470642338269 -0.3838522160164226
2486375000.0 -0.1454845274666564 -0.41037533419449324 -0.02443504281758528 -0.10489773276456138 -0.02444566343302368 -0.10495392092582295 -0.17634993064411883 -0.38390135132208236
2487438000.0 -0.14766543783134986 -0.40990943186376905 -0.027425688204971134 -0.10398674131301974 -0.02751816116137258 -0.10425417015934947 -0.1773920147728044 -0.38349567564369397
2488500000.0 -0.1498809059984027 -0.4094287924086215 -0.03057301457040057 -0.10298896438888436 -0.030718406490952456 -0.10329624417822389 -0.1783011031426568 -0.38263049863828635
2489562000.0 -0.15196667004287648 -0.4087708274385059 -0.0337314942641323 -0.10192571300073244 -0.03375548627949105 -0.10210346784697331 -0.17932581548056034 -0.38125969272457433
2490625000.0 -0.15413483683000617 -0.4077868543429312 -0.03655653500344233 -0.10056953339008923 -0.036601156862000925 -0.1007858191020427 -0.18023478754417432 -0.379426735129011
2491688000.0 -0.15639272580297778 -0.40719959088740315 -0.03940476869494146 -0.09919679659751926 -0.03954769953722845 -0.09932129745436044 -0.18153114357937525 -0.3769626011200026
2492750000.0 -0.1583601564401373 -0.4061732397945189 -0.04202579403657887 -0.09775898798819224 -0.04220546841394517 -0.09771432306563148 -0.18347305941833367 -0.37432885631015594
2493812000.0 -0.16046725965596945 -0.4051351169829366 -0.04467123956223094 -0.09620540914269923 -0.04482065316523221 -0.09618173958418126 -0.18576357764230517 -0.371839252583232
2494875000.0 -0.1626404832061476 -0.40432440744442216 -0.047177171238499696 -0.09473590727394941 -0.04726162996670678 -0.09473045494871403 -0.18856297051843973 -0.3695948961427798
2495938000.0 -0.16480667863707038 -0.4033109560447361 -0.04958387096720903 -0.09304723263084587 -0.04972197467458687 -0.09321514269840442 -0.1918191634660172 -0.3676192611171713
2497000000.0 -0.1671558071438596 -0.4024453719166312 -0.052021087886794964 -0.09155649102784225 -0.05209355007396401 -0.09189592459830451 -0.19525774638021412 -0.36615279086478963
2498062000.0 -0.1693950648214513 -0.4014653701212023 -0.05440597003270404 -0.09007528426900206 -0.05443913545064452 -0.090480161876453 -0.19882551672720952 -0.3654171329299414
2499125000.0 -0.17189014823967752 -0.4004779800110132 -0.05656876980131443 -0.08844980115161709 -0.05698089413557673 -0.08908803921894672 -0.20223911266981356 -0.36504286603915304
2500188000.0 -0.1744448464738531 -0.3995629235917995 -0.059081641648439084 -0.08705454695423422 -0.059475223943115975 -0.0877442178600098 -0.20532228708887473 -0.3652095891615504
2501250000.0 -0.17698356118307615 -0.39863551690259263 -0.061525018700369236 -0.08549225332167111 -0.062084871007760764 -0.08607098628518065 -0.2078661926903355 -0.3654302310716775
2502312000.0 -0.17970958143126128 -0.39753152635768646 -0.063992690364126 -0.08390231628322854 -0.06471284478267084 -0.08430479878128204 -0.21015649045052406 -0.3658909334798085
2503375000.0 -0.18247217585861408 -0.396322873150693 -0.06638363319820635 -0.08223087384326776 -0.06736305796121521 -0.0823342934916849 -0.21225408529500217 -0.36623562747241367
2504438000.0 -0.18521657731362925 -0.3952856336211636 -0.06880468010206606 -0.08036561870364585 -0.06988706315628174 -0.08019187040229439 -0.2136369645742419 -0.3662143907946769
2505500000.0 -0.18807220286045268 -0.3942040741831141 -0.07135978238864386 -0.0781901563671161 -0.07236661181153745 -0.07780600385719462 -0.21526477618347717 -0.3658141533788569
2506562000.0 -0.1909839216466189 -0.39279673327831544 -0.07376077346716912 -0.07606138412808704 -0.07468151666568097 -0.07537366909359347 -0.21642933191836583 -0.3652597620501121
2507625000.0 -0.1940493161208498 -0.39176755466172475 -0.0760923291317579 -0.07385976945775106 -0.0768474123407353 -0.07293268138248613 -0.2175246585528706 -0.36436300550870176
2508688000.0 -0.1966818166418163 -0.3904010097056622 -0.07835991370687179 -0.07140918867344091 -0.07871891097804433 -0.07038750961968285 -0.21866946362426742 -0.3630838193043384
2509750000.0 -0.19958274773664272 -0.38936199807251204 -0.08045603906768706 -0.06882430824275007 -0.08043467477713982 -0.06796262304866739 -0.21982036379879577 -0.36131054139267493
2510812000.0 -0.2025391853861253 -0.3883772795174144 -0.0825779873107479 -0.06631091045860474 -0.08208370915467637 -0.06559505537977753 -0.2208403011676209 -0.35925728189185596
2511875000.0 -0.20534596736192867 -0.387633811092015 -0.08438474869542643 -0.06364977102095236 -0.08363167081099855 -0.06322073849179996 -0.22230532100068023 -0.35687881323486265
2512938000.0 -0.20830752747027884 -0.3866280461723691 -0.08603747326259137 -0.06095614773101624 -0.08504959162724039 -0.06106583589115327 -0.22411677747421027 -0.3544575736826456
2514000000.0 -0.2110664441774584 -0.3856855355259341 -0.08750920640726151 -0.058499589030687055 -0.08658371915069761 -0.058847893719655577 -0.22646081546698466 -0.35207007377239197
2515062000.0 -0.21383866425953232 -0.3847340182783855 -0.0888762200470676 -0.0558425720795324 -0.0881643515955085 -0.056587738231061724 -0.22926050734027117 -0.3499814089063892
2516125000.0 -0.21657621477806535 -0.38390446030782216 -0.09022391570192444 -0.05320936870110239 -0.08974988916342817 -0.05421380986203616 -0.23218116376993644 -0.34813869626446386
2517188000.0 -0.21909159615492876 -0.3826515038562105 -0.09135548871351469 -0.05053976489123792 -0.09135614076360236 -0.0517576603550505 -0.23538706011026275 -0.34692333555817845
2518250000.0 -0.22178655672225991 -0.38160121897088867 -0.09244177057330974 -0.04799847071149609 -0.09292148319608774 -0.049303813814205864 -0.23855092899115285 -0.34644448912800047
2519312000.0 -0.224292159278173 -0.3804054761844019 -0.09346667573277857 -0.045449917133712894 -0.09457227930561957 -0.04651097968182109 -0.2416484045622606 -0.3459573067610242
2520375000.0 -0.22664874657820758 -0.378890388340487 -0.09454651248704933 -0.042887145521645756 -0.09594393182259754 -0.04371636963288906 -0.24444311458455706 -0.3457853512936388
2521438000.0 -0.2291209747315761 -0.37726167162424823 -0.09540769900158036 -0.040481051999001955 -0.09714580177954765 -0.04073482645417348 -0.24683382185253583 -0.34586802285493823
2522500000.0 -0.23155015106684812 -0.3757122597461943 -0.09639556501591738 -0.03784147713458731 -0.09817742640510359 -0.03763384868756604 -0.24880787507301122 -0.3455934025338958
2523562000.0 -0.234107036950623 -0.37394583086841604 -0.09737790806657802 -0.035287997666191694 -0.09901267538497883 -0.03463995377035621 -0.2509023690844844 -0.34514529657716814
2524625000.0 -0.23663170685802595 -0.37229816382553377 -0.09839122111512227 -0.03266711175711363 -0.09972484539451279 -0.031509389106190853 -0.2525334180715756 -0.34423850377377024
2525688000.0 -0.23930590646703895 -0.37054196664060574 -0.09941787058311433 -0.030103196853517276 -0.10027486834546936 -0.02854928362431161 -0.2544073373901134 -0.3430729705527424
2526750000.0 -0.24202417937509857 -0.36870045191306094 -0.1003639845576351 -0.02719093601635138 -0.10071579446453398 -0.025570508834476844 -0.2564874489798781 -0.3414863867407646
2527812000.0 -0.2447466076548897 -0.3668512171683502 -0.10122707348753598 -0.024249023914972093 -0.10105297546804305 -0.022857419771101197 -0.2582092365274379 -0.33992924571531175
2528875000.0 -0.24781129809814847 -0.36495097069128135 -0.10209485653577517 -0.021363158214430824 -0.10148625691972368 -0.020066578650894423 -0.2602945892324594 -0.3378957881195783
2529938000.0 -0.25062463177723115 -0.3631300382442243 -0.10276979240832007 -0.01827021324511445 -0.1018872187632945 -0.01739991406187645 -0.26200516946579977 -0.33588489601267346
2531000000.0 -0.2536868969066889 -0.3613166075133743 -0.1034103854655128 -0.015105899763817208 -0.1023639427813429 -0.014781031301954128 -0.264263729175249 -0.3335988539188269
2532062000.0 -0.25677677211609623 -0.3592381860379717 -0.10384591658118345 -0.011986567746320922 -0.10282749666174795 -0.012169184188983552 -0.26646666386353507 -0.3314287599493073
2533125000.0 -0.259924681465518 -0.3572872406897156 -0.10409731288545818 -0.008863525680897473 -0.10330330154094064 -0.009423811534604112 -0.26900665354149217 -0.32878343388039866
2534188000.0 -0.26321373261915487 -0.35521515439706297 -0.10418294682380505 -0.005758883346355983 -0.10359639893718321 -0.00656813047931264 -0.27136894163185543 -0.3261630425198888
2535250000.0 -0.2663794037345148 -0.35309608148495275 -0.1039613336599691 -0.002646350518741214 -0.103925049536283 -0.003637407668653186 -0.27463412950674027 -0.3238068167915171
2536312000.0 -0.26958136634986724 -0.35106885346283456 -0.10380118387234188 0.00024068157625413807 -0.10410898623710244 -0.0005708189222758219 -0.2780769048254811 -0.32235269696302926
2537375000.0 -0.27284677441272015 -0.34891701331326114 -0.10344019840331888 0.003229086176662137 -0.10396628310208862 0.002510678313796677 -0.28124727029052465 -0.3205106880562708
2538438000.0 -0.2761953269120406 -0.3470824085007196 -0.10300189153702144 0.006103187674903993 -0.10382285975994879 0.005649151418955687 -0.2849868241005769 -0.31968153719075104
2539500000.0 -0.279197215309994 -0.3450355482384316 -0.10254516120365881 0.008942085563965094 -0.10345080368240848 0.0088276287837596 -0.2883434100179084 -0.3190804598765834
2540562000.0 -0.28251996095425314 -0.34307250660360383 -0.10183610247939556 0.0118332321721381 -0.1029869727784589 0.011854954505834238 -0.291257077782157 -0.3187372244848124
2541625000.0 -0.2855539301528672 -0.34126391544094337 -0.10146743455452617 0.014401201452769597 -0.10238442264737532 0.01486026508712781 -0.2937763414493998 -0.3184451596828685
2542688000.0 -0.28853018669378105 -0.3394253478836858 -0.10076549823378664 0.01712566331114858 -0.1016930365258817 0.01776809956868087 -0.2959837525021612 -0.3179140345456823
2543750000.0 -0.2913378262452921 -0.33781955890979226 -0.10027280644854294 0.019707853479229338 -0.10093115801098712 0.020603543400744547 -0.2978823271187889 -0.3170330335217764
2544812000.0 -0.29452821409881486 -0.335907965168515 -0.0997864397397917 0.022525453827604215 -0.10015610730356145 0.02328783274177212 -0.29975357502134325 -0.31585426525113813
2545875000.0 -0.29723996697270855 -0.3340582156820591 -0.09920361669438775 0.025055736482925226 -0.09926873808162674 0.025986371185635 -0.3017602892713846 -0.31396049392447517
2546938000.0 -0.2998735836196641 -0.3322619908824225 -0.09851647302238375 0.027750190934491683 -0.09840544997323165 0.02864610856905649 -0.30384242572353676 -0.31199847858858204
2548000000.0 -0.3025739049498184 -0.33022289818303563 -0.09790144392813281 0.030475316139723128 -0.09760061481513693 0.031182969297678064 -0.30584039887078834 -0.3096335711531926
2549062000.0 -0.30520977782858844 -0.32820667641621903 -0.0971593950437714 0.033352875997389994 -0.09673154717325341 0.03392136740245709 -0.3087441556003914 -0.3070014666874278
2550125000.0 -0.3076941781675759 -0.3261324664869065 -0.09638004697860433 0.036149428293120074 -0.09588194721598094 0.03656699702754993 -0.31152832444781314 -0.30449145667275906
2551188000.0 -0.3102094144797968 -0.32408687528243296 -0.09540912513265515 0.03896516807252585 -0.09498331637500126 0.0392330043207115 -0.31455020516824883 -0.30222366082720437
2552250000.0 -0.3128138023443287 -0.3217805494472973 -0.09433386211853104 0.04188674407148752 -0.09386165415987209 0.04186724409080678 -0.3174392962043024 -0.2997964220284815
2553312000.0 -0.3152767480279321 -0.3196163325665945 -0.09312121812982706 0.04453303441261144 -0.09280701263960078 0.04452759134456411 -0.3202863740652146 -0.2979805118432793
2554375000.0 -0.31808306089546096 -0.31699208645192195 -0.09175165037838987 0.04725505401960902 -0.09159305524763198 0.047059344153577765 -0.3234192215670492 -0.2958227710753886
2555438000.0 -0.3204504347346905 -0.3149417916291486 -0.09027462525727588 0.049830188103126075 -0.09031509916347037 0.04954570844410237 -0.32611859671882354 -0.2941337540029246
2556500000.0 -0.32334100531712484 -0.31248293754664686 -0.08861833826771377 0.052221413219011484 -0.0887993317713887 0.05202244891414792 -0.3288232536915519 -0.29243089539902895
2557562000.0 -0.3260390438761484 -0.31008061467135317 -0.0869632901892031 0.05446833654264475 -0.08711333999127992 0.054317694722641155 -0.3315168612207306 -0.29080452245993127
2558625000.0 -0.32868928246621787 -0.3078029391970546 -0.08507244806868021 0.05685764563054764 -0.08532159631931746 0.056621821074883026 -0.33379514656211845 -0.2893532085289665
2559688000.0 -0.331528572983868 -0.30517737989697324 -0.08322467188120732 0.05895108751059149 -0.08349835245533453 0.05884009597543868 -0.3357246623109802 -0.28771642568036543
2560750000.0 -0.33417119571421977 -0.3028376960748413 -0.08128102478151686 0.06093076101824822 -0.08165684260202151 0.061038250258480246 -0.3377037589969497 -0.2864070190630366
2561812000.0 -0.33690426532463463 -0.3003991788102791 -0.07933174186357583 0.06293452940071545 -0.07961206868025772 0.06331404734930221 -0.33901881222659414 -0.28483183708955656
2562875000.0 -0.3395588881832568 -0.2979606572712743 -0.07728530995026743 0.06504743563886974 -0.07777130791705948 0.06534641576888076 -0.3402356532274814 -0.2830149815706849
2563938000.0 -0.34219385634198407 -0.29544423270834846 -0.07537285625346578 0.06705816784872326 -0.07563190481561964 0.06749006925213935 -0.3412287708681136 -0.281031329083808
2565000000.0 -0.3447915529747154 -0.29294766535280886 -0.07348021370136527 0.06921537194286129 -0.07358284813436897 0.06961431615469701 -0.34210454011144403 -0.2787609168934064
2566062000.0 -0.3473084352931396 -0.29034623040760993 -0.07142167419503918 0.07112593394589134 -0.07142988057678323 0.07157742248012272 -0.34304713372042805 -0.2758612225623142
2567125000.0 -0.3496785489693214 -0.28792998642423945 -0.06938092552194508 0.07327118829383944 -0.06934082834139035 0.07358763068725792 -0.34418691396563483 -0.272663625896425
2568188000.0 -0.3520623102236471 -0.28547126394962125 -0.0672687505019413 0.07518977513722805 -0.06705062914784385 0.07552912135469127 -0.3455260138629308 -0.2691748844346337
2569250000.0 -0.35430855899938285 -0.2832703881318824 -0.06507936566474971 0.07712373670470878 -0.06490605087459471 0.07733752249035902 -0.34722672504002794 -0.2652497399616342
2570312000.0 -0.35665436395286526 -0.28078661608135413 -0.06282893910957889 0.07899038096039328 -0.06257577045327968 0.0791428660663124 -0.34959326460387746 -0.2614652342880159
2571375000.0 -0.35880243797775685 -0.2786122503050838 -0.06059287233204629 0.08080649741625501 -0.060335799721711776 0.08088095598081635 -0.35197450960517607 -0.25778094742168467
2572438000.0 -0.36097936414651444 -0.2763006464283205 -0.05817202991422993 0.08255443419593636 -0.05796567854872421 0.08249063748506003 -0.35507641338452545 -0.25436555970288605
2573500000.0 -0.3628135660968085 -0.27409262654382105 -0.05578091070794755 0.08421762361525299 -0.055749660989395856 0.08419808664393032 -0.3585455641447053 -0.25141651012203947
2574562000.0 -0.3648607966529477 -0.2718751068908453 -0.05326937012810773 0.08577758993406932 -0.0534793617985281 0.08568091724346501 -0.3614865808755745 -0.24863729640521684
2575625000.0 -0.366689029043907 -0.2694761901796365 -0.05089965774318387 0.08713470491817714 -0.051166230734084224 0.08728485033901869 -0.3650194881921776 -0.24664537349636534
2576688000.0 -0.3684707501533838 -0.26702269155112385 -0.04854754651244612 0.08825985731341535 -0.0489403750019954 0.08852868647295742 -0.36782304459355963 -0.24499589658543963
2577750000.0 -0.3700585466786154 -0.26464469084180364 -0.046134895441716874 0.08946014359509695 -0.04654418533525598 0.08979904726149489 -0.37045269758422056 -0.24362253147770951
2578812000.0 -0.37175949440611133 -0.262020663159897 -0.043821466092209535 0.09052607348584812 -0.04399434935516445 0.09104932057588312 -0.37253835931148227 -0.24246897573699172
2579875000.0 -0.3733570363033818 -0.25937004544841546 -0.04124885669308675 0.09151215283294308 -0.04140062535836234 0.09209526255816161 -0.3738674571277799 -0.2411640916552547
2580938000.0 -0.37511794024895806 -0.25690088983662596 -0.03886435660466894 0.09253242888011604 -0.03881172500085666 0.09303992548124054 -0.3751210806198489 -0.23972014576746428
2582000000.0 -0.37677739725990406 -0.2541707478560671 -0.03644823702957697 0.09346937542931641 -0.036042349962839844 0.09402402326985038 -0.37537092845080366 -0.23792308965364334
2583062000.0 -0.3782705142312409 -0.25132715022980084 -0.0338777589760415 0.09434583619834834 -0.03328871417739427 0.09470272513980536 -0.3757060242924691 -0.2358954967221064
2584125000.0 -0.37976767701219977 -0.24837884342699576 -0.03117394662874442 0.09504864905171313 -0.0305444203775015 0.09542004707568197 -0.37561383044873303 -0.2333613516624935
2585188000.0 -0.3814043572562361 -0.24541107160756642 -0.028436973402607264 0.09587574364583734 -0.027744107913050625 0.09605356172899983 -0.37532370445332613 -0.23021545870317717
2586250000.0 -0.3830548630536237 -0.24232884479134742 -0.025670388441832212 0.09677456190179896 -0.02510298068413094 0.09674222946674804 -0.37534611425105885 -0.22675586539913198
2587312000.0 -0.38476294004956446 -0.2395322556038129 -0.022708884644951 0.09753995323745489 -0.02241697378236507 0.09735741402085415 -0.3754310867252732 -0.22290067917693945
2588375000.0 -0.38640142735938227 -0.23641974293746312 -0.0198170850302281 0.09806655831650732 -0.019718550760724093 0.09784374263918648 -0.3758907028659071 -0.2186216386407678
2589438000.0 -0.3879010561132289 -0.23321217662171492 -0.016876481219743427 0.09870174238371836 -0.016954168198039205 0.09843283069528141 -0.37687341891849657 -0.21410970668840795
2590500000.0 -0.3893561925794307 -0.23036590847298485 -0.013930294812905504 0.09906522605070968 -0.014185470068562632 0.09886417903162921 -0.3782761799597695 -0.2099545782739582
2591562000.0 -0.3909052418786913 -0.2274479434346118 -0.010905790094387689 0.09948820104544846 -0.011310988918535658 0.09927484409353811 -0.38017487487001406 -0.20536708106372806
2592625000.0 -0.3922151643639547 -0.22444897280318515 -0.007955856925926624 0.09966104704070938 -0.008335108992546471 0.09965182716502567 -0.3823882631576747 -0.2014494864352295
2593688000.0 -0.3934965216503874 -0.22174961646467944 -0.005112020324779361 0.09978368946589765 -0.0055074058470883985 0.10004954965343267 -0.3850202987915357 -0.19751131082000425
2594750000.0 -0.39477249775578765 -0.2189953104051127 -0.0023126287741549556 0.09973504291438214 -0.0024737114624148533 0.10029603300035214 -0.38772546575438666 -0.19440499604134912
2595812000.0 -0.39600127428520693 -0.21636076224473613 0.0005457679725461733 0.09977275665247103 0.0005073893962047842 0.10038520480744297 -0.3906528281735991 -0.19168151633401756
2596875000.0 -0.3970441009530357 -0.2136196307785744 0.003275545945378088 0.0995507481369908 0.0033688118543193737 0.10032957688988253 -0.39332068028450834 -0.18944428953027542
2597938000.0 -0.3981628510711914 -0.2109036265699789 0.006024679823922745 0.09931179624189371 0.006299368209432274 0.10018081719707822 -0.3956432046442937 -0.1874384310325383
2599000000.0 -0.3993591572723318 -0.20816947042702072 0.008726858808519236 0.09906144197122148 0.009160611355616476 0.09989232565371764 -0.3977102105611278 -0.18579152988230313
2600062000.0 -0.40026132436436224 -0.20550084537988506 0.01132137187433909 0.09878923798435442 0.01188798432971557 0.09939866380473238 -0.39922645024919834 -0.18417714232240553
2601125000.0 -0.4012145727589897 -0.20292063995180432 0.013813638210090259 0.09849311206237132 0.014535510517930991 0.09893706156438616 -0.4000448880446889 -0.18249289187978762
2602188000.0 -0.4022139347818794 -0.20010205083213115 0.016398049334424947 0.09815347419460657 0.01707965331390018 0.09835509536449297 -0.400509441497867 -0.18074065571904877
2603250000.0 -0.4030255871174906 -0.1974722204937631 0.018985923235105 0.09774631623622114 0.019644843604207173 0.09771512965739973 -0.4006916007829304 -0.17857078662628004
2604312000.0 -0.4037171783687059 -0.19455032459689806 0.02157608455603869 0.09732212097783069 0.0221901101703785 0.09701247582621765 -0.4006570879426204 -0.17630042581712507
2605375000.0 -0.40430167611332263 -0.19182674329532867 0.024143080847612255 0.09671669378366435 0.024698196976001906 0.09641079365015165 -0.40024068878731855 -0.17350475280900168
2606438000.0 -0.40491656015513433 -0.18900548776734744 0.026812983108943523 0.09622952503609963 0.02721593427408208 0.09579823300928739 -0.399995660668723 -0.17033185716179752
2607500000.0 -0.4054054536706521 -0.18593317785648542 0.029426719614982347 0.09557529477968751 0.029778706914506525 0.09519695317469216 -0.40025722486842547 -0.16692684664977686
2608562000.0 -0.40585673528966537 -0.1830297230134028 0.032319236929258414 0.09476078706246346 0.03235404158193492 0.09449375911112869 -0.4004691045026299 -0.16302381785930312
2609625000.0 -0.406383119710966 -0.1799741512419119 0.0350260751829281 0.09382805003598169 0.03507393485449103 0.09373498886797337 -0.40094043002113094 -0.15930705072744744
2610688000.0 -0.40689342263025785 -0.17689078746530193 0.03772170930145003 0.09282752582668025 0.03772690353298162 0.09286007332503303 -0.40196235262300256 -0.15544342589441756
2611750000.0 -0.4072353203894799 -0.17366647364430401 0.040424061165400066 0.09171960639521541 0.04039561046491244 0.09174801678018374 -0.40342282067191976 -0.1516704622322843
2612812000.0 -0.4077942568212772 -0.17052505686488736 0.04309142257531486 0.09044146916954801 0.04308878470471531 0.09057707568886242 -0.40493695657851536 -0.14831020472494802
2613875000.0 -0.40834722739973855 -0.16722519130909735 0.04574176402436328 0.08903211473374123 0.045730047861492026 0.08922482636773713 -0.4068511281334724 -0.14514800164347447
2614938000.0 -0.4091377842568892 -0.16375982747616602 0.048247050714192746 0.08762865678744562 0.04825252702392193 0.08771757679358994 -0.4089184343365714 -0.1421288901891209
2616000000.0 -0.40954260887014887 -0.16042494952647937 0.05068331048584101 0.08602727119143284 0.0507239847997523 0.08606552639015663 -0.41055949547589377 -0.1394124550203279
2617062000.0 -0.4102713896143484 -0.15697585406222264 0.05302372371583777 0.08446029255998193 0.05307112786191297 0.08444237737745351 -0.4126093797952221 -0.1373887797644663
2618125000.0 -0.41086385321543195 -0.1537643147876225 0.05523115618343071 0.082714153374939 0.05539685126728608 0.0827456460405787 -0.4141122019475919 -0.13546916211568882
2619188000.0 -0.4115478962382202 -0.1505228160614441 0.05736012263237557 0.08094452640348222 0.05752066332048908 0.08104678987190236 -0.4153369313495009 -0.13358757917320135
2620250000.0 -0.4123075519848391 -0.14728489636271772 0.05958891745872237 0.07914106576149989 0.059590264739407754 0.07934999672410928 -0.4160243735354535 -0.1317227733602208
2621312000.0 -0.4129312870343912 -0.14430426453676545 0.061582198156588414 0.0774511143329378 0.06167632620920492 0.07776702824484376 -0.41645462099622216 -0.1299557884844522
2622375000.0 -0.4133327816217425 -0.14121425651751732 0.06352871616020192 0.07560657059252794 0.06385211488163117 0.07608911896439435 -0.41655629810613304 -0.12800607087960844
2623438000.0 -0.41395840688540436 -0.13850492706178713 0.06552429193991632 0.07386397565653274 0.06587265535840578 0.07441840675212238 -0.4164937607568793 -0.12595414895405913
2624500000.0 -0.41466500608063234 -0.13571492426562068 0.06756587004264217 0.07213749699419783 0.06797074220182019 0.07261396376132775 -0.416264376253017 -0.12348239059409268
2625562000.0 -0.41528314226230384 -0.13308903723626625 0.06939944782115184 0.07040253937914881 0.0699858717863448 0.07078919955893644 -0.41610305257259217 -0.12079088911515933
2626625000.0 -0.4157154797377421 -0.13060710045030208 0.07136664725731293 0.06868839574317252 0.07202703252987333 0.06892303551900117 -0.41573345442844034 -0.11788459139386576
2627688000.0 -0.41642444782588056 -0.1279327888063876 0.07334802888477025 0.0670021678258846 0.07404054162704679 0.0668238259923297 -0.4159544210753026 -0.11507620109820269
2628750000.0 -0.4171263073428741 -0.12528199957765365 0.07526108537606901 0.06502801215872579 0.07599906651794909 0.06478303394066534 -0.4160515271516261 -0.11207236042043936
2629812000.0 -0.41756977266750395 -0.12285632204212499 0.0770573571698329 0.06316069330906417 0.07784524264036681 0.06262627086832076 -0.41620438443180735 -0.10884837807898087
2630875000.0 -0.41808554059720693 -0.12021711440769775 0.07894887780659078 0.06100317970973716 0.0794857732139152 0.06050782694858607 -0.4167511646708912 -0.10557645412875874
2631938000.0 -0.41849704094936024 -0.11791199019197626 0.08062471390316936 0.05891151281826785 0.08111294547676837 0.05826789229869903 -0.41760823446412715 -0.10267358758563801
2633000000.0 -0.4188232085018389 -0.1154014025090612 0.08238746549933984 0.0567039211246739 0.08253919619127267 0.05606583524591274 -0.41818125036938786 -0.09942105354582562
2634062000.0 -0.4191231474233188 -0.11287086952626835 0.08399726899122653 0.05451914752071452 0.08385723957069678 0.053902367777798436 -0.4191975104521918 -0.09643608358778145
2635125000.0 -0.41933350771768224 -0.11038510386743652 0.0855642071853641 0.05210021732188946 0.08510392104755139 0.051624988535613765 -0.42034492005070423 -0.0938567960852164
2636188000.0 -0.41952795967167694 -0.10778679128192908 0.086901886775317 0.049495473926983044 0.08636211097622538 0.049388763088308904 -0.4211236976701343 -0.09128946225985082
2637250000.0 -0.4197441505373579 -0.10519256686319603 0.08825469039155133 0.04709450476969447 0.08762768699984579 0.047065782986288815 -0.42191611641488513 -0.0891197952404296
2638312000.0 -0.41986841531183083 -0.10251239487464707 0.08940749654625804 0.044470582334516076 0.08879043684743253 0.04465715934880243 -0.42218498467838506 -0.0866072717480655
2639375000.0 -0.41998728658211376 -0.0998444291325875 0.09038995787495438 0.041801992801987965 0.09006575256473569 0.04223621726524639 -0.42244354718061794 -0.08472088220790226
2640438000.0 -0.420326485827148 -0.09707093849084515 0.09162665693684978 0.039143191365032304 0.09129734627229902 0.03969869190194838 -0.42216849657147965 -0.08243675744009721
2641500000.0 -0.4207839153688094 -0.09407822276281301 0.09237650782287318 0.03637146822495083 0.09251419844370809 0.03706109417496983 -0.42126547540416936 -0.07972254288177101
2642562000.0 -0.42119688373309105 -0.09125524385562965 0.0931592345602226 0.03373069534856316 0.09368232252027095 0.03428894661901926 -0.42066121995649447 -0.07711922169632049
2643625000.0 -0.4216579590403708 -0.0882839531553211 0.09403414733118087 0.030965921883982686 0.09478557690208993 0.031479804252905114 -0.4197666724075724 -0.07374953469753537
2644688000.0 -0.42223196314829914 -0.08552917252830468 0.09489266634561103 0.02822933572126585 0.09569442191676053 0.028564985821839924 -0.41903654196805096 -0.07040142127011792
2645750000.0 -0.4228516752759851 -0.08262868216213669 0.09560937945047543 0.025556193661660193 0.0965722900258776 0.02570930673070391 -0.41855846186233575 -0.06678439452080162
2646812000.0 -0.42347425283484047 -0.0798371147167383 0.09632818076322933 0.022956246383561325 0.0972538061656714 0.022770011743809982 -0.41832135503987017 -0.06314242943552292
2647875000.0 -0.42424669037482665 -0.07709776010816809 0.09697188415422756 0.02026473214110183 0.0978116524038217 0.019892080648731176 -0.418504621524942 -0.05939628352102638
2648938000.0 -0.4249642373004257 -0.07446880433639795 0.09765963735087652 0.017750889902871943 0.09830995556623891 0.01713107402710324 -0.41887246876574075 -0.0558464461040143
2650000000.0 -0.4257552157845041 -0.07175420338409684 0.09830656201200351 0.015053597008130061 0.09875847110948963 0.014314511360190714 -0.41914378730806395 -0.05242529154467106
2651062000.0 -0.4264111626412962 -0.06927164640993984 0.09885188792381625 0.012331111964698237 0.09910394778287206 0.011650780641087268 -0.4200659784408665 -0.049181865678870076
2652125000.0 -0.42726537467048437 -0.06669260770834994 0.09932163621612158 0.009865009192071282 0.09944449242702577 0.008971905216569454 -0.4212133848219853 -0.04602788605263885
2653188000.0 -0.42801628272883946 -0.06430174080003025 0.09972182837802275 0.006923198132711552 0.09971278804259401 0.006384191902627017 -0.4223004482038486 -0.04308555345925628
2654250000.0 -0.42888338568027073 -0.061910332131397176 0.1001532240909666 0.0041931779494453715 0.0999876583310626 0.0037683538486643423 -0.42351163286142574 -0.04047583212094068
2655312000.0 -0.42975523305373425 -0.05949322223166986 0.10043403662904529 0.001581332101656424 0.10022420259398362 0.0011535782017767404 -0.4241686541192467 -0.038169010489151084
2656375000.0 -0.4306311582821818 -0.0573125772114288 0.10049271260855924 -0.0012653612851321442 0.10028026681699304 -0.001479813359845202 -0.4253567167168622 -0.035803645461151896
2657438000.0 -0.4315338168720945 -0.05491534871857105 0.10060760934583761 -0.004112895082248414 0.10039489540130254 -0.004230031289370008 -0.42605472629214364 -0.03349731193892493
2658500000.0 -0.4323242731990908 -0.052456668777064126 0.10053520570331495 -0.006899283759061353 0.10036176339303628 -0.007035547160516133 -0.4263809458590157 -0.031170587357153945
2659562000.0 -0.4330339160935011 -0.05015407385596725 0.10031317382972756 -0.00980934398427589 0.10022926713235697 -0.009836188995409912 -0.4266066980319589 -0.028952270621708787
2660625000.0 -0.43381975114689336 -0.04781164400073921 0.10002027329210299 -0.012792245009568107 0.1000242088348228 -0.012771312597460909 -0.4264437433957488 -0.026327621355220043
2661688000.0 -0.43448119210047265 -0.04519934238916368 0.0997188532985587 -0.015626945607036705 0.09971252971264129 -0.015614764553807768 -0.4263366517126447 -0.023674938365927104
2662750000.0 -0.4350071337869356 -0.04290577268776626 0.09912655251682 -0.01867795254036972 0.09923772526967392 -0.01864547613229247 -0.42551285178295134 -0.020498979985848563
2663812000.0 -0.4355169176570714 -0.0403251392936712 0.09864232439556155 -0.02153820169263738 0.09875823374035707 -0.021645555856929972 -0.4247501489684311 -0.01738557183583853
2664875000.0 -0.4359365912626808 -0.03776361811344747 0.09799715757161327 -0.02448360130238935 0.09819799734077803 -0.024543015916415684 -0.4246125510910768 -0.01407073758978358
2665938000.0 -0.4362981966562477 -0.03522664098880439 0.0972117518731374 -0.027281885852513205 0.09764741717547532 -0.027447422414374995 -0.4242904208654797 -0.010456383421662368
2667000000.0 -0.43673544118110913 -0.03246966506973641 0.09655314591202094 -0.030155239841424757 0.09692703818487754 -0.03034083588505912 -0.42422878060377295 -0.006836648276541082
2668062000.0 -0.4368656096305075 -0.029854679357413684 0.09568425334739991 -0.033026806104544434 0.0960708375668975 -0.03314902338739817 -0.4243345901904797 -0.0031896567720411263
2669125000.0 -0.4369644520496802 -0.02698805403963238 0.09498402999377319 -0.03578297645977238 0.09517699156309056 -0.035899692099329146 -0.4246987975894875 0.00026821394435612667
2670188000.0 -0.43707323241421736 -0.024080042393550258 0.0939673827136782 -0.03852982374071535 0.09415110180930451 -0.0386835598498399 -0.42518657664434617 0.003557481313508614
2671250000.0 -0.4373084873899047 -0.021318262001907767 0.09299790378787118 -0.04102847498305497 0.0930586099462428 -0.04135978228766379 -0.42580047113867786 0.006515242549153695
2672312000.0 -0.4373097570806934 -0.01815544327157988 0.09180819494457719 -0.04366230706784188 0.09184006217627533 -0.04394350660541264 -0.42631221842171024 0.009099134959676668
2673375000.0 -0.4373639373406007 -0.015204783296587096 0.09058277887907433 -0.046145887754782726 0.0906756724016458 -0.046539045590874406 -0.42689423668813686 0.011457145513832133
2674438000.0 -0.4376189356848577 -0.012188391353535472 0.08931922950685112 -0.048726531227664675 0.08935989906404562 -0.04909680976921834 -0.42728348834495844 0.013659976220783162
2675500000.0 -0.43769710837907017 -0.009232856706862906 0.0879459213824179 -0.05131510576302517 0.08791763098415528 -0.051484196457043406 -0.4274858668351447 0.015753291826468816
2676562000.0 -0.43788057658333984 -0.006258429721898511 0.08644118211332462 -0.05370692480140643 0.08658239176851193 -0.05395823009997426 -0.42742533732851085 0.017560752455260936
2677625000.0 -0.4380583382099426 -0.0031379545209150963 0.08494922253192913 -0.056032930855940535 0.0850334991178583 -0.05626318347668876 -0.4268733429991477 0.01924964018223879
2678688000.0 -0.43836224704390414 -0.00019212573562075829 0.08322300630506316 -0.05846288641757496 0.08341776794003163 -0.05861536708732457 -0.4257363692010636 0.021044114636960553
2679750000.0 -0.4386202091855076 0.0028673601973440285 0.08154867755087514 -0.06086503713753213 0.08166854675630943 -0.0609273033942073 -0.4246586444131013 0.02306494129626126
2680812000.0 -0.4387515887856896 0.005774343334077253 0.0796956944013979 -0.06317387247194453 0.07989891480106004 -0.06325953656145432 -0.42298390150714416 0.025611714627292836
2681875000.0 -0.4386934043457557 0.00856399047677532 0.0777789447774436 -0.0654684328419374 0.07793713391444379 -0.06567126730488611 -0.4214184029620072 0.028270545324399897
2682938000.0 -0.4385754661696691 0.011382207234166322 0.07590292913288803 -0.06773335862617295 0.0760254021357132 -0.06802756124273794 -0.4193503575747466 0.03138568950390214
2684000000.0 -0.43877106739362204 0.014482467116345996 0.0739558894926671 -0.06992010069009087 0.07395243984867622 -0.07037111655178661 -0.41766240024864815 0.03501052040112437
2685062000.0 -0.43846863017111665 0.017411975242584324 0.07184794530052119 -0.07227451815415575 0.0717833524981629 -0.07259981932147824 -0.416464147448104 0.03896508999158066
2686125000.0 -0.4382607915586461 0.02037364092853153 0.06980855059004445 -0.07450619453105356 0.06965230251037989 -0.07489947747139411 -0.4155434324335979 0.04282535083910774
2687188000.0 -0.4380163875720178 0.02310035940722059 0.06764217939511494 -0.07666700368982621 0.06752048303120506 -0.0771250440997871 -0.41486792046887533 0.04690174663905207
2688250000.0 -0.43764003879457447 0.026083199480497078 0.06555078492955796 -0.07883261427447148 0.0653364821149126 -0.07911675265934538 -0.41472929206896325 0.050652684141666016
2689312000.0 -0.43703282971731583 0.028927903876126305 0.06325109529323011 -0.0809406994409781 0.06299603422962319 -0.08088546633718215 -0.4147178516242983 0.05408696018337333
2690375000.0 -0.4363510230744624 0.03187855804201468 0.06114682291076535 -0.08291685142658115 0.060867763527406686 -0.08282353251988578 -0.4152265865323828 0.057021880752683336
2691438000.0 -0.4356842579836043 0.03480527801448391 0.05880329480069019 -0.0846550332322674 0.05853157643574116 -0.08443463171572797 -0.41535881787333406 0.05987968966676515
2692500000.0 -0.4349340998030266 0.03787050204431734 0.05652758875876294 -0.08648342777683528 0.056345083888725125 -0.08611238142782228 -0.4155117882935438 0.061950744278090594
2693562000.0 -0.4340776701835614 0.040886951321326 0.054044979328307804 -0.08802483611705902 0.0541044982523483 -0.08767728980157163 -0.4153287933961561 0.06367802278648561
2694625000.0 -0.43314217407503636 0.043758173877201684 0.05148935596792428 -0.08968426940504086 0.051798896355117786 -0.08921394310747392 -0.4150581287824401 0.0653770897111676
2695688000.0 -0.4320790604508061 0.046794007735715494 0.04885435817549514 -0.09089996894630506 0.049426184532809656 -0.09074434387325914 -0.4137747566615113 0.06643466389783312
2696750000.0 -0.4310776764518301 0.0496799211322904 0.04635574544256491 -0.0920130632537463 0.04700949643400909 -0.09215344888382888 -0.41294899728667506 0.06750429705983461
2697812000.0 -0.4298811247746738 0.05275698383653366 0.04361298596175767 -0.09317869072742005 0.0444039181860402 -0.09358861768073423 -0.41156278668555485 0.0685283434726471
2698875000.0 -0.42865152249998567 0.055920421377086006 0.040956587968872735 -0.09416564504672535 0.04171278465784975 -0.09484553049608192 -0.40912346158354623 0.06923602470894771
2699938000.0 -0.4272601502186389 0.05855868895796605 0.03814669480081625 -0.09516280432340853 0.03885640232697733 -0.09604274322603083 -0.40649798884346283 0.07032322896868905
2701000000.0 -0.4259860090613564 0.06157524557021082 0.03547172600860337 -0.09589959802956914 0.035882534138001125 -0.09706850227745611 -0.40298909331208244 0.07175714845793492
2702062000.0 -0.4244566699717247 0.06445400946208572 0.0326859492097288 -0.09671879603553316 0.03268041122648555 -0.09790008627259943 -0.39941274765011303 0.07382984342754087
2703125000.0 -0.4231611534487493 0.06746853791842207 0.02982588870386025 -0.09757859054316392 0.029472742976412444 -0.09856618776845079 -0.39535262539894345 0.07609241054705636
2704188000.0 -0.42187038741411104 0.07019383431089696 0.027053685083358495 -0.09844795203769259 0.02638100506258794 -0.09914608900758191 -0.3917140269239123 0.07952972682806726
2705250000.0 -0.42060577943322197 0.07304257811030627 0.02404683592402306 -0.0989310852226359 0.023151668278360633 -0.09960037603202543 -0.3883282654669281 0.0830306094315633
2706312000.0 -0.4193252830207403 0.07584457440063072 0.021308392238799302 -0.09977395954138739 0.02009835591280134 -0.10002585356580149 -0.38567398963717114 0.08727817978036763
2707375000.0 -0.41808788386414164 0.07865766190935632 0.01821201118047886 -0.10043704732139627 0.017141707647882334 -0.10039357713769095 -0.3839744452327594 0.09173775071431939
2708438000.0 -0.4167434698010189 0.08133681690443023 0.015268186518168228 -0.10103356031068583 0.01430794699164167 -0.10078875463923095 -0.3824347558882244 0.09591767662268857
2709500000.0 -0.41569170898230695 0.08399014037958777 0.01222981576270201 -0.10172014333455294 0.011518567719658278 -0.10123886081159927 -0.38150039981881523 0.09971145322536006
2710562000.0 -0.4145011758275896 0.08657915149138483 0.009152691144771869 -0.10234487247535733 0.008796350315965287 -0.1016680087730618 -0.3818111582046485 0.10305924525613068
2711625000.0 -0.4130671334495639 0.08927801754187986 0.006109541335189839 -0.10270086725343126 0.006131923187613648 -0.10214399574102316 -0.3811260372342513 0.10560367232970913
2712688000.0 -0.41154804128440725 0.0918189243843267 0.0030306943334950684 -0.10311141940658915 0.0034072202213618645 -0.10251915790066936 -0.3812994135783968 0.10857900367150351
2713750000.0 -0.41022109048140576 0.09441336562873949 -0.0001170543684785315 -0.10338871903350877 0.0004590707850084886 -0.10301950930420482 -0.38106338854030675 0.11073355542736803
2714812000.0 -0.4085901678060326 0.09671903783505982 -0.0031605977707960986 -0.10355509484849178 -0.0024171332151903175 -0.1032800834568814 -0.3806711562991304 0.11247730503659048
2715875000.0 -0.4068862137918349 0.09941386082376907 -0.006232593198663667 -0.1034034037024063 -0.0054573869887610685 -0.10352290718838222 -0.3801811892442068 0.11424119590153446
2716938000.0 -0.4052799337594106 0.10162452129990136 -0.009209045417105892 -0.10332584342870842 -0.00856835830830502 -0.10367655916163783 -0.3793191450967709 0.11529586118698025
2718000000.0 -0.4034843937078935 0.10402365911400578 -0.012183110160423302 -0.10288664571732059 -0.011880828369114986 -0.10358840008351433 -0.3782347524326091 0.11630372702199444
2719062000.0 -0.4018379767354784 0.10643448493106744 -0.015227155517383245 -0.10250702554405038 -0.01512551694310009 -0.1033014371949043 -0.3768844965023909 0.11737827225470238
2720125000.0 -0.4000610049291564 0.10890355881670076 -0.018036065486661788 -0.1017382189319321 -0.01835281281623663 -0.10274312584707851 -0.3750205387676359 0.1182943512426059
2721188000.0 -0.3984190274254947 0.11114447972655739 -0.02109421889853212 -0.10106825015903345 -0.0215143411996653 -0.10205366562170853 -0.37284712354045463 0.11957151112668325
2722250000.0 -0.3966633812436278 0.11360450390541137 -0.023790438019226583 -0.10031314639769238 -0.024520937543813785 -0.10109289355925916 -0.3700624612379559 0.12026097285123488
2723312000.0 -0.3949184271399097 0.11597022632900139 -0.026670651476435797 -0.09925493450912233 -0.027472892805074343 -0.10012030688768646 -0.367232921890812 0.12201221927381468
2724375000.0 -0.3933418527050954 0.11825396882601776 -0.029272336418735247 -0.09845276956530723 -0.030212956161871425 -0.09874637939230195 -0.3644746029742139 0.12396175349603206
2725438000.0 -0.39159877855353664 0.12071383024662247 -0.03210342465508264 -0.09747521267619788 -0.03284474809372192 -0.0975509488014044 -0.36096929143743955 0.1260942199872424
2726500000.0 -0.3897985706476165 0.12309342111585003 -0.03469665172468855 -0.09653999408364076 -0.035327610635876715 -0.09634474334072886 -0.3585428934312678 0.12865209107120307
2727562000.0 -0.3880338654475359 0.1254454325007127 -0.03744377959411965 -0.09563520315956087 -0.03790766926779999 -0.09521053228331065 -0.35619098698185375 0.13172780197190198
2728625000.0 -0.3860516927779306 0.12798031035487295 -0.04005127094496877 -0.09466443373261633 -0.04041455094494496 -0.09419302421351317 -0.3544516394969872 0.13458861217692003
2729688000.0 -0.38431497577671264 0.13010048980704456 -0.04275967622801231 -0.09356642653070182 -0.04290880067958446 -0.09311651119461138 -0.3532836436033351 0.13768004548678997
2730750000.0 -0.3826132692359469 0.13253872495009414 -0.04555100491259535 -0.09243516298505568 -0.04557616251878456 -0.09215733601466108 -0.35284720032954814 0.13981187196134887
2731812000.0 -0.3805252635853942 0.1345541620534332 -0.048260532663640394 -0.0913085893412256 -0.04839645535602741 -0.09106345820501546 -0.352559678428916 0.1423075662920698
2732875000.0 -0.37885736966714906 0.13675901992124687 -0.05112601413356415 -0.08996071527310551 -0.05115254445784694 -0.08992206768714159 -0.35252230522191896 0.14389200728743076
2733938000.0 -0.37712220652974315 0.13878281107857382 -0.05388646052578221 -0.08854292303524211 -0.05397114222224693 -0.08865883196110441 -0.3524360920498214 0.14493959205979165
2735000000.0 -0.37549120347368115 0.1407255881101007 -0.05667780901442951 -0.08708233511329332 -0.05675580789376558 -0.08716922509147901 -0.3525582694917201 0.145934068176422
2736062000.0 -0.37384696223079467 0.14253222159678913 -0.0594293118367204 -0.08539301783334229 -0.0596187670561225 -0.08552426922976344 -0.35217616123145495 0.14659175072997935
2737125000.0 -0.3723036709839933 0.14438627019599695 -0.06223496709068839 -0.08367881748426625 -0.06227424869965617 -0.08365114554071253 -0.35160173235167014 0.1470273132750932
2738188000.0 -0.3708000807173126 0.146377424508466 -0.06471249859038009 -0.08182829624269897 -0.06482667367963628 -0.08172019945477756 -0.35075148101840387 0.14694598111506907
2739250000.0 -0.36920995951209323 0.1479221899678704 -0.06729996659491078 -0.07972625802628013 -0.06732854202971682 -0.07963837935466973 -0.34963874494368 0.14720897568999172
2740312000.0 -0.3676699566861623 0.1494041568242165 -0.06961622217714476 -0.07758416159205994 -0.06960485139735152 -0.07746741082464226 -0.3481513952512583 0.1476058752940912
2741375000.0 -0.36598613511094746 0.15130245629765351 -0.07190478252429462 -0.07545708265344765 -0.07187642554765612 -0.07528805595323132 -0.3461407861609639 0.14777918966966747
2742438000.0 -0.3643764614919669 0.15266052525698473 -0.07399245864441852 -0.07305024451713177 -0.07399893113547078 -0.07310265034228726 -0.34432173575127983 0.14831502851589504
2743500000.0 -0.3625792837296111 0.15408505656735652 -0.07598770246911322 -0.07081465337581477 -0.07593658671039485 -0.07095887068896975 -0.3420422377714632 0.14896085207409335
2744562000.0 -0.36088449085041463 0.15522174283812035 -0.07798614000010949 -0.06855757603527307 -0.07806094210389643 -0.06884655556253487 -0.3396796229945107 0.149659618456184
2745625000.0 -0.3589055312217804 0.15659943211595256 -0.07979540596952171 -0.06630655657353206 -0.0799327192656065 -0.06670742105450751 -0.33740126497493705 0.15067944038788467
2746688000.0 -0.3571737929976405 0.1579871002810221 -0.08172462783477322 -0.06411221043642078 -0.08203384947691635 -0.06459203388266781 -0.3352393608096149 0.1519839360331813
2747750000.0 -0.3551978092097783 0.15896363033374683 -0.08348520090834502 -0.06190377188416457 -0.0839289714503823 -0.06232906300209005 -0.33339538046739514 0.15349364564315476
2748812000.0 -0.353296602414481 0.1600671775618487 -0.0852534036097456 -0.059669992565253495 -0.08579360876181107 -0.060030018116730845 -0.33190663032391315 0.15510192140150178
2749875000.0 -0.35155287694220355 0.16114211073574167 -0.08704872136680265 -0.05748668064292809 -0.08761433499918013 -0.0575138534038591 -0.3306566210994573 0.156443078288821
2750938000.0 -0.3496543990923449 0.16226785670246682 -0.08867101635443875 -0.05503549272580005 -0.0894463923814037 -0.05485504965253675 -0.32971370479092943 0.15776477379494208
2752000000.0 -0.34797249743498837 0.16320866956073737 -0.09035944400895185 -0.052625356923323444 -0.09106936936996432 -0.0520972596017967 -0.32932577120245493 0.15879542320853535
2753062000.0 -0.34626223358856617 0.16431216749008248 -0.09201681222734712 -0.04996220795919246 -0.09250115384079396 -0.049411032987640616 -0.32860217683137605 0.15962373875912175
2754125000.0 -0.34463392556447003 0.16540589897391106 -0.0935170744752451 -0.04719959460824198 -0.09397921883837133 -0.04654590252722048 -0.3278276249981236 0.160154773697223
2755188000.0 -0.34294808406253197 0.1663704993622298 -0.09494347625569963 -0.044359911488024456 -0.09514517822724682 -0.04371213202957696 -0.32706096297969495 0.16046075630620912
2756250000.0 -0.34127469736398874 0.16739908295027564 -0.09621686381070921 -0.041379184052082685 -0.09626555483657452 -0.040895252102155166 -0.3259040359930373 0.16060213480223837
2757312000.0 -0.33982872146927107 0.16841711447290422 -0.09746376785977386 -0.03834452915833119 -0.09717450736806815 -0.03794474546959414 -0.32484349003142965 0.16070191039096704
2758375000.0 -0.33809815907286833 0.16931925714164622 -0.09847537296564511 -0.03532451528742412 -0.0980775105864519 -0.035145216164613524 -0.32335638119023175 0.1608230155472067
2759438000.0 -0.3369866049938833 0.17038457600995124 -0.09957389641022468 -0.03209169961458479 -0.09910864007642149 -0.032336147702325964 -0.32193584163581584 0.1608146041189141
2760500000.0 -0.3353210462925619 0.17119003327258223 -0.10023404433927545 -0.028975811396583902 -0.09996823669782655 -0.029441328605229262 -0.3201724164999193 0.16065225572110806
2761562000.0 -0.3341661721950811 0.17207512462606475 -0.1009970390934169 -0.026022046368499994 -0.10087877029923886 -0.026410547032365308 -0.31829262943021336 0.1609442755962998
2762625000.0 -0.3328907845788727 0.17285796823016528 -0.10167529437292237 -0.022816163826554492 -0.10172882322554595 -0.023340954886598438 -0.3161822358607583 0.16104483613636797
2763688000.0 -0.33163163691485453 0.17366986371820337 -0.10210404022993 -0.019968865951350934 -0.10252088479917297 -0.02027510254241579 -0.3141077301327126 0.16145489799457993
2764750000.0 -0.3306695817710036 0.1744184451135268 -0.10265323118219982 -0.01681008686856578 -0.10320651152283697 -0.01705111147112465 -0.31207682046509755 0.16204313523003627
2765812000.0 -0.32969759143984473 0.17529131360991018 -0.10301267338196621 -0.013773540225793435 -0.1038623558671337 -0.013842307535043364 -0.30984623313888915 0.162999363467328
2766875000.0 -0.32860915615240915 0.1758830554234595 -0.10339802605575167 -0.010810849252239137 -0.10434173832976867 -0.010646084954286287 -0.3079675200438097 0.16408073152136163
2767938000.0 -0.32766638512761026 0.17667750896630743 -0.10384148544243399 -0.00783367994888156 -0.10465398531243154 -0.0073862767951204875 -0.3063955729701366 0.16549224750907196
2769000000.0 -0.3266471786600463 0.1771546898574536 -0.10412785656039335 -0.004927070150583787 -0.10474069149282851 -0.004354844277111564 -0.30526143697348196 0.16705557665693863
2770062000.0 -0.3254217152066304 0.1777331497355929 -0.10432522134776147 -0.0018427529689979106 -0.10490626151654459 -0.0012475142911691367 -0.3042710994567963 0.1684952648590976
2771125000.0 -0.324633911239049 0.1782679411918662 -0.1046205118967403 0.001211772429876738 -0.10463546651273127 0.001787883112106506 -0.303536272829723 0.16964629193107927
2772188000.0 -0.3236546873814101 0.17848734941916375 -0.10459016985387379 0.00415207598712658 -0.10449159628863537 0.004708130077179461 -0.30318713177561213 0.17061834584692245
2773250000.0 -0.3224968811003409 0.1788620083274324 -0.10469650115825772 0.007241586447431008 -0.10429156917358032 0.007669151106887212 -0.30276187732956 0.17144852825236442
2774312000.0 -0.32149638202582453 0.1790844572718901 -0.10443810903829967 0.01039116873652412 -0.10399643846565962 0.010634993640335492 -0.30233268204798946 0.17213988308633218
2775375000.0 -0.3202597197945149 0.17942114949674093 -0.10412468623764967 0.01353966079721168 -0.10371223513058732 0.01364390352981429 -0.3014442819854336 0.1728578775766632
2776438000.0 -0.31917897160629194 0.17955312774434024 -0.1034470648710833 0.016688869465460013 -0.10325121327522484 0.01656716189230781 -0.3007561884726545 0.17297956706669257
2777500000.0 -0.3180532899597645 0.17996693638532152 -0.10278115022451609 0.019924347415151204 -0.10282128920960243 0.01966223257903663 -0.2993464149875111 0.1735747147050698
2778562000.0 -0.3168962694925359 0.1801799492232497 -0.10216112581921138 0.022982512620879355 -0.10225002103358967 0.022750118976482492 -0.29841715844494743 0.17399764513290672
2779625000.0 -0.31588548805824435 0.18062234782140088 -0.10124924133247269 0.02620304414134355 -0.10153357908280768 0.025888076297653016 -0.29688439800086147 0.17431971631956986
2780688000.0 -0.31481427533211065 0.18111426594618865 -0.10015792567281008 0.029220343503762562 -0.10062943711063173 0.029118478886914666 -0.2953162734814893 0.17498246581382695
2781750000.0 -0.31374663056014246 0.18152984939713082 -0.09914566405934933 0.03217045217267997 -0.0996334082954378 0.0322096765502893 -0.293628919711128 0.17549597193343244
2782812000.0 -0.3126759350510015 0.18226536229487958 -0.09789138796393573 0.035187462166879645 -0.09838808246833303 0.03536537132548793 -0.2919896415151775 0.17643850573810232
2783875000.0 -0.3115639131015032 0.18275475004088643 -0.09662194903593273 0.03800038346919869 -0.09699813382245685 0.03842546577845467 -0.29030750581561154 0.17729814868109006
2784938000.0 -0.3104718768490468 0.18338784358030852 -0.0954283360012099 0.040954855147737494 -0.0955654473402694 0.041445539281129304 -0.2888464948487936 0.17808331286552975
2786000000.0 -0.30943767916787235 0.18415590756177797 -0.09395794105630191 0.04368950335590561 -0.09404551757904095 0.04421208791768149 -0.2873549681679582 0.17941994375961037
2787062000.0 -0.30853545719203795 0.1847509562919888 -0.09245141266304532 0.046557941232370406 -0.09251489321395763 0.04694800482501502 -0.2860785397667214 0.1806670043850182
2788125000.0 -0.3077361000965378 0.18554621952038428 -0.09095478768982616 0.049184511518830173 -0.0909922507813061 0.04952144488198572 -0.2852455254848415 0.1823222646038463
2789188000.0 -0.3067420209094376 0.18622593070348734 -0.08945650758864773 0.05167336360291626 -0.08947777157574485 0.05206538764905463 -0.28438525589234825 0.18391230122168567
2790250000.0 -0.3060082979285279 0.18678115890456184 -0.08779936243477449 0.05424362979416582 -0.08799432825960797 0.05447740667102236 -0.28396944542654873 0.18552778839084474
2791312000.0 -0.30525640142975496 0.1877770157130101 -0.08634628641715276 0.05684144424525693 -0.08638359126509337 0.05696626439153758 -0.28381339088085017 0.18700596434646116
2792375000.0 -0.3044786216132771 0.18820995500156648 -0.08460347146551153 0.059252005851733194 -0.08480607306122497 0.05938591450627986 -0.28360122021744916 0.18811765374935782
2793438000.0 -0.30361098739320347 0.1893195500821614 -0.08299751092653271 0.061804145929845046 -0.08307029256722283 0.0618322742933722 -0.2836456109223513 0.18941126022430757
2794500000.0 -0.3030098769906377 0.1901441345234645 -0.0810049641573752 0.0641016460299417 -0.08124871851287947 0.06432944228361118 -0.2836209103255882 0.19023916378705402
2795562000.0 -0.3023130841742422 0.1909598853111631 -0.07923027786017016 0.06645246204565396 -0.07927879675904534 0.06689024750798439 -0.2835169246045125 0.19113220307230064
2796625000.0 -0.3016176282246265 0.19172437562895675 -0.07722457453958402 0.06894646554581353 -0.07719713251815646 0.06925599766039625 -0.2831445157713305 0.19168024800415073
2797688000.0 -0.3008279831960246 0.19275095718518998 -0.07508437588187027 0.07133113519864526 -0.07486833682477059 0.0717868658611509 -0.2823434762955067 0.19242377580283213
2798750000.0 -0.29997062744516234 0.19364995312729955 -0.07272197309171102 0.07364259195410842 -0.07253905827509065 0.07411144924652184 -0.28171445079886676 0.19303494483406028
2799812000.0 -0.29917448455729684 0.1942838126954608 -0.07039686404734803 0.07592793630692624 -0.07001943788555437 0.07612332083886852 -0.28082294115497014 0.193684899529721
2800875000.0 -0.29831381500059406 0.19506185655786804 -0.06791283655228846 0.07803281196184046 -0.06751047026581736 0.07821951310935689 -0.27949626409115297 0.1944868913391063
2801938000.0 -0.2976720468685399 0.19587606689221929 -0.0651509725504695 0.0802267207861336 -0.06492235662847708 0.07996581733158241 -0.27854204794365894 0.19552103566800513
2803000000.0 -0.29691140279870304 0.19659133483418512 -0.06254306764735437 0.0820571426647189 -0.0624234172706787 0.0816750451467385 -0.27732507890440483 0.19656012120984542
2804062000.0 -0.2959849517172998 0.19741925123583065 -0.05984828970420716 0.0838058068013239 -0.059849915978671675 0.08323394058320953 -0.27626054169817066 0.1975980980217289
2805125000.0 -0.29524242061267897 0.19806412074287544 -0.05704322905722099 0.08536389675735653 -0.057423418873189636 0.08467918114467482 -0.2752756279425539 0.1990799840514328
2806188000.0 -0.29462836185049285 0.19898978657146577 -0.05444768893425513 0.08682095621085022 -0.054972314174886884 0.08625942768227429 -0.27457885130291043 0.20050567401393427
2807250000.0 -0.2938717297491512 0.19991138066501182 -0.05186087714063024 0.08801533245330526 -0.05258014268540245 0.08786152695279133 -0.27403267417258215 0.20213222260239522
2808312000.0 -0.29303182629814756 0.20079513364310544 -0.04906623905538669 0.08907105050022925 -0.05008196685449781 0.08941530912225774 -0.27349761239815074 0.20354139517991135
2809375000.0 -0.29207333522163803 0.2017295144604665 -0.04639739460156718 0.09014960809447961 -0.04756344751293516 0.09088784881119198 -0.2737153877233688 0.2052090668863697
2810438000.0 -0.2910300923824013 0.20301666814258773 -0.04406112210437166 0.09123982565258915 -0.04489456638254909 0.09223244806097962 -0.27352494930918625 0.20622307410616844
2811500000.0 -0.2901799766861255 0.20421467778211008 -0.04151760540222821 0.09231308737722906 -0.0420670967690767 0.09359560525066171 -0.273620802282207 0.20749256517181147
2812562000.0 -0.2892736666054083 0.2054345605056568 -0.03905848069875149 0.09329053011929733 -0.03919775723533512 0.09466433877425512 -0.2739460465809176 0.2079196459453488
2813625000.0 -0.2881565706376256 0.206592341924938 -0.03653984152058011 0.094185026982024 -0.03616536036345712 0.09555980462802895 -0.2738225030198214 0.20807825035336436
2814688000.0 -0.28739258002177004 0.2078396276719401 -0.03404211506734912 0.09502473276370388 -0.03309019217470768 0.09627090559505604 -0.27324584236664695 0.2082762716794291
2815750000.0 -0.28640878700987465 0.20894144018254707 -0.031203440400892304 0.09588813662784451 -0.03009428064710913 0.09667060415435774 -0.2722586161992841 0.2083659580013186
2816812000.0 -0.2855052783582414 0.21021328836471506 -0.028484007706664694 0.09688252357587197 -0.027140368564052324 0.09705328794800976 -0.2710920669693279 0.2084401782672412
2817875000.0 -0.28458986378003653 0.21120477503870547 -0.025493230429643604 0.0975517001848779 -0.02411002082166582 0.09724471980801444 -0.26949639682530807 0.2088956235466372
2818938000.0 -0.28376081559527044 0.21247684030156347 -0.02248056716007438 0.09818228065034906 -0.021287958289914314 0.09748929427963661 -0.2676812960180882 0.2092909499464172
2820000000.0 -0.2828324938134483 0.21373487491903434 -0.01932926394879715 0.0986855975916511 -0.018531852054006457 0.09768644839280556 -0.26613165796120947 0.20968389874343654
2821062000.0 -0.28204988843086587 0.21474940215138624 -0.016158040423892715 0.09918204578758476 -0.015929065892899753 0.09798891641848978 -0.2639278663299387 0.21064841788902733
2822125000.0 -0.28123674157169454 0.2160840611538493 -0.01284997412992097 0.09946767867071381 -0.013197469523845045 0.09840637256943094 -0.26232299139686865 0.2120047185901195
2823188000.0 -0.2803429946186129 0.21737302491095747 -0.009659484104775224 0.0996166877047713 -0.010550432987895117 0.09874703666322242 -0.26065084863988003 0.21321905788885973
2824250000.0 -0.2793171839175523 0.21866259803091892 -0.0065563428207811225 0.0996052323194077 -0.007723185157862416 0.09911684092007736 -0.2590216371663492 0.2144700099932757
2825312000.0 -0.2782666047127505 0.21982477789765856 -0.0035115358989470566 0.09952671853313999 -0.004856550955383867 0.09950062046629163 -0.25752893365294033 0.2165173866580288
2826375000.0 -0.2774236951082946 0.2212990467010824 -0.0005140689077397013 0.09917532651547382 -0.001834007470243064 0.0998375311815499 -0.2563029911937369 0.21837775106959337
2827438000.0 -0.2762939826092886 0.22236357563934292 0.0025021084217125298 0.09903482968555295 0.001351442264007346 0.09987307718819059 -0.25520218112856985 0.22044600208633527
2828500000.0 -0.27525278424383115 0.22377009212623067 0.005347918590487271 0.09860093258813962 0.004630577835346498 0.09997063913018382 -0.25471988715539184 0.22295387656876625
2829562000.0 -0.27443745186489665 0.22487981922446726 0.007847401082951105 0.09829437400328138 0.00774732617450195 0.09987627532431795 -0.2542643625846458 0.22500289642955948
2830625000.0 -0.2732718387517109 0.22611304986685754 0.010528324550363904 0.09784947997217107 0.010903553612888658 0.0994469529617124 -0.2542246925517668 0.22680190215140947
2831688000.0 -0.27240603831552535 0.22704740896545506 0.013020513799617356 0.09738632731057018 0.01395707821150567 0.09876960946950068 -0.25408584259327704 0.22878280953477115
2832750000.0 -0.27156923057864646 0.2281564703039598 0.015425741799922595 0.09697449878982245 0.016874909685747206 0.09810982721462436 -0.2545939252949957 0.2297593527879215
2833812000.0 -0.27086759578373054 0.2292762641918389 0.018080756166382668 0.0964883270048472 0.01956314471111018 0.09715086393421399 -0.25476047324083695 0.23035341107635693
2834875000.0 -0.26993116666469763 0.23020712427985995 0.020411272840930552 0.09591995209966202 0.0219936040190805 0.09607940292833018 -0.25406974793074943 0.23028966256334152
2835938000.0 -0.26914642273127815 0.2312570026572839 0.02307327311644404 0.09535636395743265 0.02430605328709679 0.09507198811180503 -0.2528493036868681 0.23017178087528053
2837000000.0 -0.26828919597423057 0.23238008776228636 0.02571833932195948 0.09469741383021106 0.026625174359950408 0.09391558544674457 -0.25158506914096906 0.23017781774483623
2838062000.0 -0.2673055250580211 0.23354619506858634 0.028261449656311607 0.09397640491894658 0.02886511178219038 0.09288648126904903 -0.24967106715979112 0.23000049385051916
2839125000.0 -0.2666804387604625 0.23459185824922257 0.030980012353474393 0.09294421632922202 0.030978134668416216 0.0918475110344414 -0.24735170823890457 0.2303330537470175
2840188000.0 -0.26570159971547036 0.23578850738872914 0.033622336860033714 0.09207770585931109 0.033402103746742705 0.09089201275334682 -0.2450780624288108 0.2306732573105945
2841250000.0 -0.2647371823624651 0.2368442400234961 0.03631815765940306 0.09087460171207673 0.03585911736046064 0.09002505056106662 -0.2428873667634846 0.23172758259773615
2842312000.0 -0.2638255617614352 0.23782053770890166 0.03908099576731934 0.08951195306295827 0.03836556146747102 0.08925136988632236 -0.24068627789244795 0.23266676823837718
2843375000.0 -0.26301468521241544 0.23905158361205045 0.04170907061876877 0.08812145585972174 0.04105758946182508 0.08818619068836744 -0.23886580063185278 0.23449000660029354
2844438000.0 -0.26219764230245973 0.24024919438642478 0.04430357890693471 0.08669500776770396 0.04374597012928836 0.08706672205342403 -0.23695025034930173 0.23573948123218302
2845500000.0 -0.2615288157404858 0.24126795109730062 0.046910968336690034 0.08514638442924861 0.046502167243101425 0.0857478311806347 -0.23508094989509382 0.23762436819887847
2846562000.0 -0.26070588532388517 0.24231778109464816 0.04922761071233021 0.0835896804888265 0.04909121452327661 0.08440290532886836 -0.23411767281410062 0.23911545264466313
2847625000.0 -0.2601318738804673 0.24324218398468497 0.05181093963048959 0.08185472574989208 0.051799587193776926 0.08262451793527656 -0.23231794701140146 0.2414051194230397
2848688000.0 -0.2593975235986441 0.2442463358986132 0.05406206735699034 0.08012848884365072 0.05435971278315059 0.08090129089148206 -0.2316231652111247 0.24356671044581715
2849750000.0 -0.25886820034230296 0.24524734743041218 0.05632610094977674 0.07835802860177674 0.05675958444641107 0.0789788391964134 -0.23164189468727364 0.24594387198586493
2850812000.0 -0.2582401835253312 0.24603607589363788 0.05829441921925 0.07661761917060773 0.058909139105730084 0.07686809498728951 -0.23083211703777726 0.24784076308696096
2851875000.0 -0.25726024779514545 0.24709192316959125 0.060458724785422975 0.07490756100885802 0.061088981388755875 0.07492349084941789 -0.23090623967942336 0.24958643054716237
2852938000.0 -0.2567237684115258 0.24799952473240336 0.06250073310982898 0.0730713268164883 0.06306092643243118 0.07287982265163791 -0.2311154791879243 0.25073004987596725
2854000000.0 -0.25598505391158854 0.24884839944674328 0.06443384222099918 0.0712233497470861 0.06493683991027806 0.07098572620389708 -0.23114071037527578 0.25176925962757185
2855062000.0 -0.2551971365517843 0.24963633121888515 0.06633457801663706 0.06946098533652703 0.06677798546540088 0.06904946339195081 -0.23130578480371738 0.25216398003811713
2856125000.0 -0.2544330497475922 0.25072311225897986 0.06819581334826402 0.06745975442905769 0.06857219038182834 0.0672395763868966 -0.23115103425129685 0.2519964240011806
2857188000.0 -0.253436816981266 0.2513784315633988 0.07012925923335413 0.0654938255019279 0.07041703598614399 0.06539951889563948 -0.2305453094436144 0.25168812460524576
2858250000.0 -0.25245902613000715 0.25221224823847 0.07192666663542222 0.06368683671591241 0.07210194001755903 0.06344838939155727 -0.22936895564385432 0.25130458257198235
2859312000.0 -0.2514323217600719 0.252972424111128 0.07369139237079628 0.06153614309868624 0.07386994196386514 0.061498731670012845 -0.22803961354323934 0.2507796802587284
2860375000.0 -0.25065933936123874 0.2538875464595372 0.07566274831056041 0.05944505290560215 0.0756766164918255 0.059483247965218165 -0.22616742108616547 0.25070373573604515
2861438000.0 -0.24970742109865054 0.25457845478052643 0.07727080558908958 0.05718492996374961 0.07741505824786728 0.057230984297187384 -0.2244494914490584 0.2505568557504635
2862500000.0 -0.24882558497823834 0.25533785126722147 0.07888829428231353 0.05500499187978441 0.07909633397726258 0.0549207760702713 -0.22243965776358396 0.2509082575187338
2863562000.0 -0.24796344851119256 0.25593924620343866 0.08052125055068794 0.052633890260824455 0.08073702470355276 0.052454038898753975 -0.22073928222711184 0.2514976389717493
2864625000.0 -0.24703861934655735 0.25672741110581426 0.08207190406778102 0.05027677574007522 0.08227650690199947 0.049937525892362014 -0.21901194161444046 0.2521401735568003
2865688000.0 -0.24609117180197917 0.25749021973141717 0.08347559486147305 0.04769020922640731 0.08367719937318238 0.04746489119070847 -0.21748772660837676 0.25303157992943187
2866750000.0 -0.24521484263042398 0.258286044970493 0.0846962460371396 0.04530838740743405 0.08489805640216043 0.04488395848953889 -0.2161386304678343 0.2543019798325407
2867812000.0 -0.2441135098635084 0.2588553630107542 0.08607414021466396 0.04265948545332864 0.08610790238653661 0.04245343574375716 -0.21500206614545075 0.25532093497624553
2868875000.0 -0.24310045522196336 0.2597097645817248 0.08704085016183512 0.03997290707550967 0.08707234581058391 0.03998522084409996 -0.21404622848930158 0.2565038843811783
2869938000.0 -0.24204788885505937 0.26041488356563935 0.0878986920189918 0.03749029612751955 0.08794846681636677 0.03749131457343213 -0.21352095445799085 0.25749772489825873
2871000000.0 -0.2410910863106578 0.26123122894968515 0.08881221968009533 0.03479706705017892 0.08884069854028169 0.034994952573154145 -0.21305200264172228 0.2583943274781748
2872062000.0 -0.24004800066300971 0.26192196415804175 0.08965431149580963 0.032151032645204004 0.08958353114123035 0.03244312690721342 -0.21299407242254395 0.2589985401276302
2873125000.0 -0.2389367414085925 0.2625525412503604 0.09032038567890201 0.02948764184932331 0.0904000102189303 0.029870170676600777 -0.21280631443937417 0.2593428392315793
2874188000.0 -0.23789525104048984 0.26330148329782954 0.09093224224296607 0.026916817179310434 0.09111590410666591 0.02717828255949486 -0.21273732758831065 0.2592199014521046
2875250000.0 -0.23692909247613878 0.263812754027967 0.09142405258792011 0.024096710722796733 0.09177247185674538 0.024441109071871327 -0.21236430262166248 0.258572023229176
2876312000.0 -0.2360344169990044 0.26451068064246175 0.09197912538053657 0.021548578010814293 0.09251111446199413 0.021609683718695594 -0.21190585954904914 0.25779570129460305
2877375000.0 -0.23490704252449116 0.2652412311987444 0.09244811940372655 0.018810023196740803 0.09293122456731608 0.018883417311454417 -0.2110792903196228 0.25686719579151934
2878438000.0 -0.2343098245181045 0.26562518248158346 0.09285262879826957 0.01625179580501355 0.09355806156508562 0.015962346150258516 -0.20991031494247858 0.25594375923843415
2879500000.0 -0.23337522615717202 0.2660961443625014 0.09334932688575813 0.01347572397405919 0.09381622993057392 0.013170217252718788 -0.20845902023993557 0.2550650596511122
2880562000.0 -0.23243288387767666 0.26653375126400036 0.09375219148088586 0.0106419556276443 0.094122732335903 0.010404843420738741 -0.2067265261819786 0.25459458780852606
2881625000.0 -0.23145654159714782 0.266924786113657 0.09400569617171978 0.007952621544432539 0.09427372358327218 0.007599676854871723 -0.2050026040472736 0.25445472885931164
2882688000.0 -0.2306057447460253 0.267327002976329 0.0942025217548827 0.005126083519363741 0.09436915400202328 0.004839240989733657 -0.2031799576979761 0.2544341003467657
2883750000.0 -0.229886091665163 0.26749812914923526 0.09433881681104729 0.0022222730684477573 0.0944350087721878 0.0020716955768185163 -0.2016993164899474 0.25465309248213575
2884812000.0 -0.22861795158847778 0.2675921590525121 0.09442972915694482 -0.0004813358612303868 0.09436226085562496 -0.0006689604583199635 -0.2001040986311668 0.25491557109197
2885875000.0 -0.22773861950383656 0.2677737645085421 0.09423450432306076 -0.0033231885664805195 0.09423756483947698 -0.0033689476874676186 -0.19864233889104913 0.25561232255830973
2886938000.0 -0.2268800649019061 0.2679596882538676 0.09418316450230906 -0.005980239021273479 0.09421195049683297 -0.006003894114121571 -0.19739222335859896 0.2564517536083794
2888000000.0 -0.22586563540237245 0.2682212390815325 0.09369590578410272 -0.008715277496567905 0.09400906965747582 -0.008793053935551109 -0.1963465677208757 0.25722532229780537
2889062000.0 -0.22496292073559357 0.2683087799846445 0.09347766861828742 -0.01144549987895476 0.09365775566868194 -0.01138870868910257 -0.19549974842017265 0.2582600347832826
2890125000.0 -0.22404698069974835 0.268724775448738 0.0929753178590289 -0.014027567085711089 0.0932080099083306 -0.014192745152836696 -0.1947216264739996 0.2592454145156378
2891188000.0 -0.22314781134733036 0.26882249610061476 0.09233592955449535 -0.01673921993853489 0.09271601957004925 -0.016788612357396218 -0.19426926375658882 0.2602053556305002
2892250000.0 -0.22225331149500832 0.26938872146044823 0.091657323512456 -0.01933603200711758 0.09199695240666181 -0.01946631786697332 -0.1939731031875491 0.26068770545094583
2893312000.0 -0.2214586104525143 0.269650374918603 0.09095798009476956 -0.021820246025990295 0.0911583905425589 -0.022062435323576015 -0.19393973315562074 0.26124926644405067
2894375000.0 -0.22048679369779847 0.27011089531288063 0.08993669029301171 -0.02430692388122971 0.09017097247363409 -0.0247676640943197 -0.19380212649961218 0.26123332464457444
2895438000.0 -0.2196658573214336 0.2703460950466913 0.0890259932277625 -0.02687625947190926 0.08910820782645702 -0.02727257561328293 -0.19358017249050188 0.2609903946347311
2896500000.0 -0.2188010773122625 0.27093358173980725 0.08802395734730446 -0.02936034592419664 0.08798511522764443 -0.029790415552829713 -0.1935345053537433 0.2603106560510847
2897562000.0 -0.21811011859351845 0.27136810103524384 0.08681772599925669 -0.03195345643710626 0.08683482319433065 -0.03224882110956034 -0.19250676414442736 0.25938423477625805
2898625000.0 -0.2172144547433528 0.27161770227620474 0.08576865423347337 -0.03458532510599498 0.08563455857289919 -0.034669571738056126 -0.19121194344773432 0.25891456590576156
2899688000.0 -0.21652989436211317 0.27197535917806737 0.08434670981104314 -0.03698235026578757 0.08448925417569125 -0.037100599976070424 -0.19008706926005622 0.258736152169625
2900750000.0 -0.2158410920966508 0.27245955259356874 0.08336915406114688 -0.03939013426105928 0.08330409075959773 -0.03950911402352234 -0.18825884482976737 0.25842535101817166
2901812000.0 -0.21506593385663264 0.27282493030567934 0.08194895074818477 -0.04195696365997808 0.08207948693923044 -0.04189156006466895 -0.18669852187509692 0.2589584053110253
2902875000.0 -0.21449289857758214 0.2734086661521446 0.08052226358794545 -0.044428647637057686 0.08079758628947518 -0.04429865500755038 -0.18517286388723675 0.25967992453022704
2903938000.0 -0.213874736780372 0.2742267963908375 0.07917210849364717 -0.04669104802439348 0.07941684804558594 -0.04672336963419573 -0.1837252848709072 0.2608552539223548
2905000000.0 -0.2134363086799639 0.2747375438319647 0.07764813962214828 -0.04907972887080826 0.07794588986512929 -0.049003001825658095 -0.18273105183975458 0.2622411963730339
2906062000.0 -0.21287260413253595 0.27538615384343584 0.07606239403348714 -0.05113218618017325 0.07639923825536196 -0.051357943086797926 -0.18175558818582999 0.2637941424974371
2907125000.0 -0.21239205515651002 0.27594137383397804 0.07450949187046808 -0.0533720379687011 0.0747987768153233 -0.053659590404651236 -0.18122650332305948 0.2657132222797314
2908188000.0 -0.21199472949913034 0.2767971533322303 0.0727327250147763 -0.05542424970944986 0.07302243685377112 -0.055762236639185905 -0.18071201102995946 0.2675090362344062
2909250000.0 -0.21160023909771755 0.27738784321732235 0.07099646278900931 -0.05758595161432933 0.07110919880497991 -0.05792101926058129 -0.1809055859753265 0.2695091333395837
2910312000.0 -0.21129160813571718 0.27810128527758 0.06914340316918166 -0.05942322048620211 0.06926910100761213 -0.059848613557322225 -0.18114365449461303 0.2712126866895934
2911375000.0 -0.2111225578706184 0.2789691000176265 0.06722483833955997 -0.06129179384394429 0.06726217962158205 -0.06167310731062548 -0.18160911651071268 0.27263770638593676
2912438000.0 -0.2108267021093958 0.2796325096875387 0.06540390125620564 -0.06312553546960825 0.06529063306119175 -0.06335511358166904 -0.1820650902437836 0.27408627163497584
2913500000.0 -0.21036469816620396 0.28024250266247047 0.06343150336347474 -0.06475627367386726 0.06326981174538768 -0.0649873872531712 -0.18239957343426974 0.2753135359694013
2914562000.0 -0.21011798799803855 0.2811846711415986 0.06134276204689052 -0.06641096734421659 0.061231346558612586 -0.06655121164802773 -0.18304415198407462 0.27632479270618027
2915625000.0 -0.21001506748487533 0.2817882881653992 0.05933798705087759 -0.06806820631565999 0.05923756488586718 -0.06801918594861071 -0.18348937347215302 0.2770092744226973
2916688000.0 -0.20975289649650894 0.28264977781814127 0.05661079258799418 -0.07622143391790953 0.05650221006322305 -0.0761779280177978 -0.6380834702752731 0.46363388880061535
2917750000.0 -0.20945341352110508 0.28364284868902906 0.05443142506029447 -0.07678277465373852 0.05441087895256284 -0.07680524071328769 -0.6188802974529605 0.41522917877365234
2918812000.0 -0.2091465523565601 0.28446246296031674 0.05224242959779463 -0.07749658881431602 0.05227494155324623 -0.07754478091364393 -0.5915356816352902 0.3707918103809057
2919875000.0 -0.20885225446083422 0.28560835613854735 0.05016502579252387 -0.07801953303096636 0.05022730197650322 -0.07838723716766269 -0.556185193154363 0.3320649956808904
2920938000.0 -0.20856640848628172 0.28674438480287323 0.0480587502831184 -0.07891835281564943 0.048060331341721385 -0.07921176282199936 -0.5136662394877642 0.3011312842298402
2922000000.0 -0.20829463935409237 0.28796426176529083 0.045773388194215246 -0.07965961192905396 0.045800430407422814 -0.07999849177754406 -0.46634829031799524 0.28031342879109145
2923062000.0 -0.20792106767169455 0.28914317105153015 0.04342392200930917 -0.08041137812369345 0.043419952257500685 -0.08078326223669245 -0.4157637782950164 0.26960967642128275
2924125000.0 -0.20762882267602942 0.2904520423507494 0.04108175111672993 -0.0809976756087312 0.04094580788643593 -0.0813082112467304 -0.3654275430545743 0.26965856904204494
2925188000.0 -0.20737166404254578 0.2919041166700921 0.03849317561483352 -0.08144440982511426 0.03834654707659632 -0.08176702035617195 -0.3176636046018677 0.27944526316648244
2926250000.0 -0.20715345862410944 0.2933202658224826 0.03646854483656656 -0.08116468195302486 0.036412018622208414 -0.08132882567509667 -0.17702186789323157 0.28690731295216204
2927312000.0 -0.20663969067975 0.29460657116100963 0.03422528904649456 -0.08212762376196299 0.03387342501198194 -0.0820750018109135 -0.17676582158872048 0.2889219086099561
2928375000.0 -0.20647077299906869 0.29614291781808627 0.03172713783327817 -0.08291438127827398 0.03145381646351594 -0.08275106355913378 -0.17669448140196792 0.29101425499511546
2929438000.0 -0.20610819557057228 0.29736846589296545 0.02926226744161277 -0.08348029153719122 0.029134185792469847 -0.0833730400181244 -0.17685091731339062 0.29283593785502615
2930500000.0 -0.2058814656609561 0.2988468406161395 0.026679412307796593 -0.0840207953135814 0.026737210383231694 -0.083775340123424 -0.17716950291526484 0.29450480713383603
2931562000.0 -0.20559137871053515 0.30052335855552825 0.02428176429852854 -0.08446209878045444 0.024445324960185578 -0.0843049867261585 -0.17744597535969156 0.29613607825358
2932625000.0 -0.2053143766474389 0.30206232080115575 0.021670906963018488 -0.08474366094585548 0.022129994756026512 -0.08471314971202852 -0.1776849092142242 0.29725685946364966
2933688000.0 -0.20515805322497072 0.30380792070221013 0.019222901540836394 -0.08497132597908608 0.01974790158558636 -0.08515917722852519 -0.17812118135680996 0.2982517632586523
2934750000.0 -0.20477216574495966 0.3054651880599192 0.016741205994905292 -0.08516493295918501 0.017308978583605757 -0.08560912038484321 -0.17815238289703494 0.2989221763943836
2935812000.0 -0.20415788045406771 0.3071251304999319 0.014417588971784159 -0.08514251452489018 0.014802086944821194 -0.08591491927241396 -0.17797848529363575 0.29942711463121563
2936875000.0 -0.2039926139800858 0.3089285018326374 0.01189290332392851 -0.08528357833856659 0.012223063787459423 -0.08610548352532052 -0.17766464454205613 0.30007117263144956
2937938000.0 -0.2033775404894932 0.31066904524179767 0.009592360506250936 -0.08534744181336094 0.009626002909675644 -0.0862533222973661 -0.1767921733528592 0.3003795889165646
2939000000.0 -0.20304837449492255 0.31226187073666334 0.0071647155975715195 -0.08559250460531656 0.006947288776326408 -0.08626425309523247 -0.17559490446204176 0.301161173014587
2940062000.0 -0.2023732677801894 0.314128295474618 0.004828849888740989 -0.08553647198204058 0.00419513413418763 -0.08623272946593898 -0.17417165962247885 0.30220315939828185
2941125000.0 -0.201975706415593 0.31588052392059085 0.00227551022897739 -0.08559150403385785 0.001542563738042902 -0.08602147157745477 -0.17240922762903987 0.3033323891701559
2942188000.0 -0.2014675674104902 0.3177981291091544 -0.00015300204147074642 -0.08556962904752698 -0.0010040618084483546 -0.08582572969099098 -0.17090439905370564 0.30518035095692414
2943250000.0 -0.20089931322826665 0.319596509846343 -0.002633828522926622 -0.08547321000706438 -0.003487033481543109 -0.08549963884251185 -0.16944582619467644 0.30729494773858335
2944312000.0 -0.2004676266848941 0.32129962005413565 -0.00509182889427849 -0.08537617998888848 -0.005930546474433019 -0.08519844726351175 -0.16835528289172277 0.3097130778720228
2945375000.0 -0.19971140476854302 0.3230307968293791 -0.007543928343967031 -0.08511500782244925 -0.008072929643965929 -0.08477183852908733 -0.16767263029655036 0.31199473737858946
2946438000.0 -0.1989323947631111 0.32496380167263916 -0.01008439215670649 -0.08490241029045777 -0.010304989448834477 -0.08441580052525986 -0.16706822132911414 0.3143681973927533
2947500000.0 -0.19827070116940088 0.32684672764526745 -0.012599008161522656 -0.0844205002055563 -0.012503618440789297 -0.0839899320707571 -0.16653299680392739 0.3164584764520506
2948562000.0 -0.1974114866741217 0.3287795328095474 -0.014866615440123816 -0.08401257906351184 -0.014457354113815645 -0.0835632715710458 -0.16654038476074368 0.31842515395710763
2949625000.0 -0.19657974484659133 0.33086064492657136 -0.017240368787585145 -0.08339738463959721 -0.016630700854075798 -0.08320118212462216 -0.16639029561523433 0.32006053900914816
2950688000.0 -0.19571827947728077 0.3327140669298065 -0.01942671405702686 -0.08270248991615256 -0.018858112463218113 -0.08257346190185298 -0.16619329549338732 0.3214249478346232
2951750000.0 -0.19491053934095898 0.3345342849921912 -0.02158447840643471 -0.08181834802287703 -0.020940392173101268 -0.08203945495601553 -0.16596638377013417 0.32239360391974714
2952812000.0 -0.1939113397825422 0.3364542334716083 -0.023612417692137188 -0.08088590122298255 -0.023271847597752436 -0.08126809025415664 -0.16569257455912162 0.32327006312372764
2953875000.0 -0.19296876131435817 0.33833987688192546 -0.02564789896065744 -0.07979256025992418 -0.025413638047176737 -0.08035458012882055 -0.1651938619796979 0.3238552654343246
2954938000.0 -0.19182602093728918 0.34031345997002094 -0.027654598270520293 -0.07866309590662458 -0.027627018036766086 -0.0794740115216771 -0.16447406276193857 0.32399532235680634
2956000000.0 -0.19091085926281293 0.34194366482942606 -0.02961430758961889 -0.07750913896376681 -0.029956082631797862 -0.07834828839442766 -0.1633164756451544 0.323916759684435
2957062000.0 -0.18987046230633808 0.343867717133838 -0.03159400669517334 -0.07635576610690052 -0.032113700252626894 -0.07717723695746574 -0.16170455084085308 0.3237484697968266
2958125000.0 -0.1888314857553545 0.34558922152311927 -0.03350644018980721 -0.07512826453075781 -0.034092940446327116 -0.07572288732317013 -0.15963056564694605 0.3239255590516572
2959188000.0 -0.18773866243509524 0.347350456697336 -0.0354702913963137 -0.07394783978173483 -0.03614831109176803 -0.07434757859693923 -0.15684918201676462 0.3241271868580099
2960250000.0 -0.1865445586441691 0.3489274590990031 -0.03741726334857123 -0.07275524151711156 -0.03816820645450399 -0.07282257883016836 -0.15395571945828965 0.32458946382351067
2961312000.0 -0.1854191859725375 0.35073755514825816 -0.03935864123930589 -0.07147050511580068 -0.0399630323258117 -0.07142684166024735 -0.15070953618790858 0.3254982455740475
2962375000.0 -0.18401338546880125 0.35230180999317096 -0.04127841117694959 -0.07020230190569461 -0.04173845475936392 -0.06999768792826475 -0.14731132922244433 0.3273118579961995
2963438000.0 -0.18253753289907515 0.3540814857893375 -0.043189483643756604 -0.06897066159658677 -0.043482193105086636 -0.06850148066700887 -0.14460348728553662 0.32985576486112594
2964500000.0 -0.1812225658739473 0.355709762022178 -0.04506267937019613 -0.06754200098548424 -0.04523857516598933 -0.06710951946115888 -0.14166267818735429 0.3324017038770883
2965562000.0 -0.17959901579257784 0.35756399991542587 -0.046938047844791914 -0.0661457507916427 -0.04702134199534767 -0.06567001710283424 -0.13972865771298845 0.33533875316794276
2966625000.0 -0.17804885984118715 0.3593725704687975 -0.04868053220320721 -0.06465974978145753 -0.048788297977224684 -0.06430993879701087 -0.13795871301105242 0.3386209863981902
2967688000.0 -0.17645280817275893 0.3610743399409978 -0.05045079027620747 -0.06321390272338877 -0.05028468737431156 -0.06299039619734537 -0.1371210776365502 0.34194517881394076
2968750000.0 -0.17466670447880597 0.3629543625691143 -0.05211151758398123 -0.06169101807048642 -0.05199128277307989 -0.06167361386429707 -0.13667498922039395 0.34477125628557265
2969812000.0 -0.17273197038775345 0.36465177857269626 -0.05378155714570333 -0.060100011190639346 -0.053660173598185805 -0.06020439010932793 -0.1362388532531736 0.34718110575233957
2970875000.0 -0.17101221084808532 0.3663311416192505 -0.05531791162364708 -0.05851333190564669 -0.055272389413207446 -0.05868763801104169 -0.1358547533811894 0.34856494798456295
2971938000.0 -0.1689541425756075 0.367929470688984 -0.05687713636242642 -0.05686516351911555 -0.056869589730221555 -0.05713509238669303 -0.13575259701072914 0.3506226155291825
2973000000.0 -0.16701535005214055 0.36957259564411904 -0.058307135683872933 -0.055237313639037576 -0.05834764210071059 -0.05555421904813833 -0.1350308525500628 0.3514774261951019
2974062000.0 -0.16501503733116493 0.3713234819509568 -0.05960897389743509 -0.05351751883133641 -0.059740396016471256 -0.05367376006026512 -0.13440912498822385 0.35224828861142704
2975125000.0 -0.16292170172165193 0.3730000981580384 -0.06088921470022443 -0.05175560729859371 -0.06103533416035647 -0.05190296375791935 -0.1329829082777508 0.35274813654443476
2976188000.0 -0.160729988245977 0.37452820012708843 -0.062079133854704475 -0.04993584022860486 -0.06223517874025446 -0.050078405498663915 -0.13162980163227644 0.3531545627829511
2977250000.0 -0.15856811122035466 0.376047664314307 -0.06318046983570914 -0.048144498447601554 -0.06354024672553826 -0.04811408589697548 -0.1297986932317406 0.3531163135825342
2978312000.0 -0.1563649408097138 0.37769930865994306 -0.06429860815137903 -0.04633499932039153 -0.06461615526487113 -0.046314217438555245 -0.1276381774543167 0.35294792941272723
2979375000.0 -0.1540463489358589 0.37908053012981 -0.065351376288518 -0.04444448516965803 -0.06566330853618309 -0.04446969850510916 -0.12487014999573214 0.35318040359347835
2980438000.0 -0.15176649478271514 0.3806153226210647 -0.06632662314547348 -0.04261033493510241 -0.0666079775206827 -0.042531877501234765 -0.12173795467891149 0.35301293508923987
2981500000.0 -0.14936283311460838 0.3818647845347601 -0.06738418670771783 -0.04073322769751822 -0.06755935759757893 -0.040734581367435074 -0.11847675407429643 0.3536725228182456
2982562000.0 -0.14714980239903436 0.38341368707835777 -0.06831615885997303 -0.03889128517037569 -0.06849461578255478 -0.03891095495718105 -0.1151718980179359 0.35456956551301183
2983625000.0 -0.1446142358207093 0.384730838189245 -0.06917637722473008 -0.037001873739112165 -0.06936306994783747 -0.03691430134442909 -0.111524746496668 0.35586708243677184
2984688000.0 -0.14232623750019377 0.38603418307538206 -0.07006379169972071 -0.03503716501059534 -0.07019885958439849 -0.03499034367780934 -0.10835485081027457 0.35779566536028323
2985750000.0 -0.13983683049485615 0.3875373654336685 -0.07087211521147022 -0.03311298422918795 -0.07092115224874629 -0.033064766318634684 -0.10544282328369232 0.36036538366638793
2986812000.0 -0.13742242120943218 0.38869330542307257 -0.07157899818395362 -0.03114654387767994 -0.07171001186220355 -0.03108055904778474 -0.10307140812537989 0.3625949043258618
2987875000.0 -0.13503712839739715 0.3900153409805434 -0.07228001679982747 -0.029191093536922497 -0.0723060301222357 -0.029057544812272698 -0.10147175438549502 0.3649174836429878
2988938000.0 -0.13258341705728655 0.39113677182883105 -0.07285971798228968 -0.027169775362036453 -0.0729358602726387 -0.026989741973014698 -0.10022541191918448 0.36689425210688387
2990000000.0 -0.13025480108348497 0.3922360050863769 -0.07345045837394862 -0.025048834971453934 -0.07354477469970783 -0.02505748422617164 -0.09903281627054122 0.3688319867315152
2991062000.0 -0.12783908278248862 0.3932620399563439 -0.07396346241154457 -0.023012874054824103 -0.07403708642058367 -0.02298929792805309 -0.09816354923236115 0.36994209648120546
2992125000.0 -0.12535250936926026 0.39442855398056437 -0.0743970231857658 -0.020944518840857823 -0.07451011109009709 -0.02098869856979955 -0.09725640271885042 0.3706179504020788
2993188000.0 -0.12260995116540134 0.3952152188642029 -0.074836175343471 -0.018906895297231517 -0.07497475992238874 -0.01891933871778885 -0.09631859328428076 0.3709048007892272
2994250000.0 -0.12009903312238956 0.3962359336312958 -0.07521351707233731 -0.016849966731229408 -0.07533732369025287 -0.016946831653864916 -0.09482884438066663 0.3707890431421227
2995312000.0 -0.11763358430134604 0.3972841715269145 -0.07557561380724959 -0.014797173916701009 -0.07572319903323671 -0.014882697351873416 -0.09317917181166248 0.3703489982422719
2996375000.0 -0.11467665745306263 0.39814781765125734 -0.07579638165091077 -0.012780132193132895 -0.07603201152856404 -0.01280545096155609 -0.09110089687759923 0.36981562202440843
2997438000.0 -0.11209049003251738 0.3989240107081997 -0.07604892537548658 -0.010767307076178836 -0.07631261331184334 -0.010735023341985447 -0.08863762967172337 0.36929412547764245
2998500000.0 -0.10943140413204809 0.3997889890318896 -0.07619281727213402 -0.008709638585933842 -0.07644566611701709 -0.008611424243023335 -0.08597181070756901 0.36881068391902994
2999562000.0 -0.10655255553646568 0.4007211131647117 -0.07640559209480395 -0.006685743871574641 -0.07661908655238138 -0.006409900262346284 -0.08300377060928275 0.36837233880078313
3000625000.0 -0.10380555975523431 0.40158768767237857 -0.07664296719014158 -0.004623067711979639 -0.07680799823312101 -0.004201101008573427 -0.07956873423845169 0.3681644768680198
3001688000.0 -0.10095076986872871 0.4023239620814491 -0.07666705315647455 -0.0025809144583747437 -0.07681319162080522 -0.0021290566212297736 -0.0761904471748065 0.3685692942543575
3002750000.0 -0.09835626691602087 0.4032483595127532 -0.07673139082384199 -0.0005343149157041479 -0.07674818396130385 -0.0001121822509946698 -0.07262629688049951 0.36907961669702577
3003812000.0 -0.09538734352487534 0.40371983040830683 -0.07675638698060783 0.0015228189178229062 -0.07662174073660628 0.0018664312332765459 -0.06920233601905852 0.3701494213875073
3004875000.0 -0.09276085742764846 0.40448775288916927 -0.07666990057325693 0.003574806467119266 -0.07648640899192038 0.0037935072082479837 -0.0661983913281239 0.37138530277555365
3005938000.0 -0.08974410238600475 0.40546022071998716 -0.0765435318406435 0.005627983368152091 -0.07632397286766734 0.005710787206546887 -0.06344033841893432 0.37291104892159715
3007000000.0 -0.08725180376984362 0.40631260304759825 -0.07628696097639076 0.007621571087935508 -0.07621180477570383 0.007582208174132205 -0.061163132716357184 0.37436513667148796
3008062000.0 -0.08422693315308707 0.40682247605087773 -0.07599917575546782 0.009666048552607148 -0.07595320274087633 0.009441042830882004 -0.059234593336575714 0.3758206075339558
3009125000.0 -0.082005957803162 0.40759914941384184 -0.07555661549862472 0.01156934795872697 -0.07573666528958788 0.011376988758819371 -0.057805981283408 0.37683463068425554
3010188000.0 -0.07912917774216938 0.4082203573869045 -0.07513095036411574 0.013556928412745393 -0.07549971896378466 0.01331490892673505 -0.05662933475332576 0.37776941834388594
3011250000.0 -0.07667921131904817 0.4090711358920246 -0.07463155403990385 0.015444432598127554 -0.07512801726186234 0.015307253337873923 -0.05562802516112327 0.3777294731350965
3012312000.0 -0.07428569071203651 0.40963371963211187 -0.07406390884356513 0.017344341177423 -0.07471967762086766 0.017290359281882623 -0.05474401564138329 0.37746312226486023
3013375000.0 -0.07154779166165692 0.41052848652086643 -0.07344037574184649 0.019217765568055704 -0.0742540247787808 0.01936677979708637 -0.053361399641786614 0.37651454938321843
3014438000.0 -0.06894891056664959 0.41119052554803787 -0.07287908833167826 0.021103652599764152 -0.07357231068098392 0.02161968065503397 -0.05156837597374001 0.37550413383133313
3015500000.0 -0.066652837193868 0.41206431612543093 -0.07231096432426859 0.0230130425010416 -0.07287161685399608 0.023586601909964797 -0.049505700195616995 0.3743182800978573
3016562000.0 -0.06399551605257828 0.41282049634751106 -0.07168589485732355 0.02487199678646095 -0.07201332209699067 0.025673900827499374 -0.04741205357978483 0.37306983737275556
3017625000.0 -0.06162634359109524 0.41346996230411603 -0.07101618806668365 0.026866893262435895 -0.07116756625018009 0.02774502201085856 -0.04457371761792894 0.37202367056005364
3018688000.0 -0.059348659379248776 0.41400519905217487 -0.0703230551185717 0.028783617172446565 -0.07015096493799007 0.0296148994126762 -0.04146093029765504 0.3709762056570811
3019750000.0 -0.0568804706284918 0.41448793695321395 -0.06958049793007469 0.030760228052231255 -0.0692730655928971 0.031549974206660544 -0.03829457536170389 0.3706227737551257
3020812000.0 -0.0545577883430875 0.4150367642929291 -0.06881059588416724 0.03278377547677573 -0.06832578827240277 0.03331856805762034 -0.034751283585936675 0.3709049268254295
3021875000.0 -0.05207807881590295 0.41525340486335033 -0.06793203570768305 0.03485982297297407 -0.0674201749525398 0.03511138914547235 -0.031426087615254186 0.37147830393297854
3022938000.0 -0.04992444381223201 0.4155886108429591 -0.06694633100983972 0.03686195917345036 -0.06647323038311967 0.03695865104981259 -0.02789625070893152 0.3722910136751129
3024000000.0 -0.04750958366754022 0.4160910553148594 -0.06595711757242959 0.03882445545074736 -0.0655392509778746 0.038616882444808875 -0.02498470357685438 0.3736014285662487
3025062000.0 -0.0449835025617363 0.41604781499260807 -0.06482848565275505 0.04083272650691777 -0.06456476198681611 0.04055087440565368 -0.02220410773470927 0.3757598267122038
3026125000.0 -0.042843177145102614 0.41638992912424 -0.06359526288972513 0.04265387738596123 -0.06359801480083681 0.042313316111548815 -0.020088509002150274 0.3773569100088612
3027188000.0 -0.04057354603957179 0.4164870427261189 -0.06236412204889727 0.04451375232707353 -0.06249465457922488 0.04419171752362287 -0.01804636093912901 0.37969394754783176
3028250000.0 -0.03837842561158932 0.41638863386390584 -0.06104683045761641 0.04618634326016447 -0.06134475397878314 0.04598262066459512 -0.017257257481595005 0.3816511249145767
3029312000.0 -0.03605182173851527 0.4167660510503711 -0.05955250542567784 0.04783687960878368 -0.06010227713489087 0.047764092198059487 -0.01616540983746228 0.38300221980999966
3030375000.0 -0.03393305479675023 0.4168083453884446 -0.058126656395346775 0.04939698217301425 -0.058554741595931374 0.04953918651806906 -0.01577523219496016 0.3839784539530625
3031438000.0 -0.031801480956528225 0.4169045850838866 -0.056541182166871734 0.05080430146859569 -0.05700767626809229 0.05125306126021889 -0.015917065585097687 0.3845443677637495
3032500000.0 -0.029599503654135027 0.4171162080165521 -0.054920446538127644 0.0522596988967743 -0.05533889822551247 0.052770587730163215 -0.015316500750015033 0.38417060596962016
3033562000.0 -0.027593509742425047 0.4170515178853733 -0.053286122211444145 0.05365070479396144 -0.05350694631577224 0.05429112483305044 -0.014897935158327477 0.3835303453956199
3034625000.0 -0.02545875737973216 0.417311108293943 -0.051590969723718225 0.05494830388919424 -0.05168186247461751 0.05561200291302376 -0.013767947907964847 0.38210547637778347
3035688000.0 -0.023189786169757278 0.4172836790646004 -0.049969030739186945 0.05630026012157547 -0.0498106934449067 0.056870966605676386 -0.012304894723829935 0.38059362288986864
3036750000.0 -0.0215513449058744 0.4173393862092463 -0.04820624808315909 0.05751350165351187 -0.04801804748041994 0.05804590220240805 -0.01015064386120123 0.3789555826933564
3037812000.0 -0.019572349500507954 0.41754117825530257 -0.04650837848490549 0.05878884193316888 -0.04615935182092462 0.05921494141629635 -0.007564758903896037 0.3774805624308287
3038875000.0 -0.017939743803797637 0.41755704368274804 -0.04474236007445902 0.059997452099217384 -0.04439732662866073 0.06025654235239052 -0.0041553631585817185 0.3764172529112859
3039938000.0 -0.015792297460656857 0.41758863368087734 -0.043044267663553626 0.06120193695227043 -0.042770150784668164 0.06124968023416852 -0.0010030167797493242 0.3757821670870258
3041000000.0 -0.014155795263282893 0.4178910818564557 -0.0413362800822322 0.062313150121761564 -0.04108930467871529 0.062333979400864305 0.002469395065881234 0.37546894753744015
3042062000.0 -0.012293607517082743 0.4180500228760916 -0.039547707047937294 0.06346636201665917 -0.03940784638450086 0.06353097208971524 0.005847655544686225 0.3757152597189672
3043125000.0 -0.010422474135415796 0.41805794448523836 -0.037809274706425845 0.06460455991869156 -0.03773831700386379 0.06455870022746196 0.009071548818274643 0.3766867346216914
3044188000.0 -0.008808850055868038 0.41840229418095687 -0.035998128193014414 0.06566534882426912 -0.036006989425952936 0.06582229302999021 0.012076889332746183 0.3781257317109936
3045250000.0 -0.007030392326257806 0.4186888866979975 -0.03418048125601138 0.06667160984303842 -0.034223553119807425 0.0667592237311296 0.014715108049962993 0.37941080416916967
3046312000.0 -0.005292077895051971 0.41887409260661007 -0.03233707127699343 0.06762789462293882 -0.0323941449735706 0.06789922375429795 0.01676262769822689 0.38117544034921125
3047375000.0 -0.0035733828605045512 0.4190755742302579 -0.030381364112185828 0.0685319015518123 -0.03041374467763016 0.0688298685289316 0.01823295814800872 0.3828849222790796
3048438000.0 -0.001847683805731207 0.41902703008657133 -0.028446883523277757 0.06936431219902427 -0.02840918387734785 0.06970510633426132 0.019330243917342522 0.3842022354150276
3049500000.0 -6.872718805707383e-05 0.41921438357295887 -0.02639647266542956 0.07018688944281866 -0.026296934871508134 0.0704119936098662 0.020170325767097427 0.3851391859858032
3050562000.0 0.001520849157787745 0.41956631798069427 -0.024336686266201047 0.07084172307941435 -0.024125460562974904 0.07103338598294766 0.020729411663961667 0.3859243000967445
3051625000.0 0.003390449930305698 0.4195916883545366 -0.022259016677191917 0.07141804100756062 -0.022015832679060616 0.07156081700982343 0.021072784470442862 0.38623414262415046
3052688000.0 0.005037806912107869 0.41974985465938114 -0.020116200726235066 0.07192667299554421 -0.020010804734987862 0.07187865547293963 0.021460265549034643 0.3859112024085973
3053750000.0 0.006676813569633754 0.41967292060476885 -0.017933680832451254 0.07233189256709693 -0.017889550228889915 0.07221499866316229 0.02226947184354915 0.38495343374993074
3054812000.0 0.008395384027410076 0.4197454043086996 -0.01584040331681436 0.0726081591934489 -0.015817142536420435 0.0724702572472838 0.023165330013595335 0.38381665888622557
3055875000.0 0.010468201183619139 0.4199740258627212 -0.013691254592771112 0.07283791212468106 -0.013769508108743403 0.07281242716137011 0.024507845978485848 0.38243277166894535
3056938000.0 0.012056512675927429 0.4199835200321217 -0.011566296837172335 0.07299483418660921 -0.01174481530255957 0.0730386976858164 0.02636592581047528 0.38127706523557797
3058000000.0 0.014104594461117977 0.4201960203613596 -0.00947423703161117 0.07311587913855071 -0.009647004431511938 0.0733565973347138 0.028831987952868413 0.3798456505104213
3059062000.0 0.015860990225017038 0.4203458411108499 -0.007429415133076853 0.07318886933118393 -0.007637403357168045 0.07353369100781848 0.03120883587309363 0.37885655824736425
3060125000.0 0.01760526985643346 0.4204029130071003 -0.005372063129868866 0.07320558634218174 -0.005548474863244307 0.07370327802116153 0.03397434058745667 0.3782515610018855
3061188000.0 0.01957757824552763 0.4206062240782857 -0.003313278945146102 0.07328742801586596 -0.0033709483970876955 0.07386488677622821 0.03723041261537139 0.3780863106242178
3062250000.0 0.02174103083559259 0.42074787092079247 -0.0012890419499574767 0.07330543608831697 -0.0012153327278027202 0.07389145627647901 0.03998596989560299 0.37812757583275086
3063312000.0 0.023626305174793683 0.42088991929236613 0.0006977412340145372 0.07334398625061878 0.000937332436721345 0.07389296291866111 0.04266272086070253 0.37876361471539494
3064375000.0 0.025422764391247996 0.4210142052044344 0.0026781509459168776 0.0733100753714379 0.0030758048797417787 0.07381326555592725 0.04495181715083334 0.37947943843811105
3065438000.0 0.02757699688440487 0.4212353443064891 0.0046410938090142816 0.07322957137870821 0.00525278949346268 0.07358771701684322 0.0471901593686859 0.3806626672708641
3066500000.0 0.029253058044147528 0.42119704689084614 0.006639694609637284 0.07311498502886311 0.007248997453855074 0.07328359184297145 0.04905131371430012 0.38172026285819405
3067562000.0 0.03127145328386885 0.421294132756501 0.00865069442347934 0.07292081335569861 0.00921036462567248 0.07284824827973772 0.05022474893669351 0.3826473460136843
3068625000.0 0.033155100198383185 0.421196007221626 0.010638216895518783 0.07257946076230001 0.011191843015865751 0.07242882780026626 0.05096817396414677 0.38346678382133764
3069688000.0 0.03516796969203261 0.42142554735879006 0.012717954713173477 0.07219233748936363 0.013172800102213873 0.07207146339334228 0.05176269928620156 0.38379533974486135
3070750000.0 0.037209296543146274 0.4212518860132679 0.014739722244014179 0.07170440214770243 0.01497708497337931 0.0714224370361464 0.052282055026015496 0.38355789977541466
3071812000.0 0.039394974075136896 0.42114707423899866 0.016749181644718402 0.07110245181457453 0.016833746804529533 0.07091973073048982 0.05251377738323844 0.38272196012229737
3072875000.0 0.041402230462606944 0.42113827911225177 0.018757655385979538 0.07037689301070879 0.018699999031184314 0.07026733351462544 0.05348457463353142 0.38177681515764667
3073938000.0 0.043508033294631605 0.42130611359837744 0.02077038908433091 0.0696257473101255 0.020602462250410656 0.0696440713802163 0.05492128399812572 0.38050152958965994
3075000000.0 0.045548801782097074 0.4213207527786427 0.022576147713927377 0.06873075491718243 0.022402588213670915 0.0688792926815944 0.056587236095356964 0.3791236727105172
3076062000.0 0.04765810013944885 0.4212098466848477 0.02445326322561789 0.06780314913594213 0.02438535784129157 0.06814699818440077 0.05870116349957128 0.377674450882647
3077125000.0 0.04999178522457374 0.42110537332128783 0.026225700660195788 0.06689981614939636 0.026203338714736964 0.06728747362450267 0.061712473310993915 0.3769438896902508
3078188000.0 0.0520824161479137 0.42114258724539533 0.027917513485405856 0.06591075018573381 0.028012710766587443 0.0662801755521118 0.06445658460429055 0.376183730577767
3079250000.0 0.05449266144677162 0.42104103540987364 0.02965412848925393 0.06492059517211603 0.029940063560628553 0.06537472768653549 0.06783291289799483 0.3758594027165187
3080312000.0 0.05681907472094395 0.4207806055472322 0.031248036180285408 0.06392836677129297 0.03168338902085146 0.06427152582055284 0.07095417213079837 0.3764750084819327
3081375000.0 0.059171958744074396 0.4204273089134486 0.03296994262802934 0.0629130884500661 0.03341827692670224 0.06319820283989211 0.07423497597496584 0.37740817872309423
3082438000.0 0.06143756566990697 0.42023947701411546 0.03457648564175238 0.06186775740705372 0.035035582076097756 0.0619739256610623 0.07722972222871342 0.3784345064718687
3083500000.0 0.0637643022571559 0.4201026463528506 0.0362165918175084 0.06090460372105649 0.03675786327079109 0.06083370274975008 0.07974027195661472 0.37987832966957935
3084562000.0 0.06629061767703318 0.4198753134366101 0.03779530190314074 0.05977712939777521 0.038182810078923185 0.05965504558131172 0.08223228894263201 0.38134477153849583
3085625000.0 0.06861224396390093 0.4196813960597314 0.03939370396195498 0.05871687826940469 0.03976594649799866 0.05855477912974958 0.08402601034304233 0.3829299698806393
3086688000.0 0.07092770332746741 0.41970219329488334 0.0409334882496279 0.05757527012033925 0.04116429482293133 0.05743709946647909 0.08578291585288995 0.3846051519335784
3087750000.0 0.07348981600660005 0.41953906899119797 0.04249356364047847 0.056421416416116865 0.042626116903900974 0.056251958667671034 0.08704087907517317 0.38597106649648594
3088812000.0 0.07589683200171746 0.4195524334616351 0.04393899025090507 0.05517471469978928 0.044023259652191706 0.055136353531746694 0.08811126140169626 0.386856151943717
3089875000.0 0.07832796344615289 0.41957058147806975 0.045278724887275405 0.053821341545460956 0.045375761491421036 0.05387419405494173 0.08859544362217806 0.38763139934280855
3090938000.0 0.0808060527223722 0.419545880217403 0.04667002464815376 0.05253763110314107 0.04678222695775662 0.05262466359870666 0.08938496103302832 0.3876677873634013
3092000000.0 0.0832972318832558 0.4197733002426943 0.04791619664943722 0.05109848111986927 0.048097315612962786 0.05120373006754895 0.09028947504875995 0.3872110189290526
3093062000.0 0.08580816497357334 0.4198638512984712 0.049151531130965306 0.04965302825724878 0.04937509527505084 0.049706519706646426 0.09097561793628312 0.38618025687010793
3094125000.0 0.08824094221863248 0.4200620872313525 0.05033044321026282 0.04814774842316604 0.050617623147810036 0.04821150377563529 0.09239133467430928 0.3850187418271083
3095188000.0 0.09069605539785645 0.420437987937941 0.05143131967375554 0.04667420881891257 0.05174272792596987 0.04665856087435559 0.0946831704438483 0.38328216222079414
3096250000.0 0.09351247833040909 0.4206522194024676 0.052476709999581074 0.045098633195309636 0.05284448383946414 0.04505118900198747 0.09717361452026257 0.38196793401067064
3097312000.0 0.09563577749567427 0.4209849954663583 0.05345327410681523 0.04362407177549793 0.053804205993216725 0.04356389365643588 0.10031641949734135 0.3806723576557491
3098375000.0 0.09790361192925587 0.4216336192929666 0.05444419059589009 0.042055214108738484 0.05470818671656635 0.04204150920998768 0.10375078608210381 0.3798809962408923
3099438000.0 0.10055481814817366 0.42159302507832835 0.055314106963926774 0.040558201894812955 0.055625644570452784 0.0404455209531007 0.10731579170155776 0.37970449954131363
3100500000.0 0.10291047568804769 0.4220069269741334 0.05622926512360877 0.03903169672265194 0.05643765859615535 0.03889265115768179 0.11111128838142631 0.38026318160578443
3101562000.0 0.1056718362618491 0.42224968439896116 0.0571213938329602 0.03749447352735089 0.05721680227473061 0.037457148026250026 0.11445541301126834 0.3808674800568455
3102625000.0 0.10790212663520708 0.42220123317505165 0.057960815258237736 0.03592987974604097 0.05803438985883364 0.035822676749484965 0.11775051938488591 0.38224868823336106
3103688000.0 0.11041793270063527 0.422479277035068 0.05873387288810062 0.034371232080346086 0.0588446142683363 0.03432070237109231 0.12018389257369805 0.38368557069618564
3104750000.0 0.11294143501955872 0.42239671552594965 0.05953746610107002 0.03275296152969433 0.0597150804821379 0.03279059370204841 0.12227787051724891 0.3848937695424076
3105812000.0 0.11588498053091566 0.42253418303207557 0.06033033044953451 0.031104338283447424 0.06043677487463779 0.03115143418463029 0.12442416894131143 0.38612184088075285
3106875000.0 0.11837138928157237 0.4224441015191747 0.06107094205022616 0.029469002661845614 0.06130166133517858 0.029495012979032585 0.1257861695386402 0.38750418526208064
3107938000.0 0.12099719761981657 0.42215054088967685 0.06175033326558853 0.02775377194774369 0.06200290790655598 0.02776401986421313 0.12642919518952347 0.3880199531415026
3109000000.0 0.12384722046240533 0.4218316670459313 0.06245374470825482 0.02603718677697389 0.06274880977192725 0.026025619451216047 0.1276214258076215 0.3881464502593445
3110062000.0 0.12679861536028988 0.4216917527231257 0.06301401160275168 0.024254992679318677 0.06330166830530722 0.024106071910455967 0.12852214777457704 0.3877727794929285
3111125000.0 0.12932634227265485 0.42145402735112564 0.06354927484799096 0.02247709498364472 0.06376734486077845 0.022188154017236325 0.1296510592206948 0.3868611067621512
3112188000.0 0.13206250607695952 0.42116232524634634 0.06402390314592094 0.02067258867814085 0.06413892858970303 0.020440979999596123 0.13097815375435548 0.3859489779942767
3113250000.0 0.13500494395416135 0.42123268859530666 0.06450307271431487 0.018841425899665875 0.06453373812017016 0.018712408348198196 0.13266119812850388 0.38453943874594243
3114312000.0 0.1380951415436691 0.4209099097286669 0.06483230196338126 0.01703518812148678 0.06480217268175589 0.016913500720076035 0.13467817908448765 0.382853957696326
3115375000.0 0.1408411596213257 0.42059815818639873 0.06514334047148078 0.015241291385219433 0.0649959898847381 0.01513482509913941 0.1371910777629746 0.3811168169092742
3116438000.0 0.1437731436613685 0.4207318995679203 0.06533345080141767 0.013482321559213075 0.06528049995878943 0.013540561537529246 0.14030402222827185 0.37961484639626963
3117500000.0 0.1468421803902526 0.420450949393518 0.06549818790735036 0.011726624083250314 0.06550363788834157 0.011956697208825235 0.14388700847023614 0.37818604056031896
3118562000.0 0.14954638065042625 0.4205489459063835 0.06567267510272047 0.010027743028025997 0.06582012188845622 0.010233561022256536 0.14770212976558592 0.3774459726388232
3119625000.0 0.15256133876364375 0.4205286033890084 0.06572780764966385 0.008356433922657475 0.06604836015241984 0.008619714991990716 0.1519426331957093 0.37709323116136634
3120688000.0 0.15547209153483046 0.42025716833171095 0.06582133787471511 0.006732695468347193 0.06625783123511508 0.0069206471309658695 0.1559767382527428 0.3771399371694974
3121750000.0 0.15847008670874743 0.42005760878487086 0.06594732021694423 0.005167881796618389 0.06648855070693648 0.005224497966593474 0.1592393916960669 0.377657029184468
3122812000.0 0.1613696772953878 0.4200013456950765 0.06600576078274403 0.003552730505758593 0.06669027925395903 0.003466402441466343 0.16263264448117049 0.3784529479813569
3123875000.0 0.16419622332616576 0.41995340048103613 0.06607743270233674 0.002038375833318662 0.06673719620756514 0.0016441298040900847 0.16530015975076964 0.37955321859388463
3124938000.0 0.1673680759076556 0.41972888442311956 0.06609251318790692 0.0004213409513795503 0.06670095511970164 1.777879560299231e-05 0.1675277803218293 0.3802748185246967
3126000000.0 0.17006982098329107 0.4196231580882262 0.06605233214903497 -0.0011590875261145112 0.06649897756724492 -0.0017931369023260475 0.16921650431529994 0.3807729120255709
3127062000.0 0.1729849434555341 0.419563611490702 0.06603524137585161 -0.0028347455689760265 0.06624978242711689 -0.0034656440534369193 0.17055844191905825 0.38097686497119415
3128125000.0 0.17589718829207335 0.4194791075519869 0.06593312114902472 -0.004527826321463598 0.06591882251223466 -0.005232551175510919 0.1716463106943248 0.38069562106910654
3129188000.0 0.17896616693521258 0.41912177306263876 0.0658206827257087 -0.006312586322249398 0.0655090513195183 -0.006842891718977673 0.17269945703046924 0.3799458533096534
3130250000.0 0.18157298118244955 0.4188916376945922 0.06562343249872815 -0.008065247296245888 0.06522496119678234 -0.008555430617392897 0.1737388362291745 0.3787571776771155
3131312000.0 0.18448839843577616 0.4183984846785342 0.06537815823466621 -0.009878566183294232 0.0647966941032824 -0.010099891879118857 0.17517030601642214 0.3772252598324427
3132375000.0 0.1869430382337601 0.4178196982398882 0.06500669845696833 -0.011672154043527547 0.06450746375294086 -0.011611001730890805 0.17636940592214256 0.375117474752936
3133438000.0 0.18971602090495257 0.41701980033728503 0.06459668157380567 -0.013467843306385409 0.06418589200138354 -0.013235050983816676 0.17840773037926635 0.372620928921891
3134500000.0 0.19212190934004092 0.4164289752988191 0.06402484252405363 -0.015198164363256467 0.06392493018384267 -0.014866911057549474 0.1808757628730769 0.36977074582775926
3135562000.0 0.19483537894385217 0.4154674185254065 0.06340955358268933 -0.01695061485460023 0.06354142784011446 -0.016553101299583563 0.18440297928286803 0.3669454998563288
3136625000.0 0.19732751881252472 0.4144101721880702 0.06274134761057254 -0.01861531272151529 0.06309777524506661 -0.018157866742598772 0.18796762866006866 0.3645374332237766
3137688000.0 0.20000005723293818 0.4130825646903946 0.062064259937978636 -0.02023620057938076 0.06267966803350673 -0.019860693176840073 0.19249991320231147 0.3624968139610558
3138750000.0 0.20274331710860613 0.41182687632669057 0.0613978009167903 -0.021750436599352437 0.06216272433214103 -0.021683129070243817 0.1967667986835157 0.36144298369641986
3139812000.0 0.20544923980054022 0.410679278858933 0.060691041281196983 -0.02321344838388121 0.06154145138003993 -0.02337281649996208 0.20164573535701866 0.36083276862852287
3140875000.0 0.20807530681228678 0.40939228557902196 0.06009657694320901 -0.024688194685659113 0.06086879075000989 -0.025054612486249708 0.20590235384914643 0.36108777899970784
3141938000.0 0.21102992753727076 0.40791354742446984 0.05946797560847723 -0.026034298006996383 0.06012535899349397 -0.026676391840898376 0.20949321361462878 0.36150112640843246
3143000000.0 0.21360750822506508 0.40648022015553265 0.05885141599418862 -0.02741454723972682 0.05925873754719458 -0.028360221942066367 0.21307900258900095 0.3623278732049892
3144062000.0 0.21648359594904615 0.4053917868216966 0.058235286516741584 -0.02873684759484284 0.058426078555258366 -0.029681794294671698 0.21553802768749344 0.3631525031327356
3145125000.0 0.2192184392596832 0.4042776814128869 0.05765700656589072 -0.030091765778545828 0.057581843904407355 -0.030999556006124748 0.21720768898496845 0.3636726299304849
3146188000.0 0.22185700913553377 0.40285056169276695 0.05695259179632618 -0.031416520284746396 0.05666293128559847 -0.0322505114943476 0.21852821080125412 0.3634312481111201
3147250000.0 0.22488972683154823 0.4014397355281465 0.056224991510327324 -0.032799111715327595 0.055758296566017634 -0.03355085794895044 0.2194530735031287 0.3627111980442393
3148312000.0 0.227322904475981 0.3999972231027331 0.05551480972185164 -0.0342473033449836 0.05491218557754125 -0.03468183373706736 0.22043516946627714 0.36182449271610395
3149375000.0 0.23038432371567624 0.39850069286249334 0.05465681482914581 -0.0356637700403399 0.05411004306442204 -0.03594385917705628 0.22111174195460886 0.36006023785618396
3150438000.0 0.23278728005976182 0.3971643634200816 0.053757452605094035 -0.0371576598079901 0.05326045621512942 -0.037115037125974165 0.22232850742584584 0.35803768075725545
3151500000.0 0.23565255307781177 0.3956241593588891 0.052731492594771744 -0.03864679326578587 0.052328576451936976 -0.03848434502144135 0.22328147812211854 0.35551152027626237
3152562000.0 0.23816441805799973 0.3937013009975612 0.05168205304638593 -0.04005320912471036 0.05142576005368347 -0.03989229187355798 0.22466406132798447 0.35248361531219174
3153625000.0 0.24084328064065613 0.3919374225236718 0.050519244419015806 -0.04159136152209471 0.05051666441490851 -0.04122527244712908 0.2270031672230476 0.3496238728971641
3154688000.0 0.24335974569611105 0.39002843182617514 0.04931671100404991 -0.042941846269973 0.04936515443303767 -0.04266325709093152 0.2295156381956526 0.3463493116641065
3155750000.0 0.24581509974239976 0.38847104495182944 0.04806942618972652 -0.04422067368374709 0.04829680778969946 -0.044053680607069726 0.23232790221231506 0.34314095342239453
3156812000.0 0.24850198242602708 0.3867062785831444 0.04682174354789966 -0.04554740971887507 0.047119332695244306 -0.04552841963299971 0.23614503495540723 0.3405633456341122
3157875000.0 0.2506499995480685 0.3848044852776318 0.04556730514319988 -0.046682288595935116 0.04583055424120463 -0.046744270295939694 0.2402502010124446 0.3382307803404965
3158938000.0 0.25339176394498136 0.3829343840030238 0.04427855817826626 -0.04785189228573248 0.04450744488264083 -0.048086007589928245 0.2447111311564303 0.33631595751730947
3160000000.0 0.2557810294719071 0.38110045876239407 0.04299687422307722 -0.048883788370122035 0.04328945125547195 -0.04924088809201199 0.24877118252171543 0.3349489606251607
3161062000.0 0.25834019817988435 0.37921679492820015 0.041720941387177364 -0.0498941589333032 0.04191187429176665 -0.0503781612124545 0.25299800028604214 0.3343725361902003
3162125000.0 0.26038390839880377 0.3775359671282705 0.04049432134517535 -0.05084236353815381 0.04059883553389388 -0.051280436145896495 0.25656524468633746 0.3345545068026849
3163188000.0 0.2625870609066696 0.37511939455639204 0.03924897127153561 -0.0518467874115319 0.03929887971171189 -0.05218876726228097 0.2597435957748098 0.3348560686584504
3164250000.0 0.26449068142839743 0.3732503484339939 0.037992787596887415 -0.05277537610413327 0.03801641494646641 -0.05312189228418683 0.26201871747776406 0.33521274848033106
3165312000.0 0.26649356036032823 0.37092597363401153 0.0367871663241726 -0.053711188560921816 0.036716780691868595 -0.0540102584067079 0.2634039584635853 0.33534460980676006
3166375000.0 0.26859523974110777 0.3685749543363647 0.035606203932216605 -0.05461903432447901 0.035452882000580936 -0.05486581802767477 0.2639828586864552 0.33532654901261055
3167438000.0 0.2704357374886602 0.3661913783227344 0.034352165143560494 -0.055479972310643964 0.0341904028641561 -0.05570124693616907 0.26433783072271255 0.3343772156335111
3168500000.0 0.27266197241693807 0.3637675165431832 0.03301827551897473 -0.056424339621335445 0.032803342294598074 -0.05661333600543386 0.26448174894775756 0.33254066768037016
3169562000.0 0.27454986238975837 0.36141931952225875 0.031660317876479716 -0.05727297388210284 0.03141326562375744 -0.05752075746871926 0.2645601109075096 0.33037842196742295
3170625000.0 0.2767859379891301 0.358848365700064 0.030213664041456947 -0.058102863749821695 0.029924415539228973 -0.058294388280967134 0.2650620810865674 0.32741431603087834
3171688000.0 0.2791050554262175 0.3563387107377435 0.028662095862532214 -0.05890364492663876 0.028443932754446816 -0.059073574205350546 0.26596421321111235 0.32413496987009366
3172750000.0 0.28143114075501946 0.35415758506268247 0.027072297937049808 -0.05972786348849965 0.02687089301351063 -0.0599539652102914 0.26694910102869285 0.320606053959429
3173812000.0 0.2832819750224887 0.35207842186726385 0.02542106287818057 -0.060490556978092025 0.02519642733528249 -0.06066563470717103 0.2685758657559753 0.31697399430831835
3174875000.0 0.28579746284572116 0.34963551440087487 0.023696455645542902 -0.06129207194148993 0.023577296676149426 -0.06130457901953691 0.2706612411040794 0.3132407597839893
3175938000.0 0.28793717899341376 0.34706517382322616 0.02200287331080078 -0.06192745251422623 0.021904080920604446 -0.06188727958068342 0.2733285213451285 0.30958505153451576
3177000000.0 0.29027909869018187 0.34513803428098483 0.020268558597402828 -0.06262503757955672 0.02026147590711183 -0.06253989633164372 0.2764961250753425 0.30635362175958775
3178062000.0 0.2922748355113782 0.3431295063303868 0.01854058854094562 -0.0632327603740406 0.018588208064605906 -0.06309007456674395 0.2796792853968407 0.30353583651701377
3179125000.0 0.2943109127170895 0.34100060137616506 0.016853651452464306 -0.06377354055394135 0.016925276629573355 -0.06362978866757597 0.28305095961915344 0.3008028822204318
3180188000.0 0.2963738427502984 0.3385690854529701 0.015124704945868789 -0.06427577757812748 0.015264495561016769 -0.06421328416310848 0.28633003698673043 0.29881841132438763
3181250000.0 0.29827659263907924 0.3363952957828643 0.013493241955203 -0.06465220763090354 0.013691497466633503 -0.06470321989809136 0.2896952319702448 0.29769225263075544
3182312000.0 0.30018832787089766 0.3341391031884781 0.011852147298109733 -0.06504647428015257 0.01197548941923811 -0.06520270809752647 0.2923943305147104 0.2964501973484682
3183375000.0 0.3022606408133986 0.3315920962178133 0.010213764908902735 -0.06536197003444563 0.010331244434784458 -0.06567696489391056 0.2948160729726667 0.2957469133405818
3184438000.0 0.30426953412096297 0.3294476292385268 0.008522677666642426 -0.06563849099896271 0.008543676543390154 -0.06612736710987693 0.29639172987335893 0.29481712742788047
3185500000.0 0.3059555910364713 0.3269806080520304 0.006962873969770175 -0.06597729934133689 0.006927449812787559 -0.06648344937119974 0.2974508960643481 0.29393837354714136
3186562000.0 0.3079391966472752 0.32457568882781485 0.005291820270446722 -0.06622621460701716 0.0051838130513038125 -0.06670519596455808 0.2977073309348881 0.29263114411197727
3187625000.0 0.30964422189550644 0.32217387551292315 0.003654065172560881 -0.06644499986513176 0.003395819713099093 -0.06699039686582348 0.298063159028465 0.29065398066774906
3188688000.0 0.3115052483455033 0.31994106544527917 0.001970599057881452 -0.06674295019841689 0.001751136333721266 -0.06711223714353717 0.2985277116653261 0.2882749954807526
3189750000.0 0.3127939413898496 0.3178506645643315 0.00038293531860805546 -0.06688452728699099 3.5443790756437604e-05 -0.06708889672887014 0.29892123429073075 0.2855687937192796
3190812000.0 0.31452328152916403 0.31567126410156016 -0.0013356696469574252 -0.06703824851292932 -0.001802918250160399 -0.06713997183979477 0.2996141470945784 0.2826648298613108
3191875000.0 0.31611303050159845 0.31321592041311547 -0.003045960546980767 -0.06713554768952798 -0.003490016036773359 -0.06719381749936322 0.3004570441352357 0.279107392403875
3192938000.0 0.3175998652034659 0.310784638698098 -0.004832284206251321 -0.06713556904190797 -0.005184472271699131 -0.06706999110524024 0.30165619123580684 0.2756733994800611
3194000000.0 0.3189260020522086 0.308621478661153 -0.006642454999391948 -0.06709749400886113 -0.006902424379148262 -0.06699416812556172 0.30348407591262927 0.2723598705761258
3195062000.0 0.3204546921490002 0.30655776208375646 -0.008497888987533163 -0.06693487291063412 -0.008664789816773317 -0.06691997773457099 0.30565878515634354 0.2686824759074042
3196125000.0 0.3218542045552768 0.30418334094252264 -0.010437578204472274 -0.06677033833514617 -0.01041655188795808 -0.06672391502259317 0.3083990058536765 0.26551966260446247
3197188000.0 0.32303015159891474 0.3020132997796302 -0.012285344437575101 -0.0665172035576969 -0.012207501139582537 -0.06649964573624088 0.3109802038653057 0.26264653099327423
3198250000.0 0.32457285550510306 0.2998480250439663 -0.014182587381268166 -0.06624130228178096 -0.014113429848518969 -0.06634165299690058 0.31407633235465837 0.26035372841270665
3199312000.0 0.3259853310965195 0.2976438268348172 -0.01606045956512194 -0.06586594524653121 -0.01606491904526804 -0.06604529904596147 0.3168098685068493 0.2582371196939897
3200375000.0 0.32726707128389515 0.295309547349008 -0.017930907075681936 -0.06553624183936317 -0.017969462856557105 -0.0657696805166632 0.31986618734671524 0.25671911387978175
3201438000.0 0.32896174502671394 0.2932818171608073 -0.019698572961819732 -0.06514981117239185 -0.019789704987663175 -0.0653871870239444 0.3224818291041049 0.25622592769595953
3202500000.0 0.33050516149160303 0.29122739817145843 -0.021461359118802103 -0.0647261308031868 -0.02173736792064554 -0.06503643068999912 0.3243319211290993 0.2552970949835207
3203562000.0 0.3321004698176182 0.2892820034013719 -0.0231853725507546 -0.06428081561743375 -0.02346455207701263 -0.06452000910574231 0.3260536495650732 0.25447481460924
3204625000.0 0.3336601434197037 0.28753980982161575 -0.024860765992516215 -0.06381936742458078 -0.025317200006297683 -0.06390488695506642 0.3270041737906145 0.25397312368643626
3205688000.0 0.3351060953762425 0.28576796793251735 -0.026492180035798608 -0.06329253815672707 -0.0269574056840556 -0.06343950031327543 0.3272372888854561 0.2530313387199528
3206750000.0 0.33616594655665083 0.28393490067123317 -0.028175175141375474 -0.06273344956167402 -0.028602743420160472 -0.06272059391898602 0.32691469275530655 0.2513835958176262
3207812000.0 0.3375444878882303 0.2823598074018285 -0.0298430781775906 -0.06215705390634505 -0.030210746836053053 -0.06199989811867318 0.32686387008377704 0.24929953330399085
3208875000.0 0.33879799822306983 0.28100850560256474 -0.03155870685368346 -0.06152015361564256 -0.03186834290402492 -0.06134343688732985 0.3267768281541474 0.24665479859423353
3209938000.0 0.33984354196076016 0.2791426910531752 -0.03329086386464713 -0.06077940562971163 -0.033482263389904135 -0.060670218589652776 0.3273068905702617 0.2434877675884353
3211000000.0 0.3410419015060521 0.2776874314554026 -0.034988498473201346 -0.06008117070475824 -0.03510648242721394 -0.059815591120215866 0.32801349030830146 0.2401062061970067
3212062000.0 0.341875218015039 0.27619397066837853 -0.03660903017227844 -0.05921604596741639 -0.036690553513877254 -0.05910396120339164 0.32878781377940597 0.23690087982025831
3213125000.0 0.3426117599033176 0.2745756369024453 -0.0383357191408516 -0.05830237666143489 -0.038330611594767035 -0.05824415642402156 0.3305983756696573 0.23368611434939923
3214188000.0 0.34319990360067715 0.272993862934553 -0.03996647285067612 -0.057334245403818006 -0.0399771307729967 -0.057405993576786246 0.3322733381720825 0.2308905131537026
3215250000.0 0.3438550199217634 0.27140452374476726 -0.041553832248281054 -0.05623738427789433 -0.04152588470815853 -0.05637068390230603 0.3346268195541913 0.2280006969128787
3216312000.0 0.34485477981790497 0.2697211062541227 -0.043140426186311545 -0.055124673809925605 -0.0432068282544243 -0.05530928046688207 0.3368042876894374 0.22596260607915103
3217375000.0 0.34555703518817577 0.2678712909830751 -0.04464635671977783 -0.05390906729546706 -0.04480283026228913 -0.05411149674063117 0.33887992552967117 0.22439925044341838
3218438000.0 0.3462608338203458 0.26595081453097164 -0.046150123388819554 -0.05261591657791958 -0.04636472076868896 -0.052844914675949484 0.3410529938609449 0.2225643934390971
3219500000.0 0.3471676812200981 0.2642404324742562 -0.04760099165535098 -0.05130638418168289 -0.04791343990084947 -0.05143045639436659 0.34295945938828654 0.22158983357268405
3220562000.0 0.3480282269001162 0.2625548810734877 -0.04904052565369827 -0.04992356970353595 -0.049318363599740116 -0.04999656141481018 0.34470585608663085 0.2210256979865417
3221625000.0 0.34873079990139955 0.2608006727130508 -0.05049150462104291 -0.04851944984505643 -0.050798094115672175 -0.04858881711831417 0.3459304724540164 0.22010196933167142
3222688000.0 0.34941238372884054 0.2595968636781157 -0.051888022811376534 -0.04714696845325903 -0.052128870718637164 -0.04711913944685167 0.34670245042961345 0.21953476770415808
3223750000.0 0.3501411077906197 0.2578279003797556 -0.053164871268325975 -0.04575246293887584 -0.053476459085668775 -0.045678771161484936 0.34695022473752796 0.21915546807794378
3224812000.0 0.3510938264448413 0.2562735111108921 -0.05455646080786677 -0.044322761034036935 -0.05469528634540163 -0.04422457576262629 0.34697958757132236 0.21807808745267745
3225875000.0 0.3519256356000234 0.25452365341171246 -0.055826796142096215 -0.0428283680185869 -0.05595538736485858 -0.04275827882649015 0.34664412632553 0.21692854662637487
3226938000.0 0.3528606497338516 0.2529863004989554 -0.057018209060796105 -0.04135022346354551 -0.057185706963779566 -0.04129335684240834 0.3457198597726695 0.2153761957302266
3228000000.0 0.35351395386393836 0.25161196510804523 -0.05819687623278776 -0.039790235248194555 -0.05829886274725283 -0.03973474755486608 0.34545452437668905 0.2130888532062849
3229062000.0 0.3546018916877112 0.2498696653540841 -0.05933266683475078 -0.038161831521087035 -0.05949170697470629 -0.03818241955813156 0.3448335776394159 0.21004177775555932
3230125000.0 0.3553145392911341 0.2484231812760047 -0.060436480856065435 -0.036590243626250185 -0.06054636133844771 -0.036525087847940625 0.34472869177107823 0.20716348602147505
3231188000.0 0.3563141428562659 0.246511576884832 -0.061533635011165495 -0.03485891886485268 -0.061663011546157054 -0.03492346940534367 0.345219015629576 0.2040217759952849
3232250000.0 0.35732345804364707 0.2449898655507193 -0.06257095573282566 -0.03318416262452613 -0.06273329363011942 -0.03312185721619777 0.34601992253154257 0.20030301386419386
3233312000.0 0.35823673741083706 0.2434028352728265 -0.06357361608874144 -0.03135406768796734 -0.06370216936382245 -0.031366577623745576 0.34783706907143386 0.19715596662335377
3234375000.0 0.35929563425641975 0.24168839031633269 -0.06456445691989078 -0.029590921369788813 -0.06464428380353981 -0.029554181364046833 0.3500100569107417 0.19407783386839178
3235438000.0 0.360280769243146 0.24025891106036532 -0.0654580460202963 -0.02782168943839046 -0.06553829216149687 -0.027736490626134452 0.35197844481737434 0.19180964004406661
3236500000.0 0.36143168389414837 0.23875254487497174 -0.06632415214766284 -0.025965646326826117 -0.06639862110514395 -0.025971316476372495 0.35462011119554326 0.18977499555079028
3237562000.0 0.36250681896134046 0.23740557063717593 -0.06712390873490437 -0.02409113857790063 -0.06714110869803823 -0.02413010484930392 0.35699331370670895 0.18874893716000174
3238625000.0 0.363277793057931 0.23594393123377555 -0.06783614372253158 -0.02223438983676679 -0.06789975737824282 -0.022286957892813965 0.3587597058079258 0.18787439142983528
3239688000.0 0.3643318926736969 0.23436999041753165 -0.06846309344952034 -0.020285108198614846 -0.06856762400787751 -0.020368664154365432 0.3603632383662275 0.18750844396673125
3240750000.0 0.3652100527565545 0.23289059670714143 -0.06899272676935683 -0.01835846698214446 -0.06918009416345683 -0.01856193355312698 0.361311114330007 0.18725829610117345
3241812000.0 0.36611982142985194 0.2316411884713807 -0.0694864280834334 -0.01634944022902662 -0.06964494167805718 -0.016510266713165057 0.36171913727600785 0.18697332184628193
3242875000.0 0.3669581450021647 0.23047228577548506 -0.0699959744938542 -0.014438286549320556 -0.07016224411390008 -0.014655717484735995 0.3617504293819598 0.18688564222979095
3243938000.0 0.36767880964247446 0.2290114711098481 -0.07027164982164522 -0.012449959434972282 -0.0705754807322975 -0.012607460403227787 0.36113959282058405 0.1861447527442832
3245000000.0 0.3683379902929295 0.22746213316994388 -0.07057630469659443 -0.010487338019728435 -0.07090999193353001 -0.01056372088931347 0.3598737080098597 0.1846950408902388
3246062000.0 0.36880239372158613 0.22578213121466809 -0.07083666359732664 -0.00853593908201963 -0.07122283490591307 -0.008528251898951974 0.35888992874073233 0.1833853968428729
3247125000.0 0.36949079752839864 0.2240273435871843 -0.07101774497638771 -0.006546003687701725 -0.0714872395595147 -0.006465033208322417 0.357273640085516 0.18088203094738803
3248188000.0 0.37014445425238535 0.22213275133828878 -0.07116560132740446 -0.004602614341774969 -0.07167628536225831 -0.004376955431770932 0.35656019814307643 0.17774825496846489
3249250000.0 0.3708321044260236 0.220241124691662 -0.07126484660239797 -0.0026507492422139624 -0.07176344667020573 -0.0023499003084334713 0.3564288323635206 0.17402078760061995
3250312000.0 0.3716538499052534 0.21810557206283676 -0.07133602529716676 -0.0006745528698756206 -0.07168206650139752 -0.00029377476385288265 0.35637224553439223 0.16972598941902797
3251375000.0 0.37267388229559245 0.2162080757080015 -0.07137849371274864 0.001312291751018478 -0.07162013812497602 0.0016729266792052005 0.357194240895136 0.16569424482542022
3252438000.0 0.3734233879861585 0.21423023998784468 -0.07136321352205069 0.0033383863690117977 -0.07153720345575236 0.0037279103969009905 0.3587848887441932 0.1616076082403901
3253500000.0 0.37450769680825485 0.21220634671248545 -0.07135134575691611 0.005353114110911765 -0.07136951445846963 0.005716372446283191 0.3607272011394895 0.15739801796624026
3254562000.0 0.37571927290090146 0.21010817945881013 -0.0713145572495808 0.007362033554664197 -0.07138268270179225 0.007740958315765804 0.36333875905463675 0.15407721573547767
3255625000.0 0.37662651154517357 0.20768973624252549 -0.0712411117410836 0.009422396942128592 -0.07113546760640697 0.00965540554967472 0.3664933905597149 0.15100343171491915
3256688000.0 0.37795132319248775 0.205713483997432 -0.07107767533154734 0.011464961290094602 -0.07087306669263745 0.011695327472518799 0.3693793425891575 0.14867660266286387
3257750000.0 0.3792441436401361 0.20346902056613372 -0.07086542276858951 0.013579413771937865 -0.07079941628232196 0.0136695215503929 0.37252612666274115 0.14688643632113838
3258812000.0 0.38052200921111273 0.20146807002575726 -0.07062484250311368 0.015600180001138466 -0.07057072998567207 0.015610132667161679 0.3751818255898738 0.14561896108670044
3259875000.0 0.3817799549416449 0.19899094321543856 -0.07023684035496963 0.01767042362350708 -0.07031514906635303 0.017598262629058288 0.37813000764174626 0.14562814746737143
3260938000.0 0.3831073340924228 0.1965457304847543 -0.06981209918225151 0.01968693542706974 -0.06987975291307148 0.01964671146966206 0.3794421190757491 0.1445201555721649
3262000000.0 0.3846568770656282 0.19426665605715576 -0.06922290053225177 0.021722842993454144 -0.06935618728601962 0.02157949087365621 0.38058619531664073 0.14440410585852198
3263062000.0 0.38600661263900043 0.1918933397740256 -0.06861692981301605 0.023651324882273925 -0.0689269066498763 0.02361519549255893 0.3808219159356831 0.14413751827531868
3264125000.0 0.38723932213571083 0.18928769326812359 -0.06792451101640753 0.025574248420000275 -0.06824572904210732 0.02555200551101267 0.3807804206775124 0.1432741937291663
3265188000.0 0.38920973452652485 0.18696683660336125 -0.06717108979367796 0.027437395156114416 -0.06757403387936417 0.027649077061188968 0.3801356083827261 0.1422407448706145
3266250000.0 0.39046285462639935 0.18435237107057378 -0.06641574587803069 0.02922391038881099 -0.06679420924917756 0.029344770571913033 0.3792075755909352 0.14057292754174838
3267312000.0 0.39207164234734126 0.18204518632191552 -0.06559567286121767 0.030963159827485588 -0.0658744124845448 0.03117470858527394 0.37803914307243974 0.13809492036545457
3268375000.0 0.3940236316060388 0.17982081153198212 -0.06472580865655887 0.03268439290364204 -0.06496601181943223 0.033053543335591795 0.37726923184804173 0.13473133816558924
3269438000.0 0.39534921227577174 0.17744238323411304 -0.0638420723172565 0.034447404821679094 -0.06409464863587074 0.03489317492959127 0.37715383759629545 0.13057068101331296
3270500000.0 0.3968218676240227 0.17508048777899118 -0.06294688625364749 0.036095666738805994 -0.06301020657699129 0.03656106275366558 0.37733257273778775 0.12650544638965006
3271562000.0 0.39842203255977854 0.17273284606727451 -0.06208234345136499 0.037827728005911936 -0.06206385259289841 0.03825938553971245 0.37873741736833666 0.12189807967621817
3272625000.0 0.3996163020021526 0.1701891482890112 -0.06110344212242641 0.03950671018044166 -0.061014089036524964 0.03990260986431563 0.3804941540840284 0.1175053821549689
3273688000.0 0.401115728372176 0.16778889455616508 -0.06017645077156662 0.04118185102362597 -0.060038828297522225 0.041630458450527555 0.38279092438593937 0.11392633928249139
3274750000.0 0.4022215655737253 0.16543590479248585 -0.05913373250987682 0.04290741231388064 -0.05901439577225155 0.0431973293253162 0.38558978608063665 0.11046824893701254
3275812000.0 0.40352739138457033 0.16289317813407359 -0.058077572809111036 0.044648522971558996 -0.05789852920660508 0.04497321006430899 0.3883778737264144 0.10781889857761014
3276875000.0 0.4046110258379956 0.16016796393985017 -0.056802279089459486 0.04638709272180334 -0.056688135509070293 0.046542320249248294 0.3915665375660858 0.10548382091249994
3277938000.0 0.40549937004085895 0.1577384957678323 -0.055678581652755986 0.04807998956656638 -0.05555803207658068 0.04822745462027672 0.39439010945781794 0.10397334710027821
3279000000.0 0.4069090098479252 0.1548999889358888 -0.05445072192706424 0.049756748355479156 -0.05433770731410625 0.04994770811253896 0.3966599865024398 0.10334516480029676
3280062000.0 0.4082537312614263 0.1519378891526031 -0.05303994869393807 0.05137342625577344 -0.05300702990243446 0.051426376828972595 0.3985134210704067 0.10278737496272403
3281125000.0 0.4092304290643237 0.14920001782894837 -0.051665762619967005 0.05292117910664252 -0.051610663514688696 0.053025498211007445 0.3996598604034181 0.10225429972000274
3282188000.0 0.41077907389645035 0.14630770734162318 -0.050228942378496094 0.054431545532607054 -0.05017079285640734 0.054593850712228685 0.4001639951492208 0.1015785605121376
3283250000.0 0.41202588049759886 0.14338533293239633 -0.04870466758478781 0.05580429644302892 -0.048699211660067736 0.05599865993825404 0.40010339227355135 0.10121178748754503
3284312000.0 0.41331543197884596 0.14012767301499374 -0.047130634695081414 0.0571391664496055 -0.04717173311788403 0.05730151437372149 0.3995230781131946 0.10014871788105814
3285375000.0 0.4145740892546066 0.1375318037467846 -0.04553894024866692 0.05839140527469957 -0.045701902066621725 0.058592019466068686 0.3983447037584486 0.09858523841549405
3286438000.0 0.4161745430426495 0.13477382250984032 -0.043921655195209776 0.05961020992185112 -0.04401645609521868 0.0597026048648785 0.3971485970025951 0.09646468171186202
3287500000.0 0.41737400317294215 0.13202651862708986 -0.04220493227508271 0.060735596228431395 -0.04238923074884379 0.060880600824049065 0.395890147450325 0.09334783213210496
3288562000.0 0.41862276433520124 0.1292083733058583 -0.040517507291532584 0.06181006450252068 -0.040722735230397974 0.062015208120496906 0.39476847955993394 0.08987103475891235
3289625000.0 0.4198529480613254 0.12635601596239035 -0.03885647867165059 0.06289710947861873 -0.03898237012073263 0.06313957216121238 0.3943213622748347 0.08596139869747144
3290688000.0 0.4211963916247401 0.12342578128325137 -0.037128510713251336 0.06391203094897763 -0.037187727230584174 0.06419207449091856 0.39406657100530523 0.08169686982515859
3291750000.0 0.42245027684747427 0.12040291782146453 -0.03536144686533447 0.06487701989685532 -0.035340477856482644 0.06521587834240525 0.39457677102828903 0.0774323879212211
3292812000.0 0.4235950684161983 0.11785855196422727 -0.0335592915481812 0.06593148579491785 -0.033588942925260684 0.06617147582403331 0.39528554559517154 0.07323588581335953
3293875000.0 0.4248747832314816 0.1150509874417624 -0.03170983827849661 0.0668931148705148 -0.03162166523693588 0.0671376956970228 0.39663491452880373 0.06921291218653346
3294938000.0 0.42571784441592064 0.11229946443617593 -0.029845187850201967 0.06780925500268463 -0.02974504643187095 0.06811609051452919 0.3983591706551782 0.06554415285483776
3296000000.0 0.4266050009764574 0.10929455185811267 -0.027872870265156016 0.06867504144150141 -0.02778999281037214 0.06897855986968668 0.3998215631833831 0.06269560253826148
3297062000.0 0.4278793014826931 0.10640092381353623 -0.025915605920839496 0.06956313143147554 -0.02587482305741054 0.06977346373892002 0.40172090227032153 0.059758259218084295
3298125000.0 0.42873679611934584 0.10376015575850282 -0.02394563033718957 0.07034508366687833 -0.023945775725062436 0.07057015266188309 0.4029780183780779 0.05777645392280234
3299188000.0 0.42990933979050133 0.10125239019632301 -0.02195660979998908 0.07109874846735043 -0.021963980022044607 0.07133690715664819 0.40431459568916966 0.056227018777429506
3300250000.0 0.43081439362046126 0.09870914357699988 -0.019888249009553254 0.07187056289378867 -0.019843933901526195 0.0720206872832681 0.40476156612019026 0.05456260498667255
3301312000.0 0.4318821297568939 0.09607219444269877 -0.017894769455651244 0.07251650918498019 -0.017859331976983726 0.07265950595800728 0.4047389357867648 0.05306191122053177
3302375000.0 0.4327003996098273 0.09347005414223876 -0.015872073564962598 0.07308739312093321 -0.015869203301405156 0.07317360201304018 0.4046512262439785 0.05179695747809649
3303438000.0 0.4334997472872511 0.09101442546706681 -0.013890129192286342 0.0735777664335402 -0.013840522146974255 0.0737585404194427 0.4033994819652735 0.05013964039477095
3304500000.0 0.43432996547744956 0.08824442711847626 -0.011864986041332699 0.07396015996340463 -0.011798777928531881 0.07418641059096402 0.4020413355585296 0.047903285565478106
3305562000.0 0.4348390002033649 0.08583978490608044 -0.009862834826573469 0.07426363153545382 -0.009805969521607963 0.07460419896407257 0.40083515475781945 0.04527088209535287
3306625000.0 0.4354312477018697 0.08343197999589154 -0.007872093274174114 0.07457570820177564 -0.0077295880154075874 0.07478210452060019 0.3996051964704898 0.042317037798142505
3307688000.0 0.43611735520455 0.08075598061573186 -0.005841241197864287 0.07467469817723878 -0.005782143936423341 0.07494458096336913 0.39746519537002767 0.03884377981679736
3308750000.0 0.4367257006728439 0.07802562037360387 -0.003829554103518856 0.07482680566570368 -0.0035903371819943127 0.0751392872945113 0.3970434358218668 0.03425834081577413
3309812000.0 0.43716749152898476 0.07535369384967401 -0.0017234723806429228 0.07491660682022996 -0.0015356582500888327 0.07514601109459304 0.39674481071729506 0.02993468748128495
3310875000.0 0.43781673163988455 0.07244182982604183 0.0003475068465023862 0.07494333061621168 0.0004648069921967962 0.07508747801571261 0.3969873879401427 0.025807795792917372
3311938000.0 0.4381728750575528 0.06981570176234043 0.002448586965794037 0.07489608713142631 0.0025217376808515037 0.07505904522303374 0.3969445757273553 0.02131664660613617
3313000000.0 0.4385783738680834 0.06692587738787646 0.004518333710409049 0.07483068540460407 0.004654272608764434 0.07488612560725855 0.3974425787545324 0.017276457227601637
3314062000.0 0.4390407335375104 0.06407318073496404 0.00660238559474553 0.07469858129001808 0.006742144896043462 0.07465170094479141 0.3981263115778615 0.013665091346471122
3315125000.0 0.4394922287514793 0.06144708753541583 0.00875817112942259 0.07447596084183178 0.00883099749155304 0.07462770488471561 0.39923623579670664 0.010254180103691187
3316188000.0 0.4395764505924685 0.05870367042281382 0.010835579206470923 0.07419594576936073 0.010897252927945442 0.07435504537573034 0.39984383795197403 0.007369094164011435
3317250000.0 0.4395081968037451 0.05600411993992037 0.013022034179666539 0.07390901292794859 0.013029055208251355 0.0740521712540535 0.40025891773197897 0.0041521217409904235
3318312000.0 0.4400934135394703 0.05326614834727817 0.015207948604550055 0.07350562164728258 0.015334007575918778 0.0736577333562359 0.40053422850913584 0.0019780703283258745
3319375000.0 0.4402504154970399 0.05054400247194921 0.017338994417010267 0.07305308762428415 0.01740767300470322 0.07325552448576221 0.40027307051197897 -0.0001189158418684007
3320438000.0 0.440216985855444 0.047937261567470996 0.019478252907985934 0.07247554859431705 0.019597917984447825 0.07282781510406558 0.3995281123923832 -0.0023952322618010446
3321500000.0 0.4401254190193355 0.04547478621831662 0.021559282421182834 0.07194677502408693 0.021635433514952663 0.07230654862076101 0.3987064439581035 -0.003980780760836722
3322562000.0 0.4403043298660791 0.04293910820353558 0.023630034375231597 0.07137383985701055 0.023814439413991244 0.07159725026371432 0.39749746768482647 -0.005801477233470322
3323625000.0 0.4401579469215824 0.04016810322147886 0.025707410538828267 0.07073364035425841 0.02592881078505342 0.07108669120784127 0.3960097976719458 -0.00832748761738368
3324688000.0 0.4398323552180104 0.03786600062209661 0.02764065046875442 0.07000155771029914 0.027904228319332616 0.0702808971604436 0.39394613573993126 -0.010972076639022544
3325750000.0 0.4395034638991999 0.035212085730686356 0.029574516346484538 0.06925100729703977 0.02988729879734029 0.06942325968168073 0.391972440144505 -0.014205552939549688
3326812000.0 0.4393131390384998 0.03264424839545015 0.031432641062153766 0.06852296252890538 0.03185464252604121 0.06859125098384714 0.3905491349230711 -0.01798328480822133
3327875000.0 0.43868637578102454 0.029819272865853928 0.03326435730822934 0.06771230353610627 0.033663627969457 0.06768383877857462 0.38913855366465866 -0.022197017783950553
3328938000.0 0.43849566974987764 0.027539773575615146 0.03509016191716033 0.0669072708907638 0.03541946284136771 0.06682341331547735 0.38859727455639803 -0.02617515337706511
3330000000.0 0.43776716207273203 0.02476727372014691 0.03687049952888337 0.06602964360585732 0.03725353568674513 0.06593077742366014 0.3886669915628484 -0.030620281962688067
3331062000.0 0.43721282348542007 0.022254853246733215 0.03867616489227438 0.0650886846842905 0.03889446842769661 0.06496149491118094 0.38895931495986674 -0.034502621167537495
3332125000.0 0.43662456257101667 0.01969233103484062 0.04047497083310543 0.06409518303561473 0.0405883596625232 0.06408240424603628 0.3895374944671324 -0.038883237374668984
3333188000.0 0.43573325302679855 0.017051839934756355 0.042225332436110194 0.0630829972963396 0.042326578708967603 0.0630712827594081 0.39108048573475435 -0.04185899920370973
3334250000.0 0.4350051457711398 0.014245976416461893 0.04406894874450825 0.061989000144792736 0.044072388610613515 0.062030021484045864 0.3925142152792554 -0.0444935518123212
3335312000.0 0.43446741633774627 0.011315704417122015 0.04580634167143044 0.060826952418436414 0.04581591021076474 0.060807233143630506 0.39360309360684864 -0.04644512463257646
3336375000.0 0.4339236775199848 0.008736533679820186 0.04758980431468056 0.05952046523990703 0.04760794492609482 0.059546646246941726 0.39435976114958 -0.04844509633171819
3337438000.0 0.4328674577308975 0.005992696474433022 0.049302756309185965 0.05825877034482894 0.04931106932696263 0.05838764755274641 0.39460552987732606 -0.049472022658440445
3338500000.0 0.43201139448456066 0.0030616591424800534 0.050887635484996654 0.05679148574797659 0.05101956983915005 0.056884965700703775 0.3942939823576695 -0.05047172385982211
3339562000.0 0.43132321135871315 0.000433994365128733 0.05249856331703223 0.055374311160280874 0.05272259500602818 0.05545538934794161 0.39352186783759097 -0.05142119722726784
3340625000.0 0.43047656293950626 -0.0024150312933082885 0.05404956604272041 0.05378359164411314 0.05428826400463587 0.05389168797373956 0.3916168166925645 -0.05265528915847243
3341688000.0 0.4296028278235717 -0.00543959548351889 0.05549531531729133 0.052194427014919026 0.055805509838260714 0.05232284658940721 0.389984974893446 -0.05394274592536056
3342750000.0 0.4287459853494495 -0.008099052391408908 0.05686331862821981 0.05059056920634196 0.05726707241420534 0.050658047142448134 0.38736913399410555 -0.055334519844867536
3343812000.0 0.42787703563498813 -0.011114123475067092 0.05827225725138577 0.048931355159800106 0.058477586109278924 0.04897283782016234 0.3850604099051237 -0.05750807313845776
3344875000.0 0.4269255298233623 -0.013881530438433301 0.05955435904216675 0.04737631407039418 0.05977682581323097 0.04746998008157133 0.3822616959795504 -0.05984572465902786
3345938000.0 0.4260724129373904 -0.016980520741567112 0.060810044419734026 0.045793584092124605 0.06103947841649845 0.04582511405764068 0.37976799872524675 -0.06268479831820249
3347000000.0 0.425180519371376 -0.019930668469255133 0.06208178232082804 0.044178552227448216 0.062401752803239674 0.044234122686559164 0.37753463965392575 -0.0661587090716116
3348062000.0 0.42421729383003265 -0.022901054862866196 0.06331045360904754 0.0426052815824816 0.063611930261246 0.04253915447070788 0.37577258942341735 -0.07016508260966821
3349125000.0 0.42321192567066135 -0.025676300208879118 0.06453474586438988 0.04096591749540756 0.06486302889615898 0.04109935884014349 0.37448834083970717 -0.07398272261748694
3350188000.0 0.4222874104553949 -0.028811093983795364 0.06570876724966206 0.0393318425179077 0.06602857468322516 0.039389966954246534 0.37394703841958143 -0.07766550895918121
3351250000.0 0.4215519677168373 -0.03129203911533016 0.06694233978603219 0.037664168000067964 0.06728649576566646 0.03762690012291617 0.37403984804116336 -0.08109667686356797
3352312000.0 0.4205657963647616 -0.03394459404978241 0.06808435147381396 0.03598884714132534 0.06841339505935481 0.03588664046159603 0.37439947628616993 -0.08366209640126829
3353375000.0 0.41939230093793073 -0.03663760985562378 0.06921645997677806 0.03409573994091483 0.06960704597912899 0.03397635163883208 0.37496503144690896 -0.08555270976779417
3354438000.0 0.4183071241802019 -0.039478538416863725 0.07028187838337609 0.03227898509547685 0.07059287905127022 0.0321294192983072 0.37493473003840966 -0.08676303996376264
3355500000.0 0.41706994859541485 -0.04246332273616569 0.07128361889930794 0.03036915231340994 0.07153791161370393 0.03021333155432909 0.3749194065311514 -0.0876704728285134
3356562000.0 0.41603463575957333 -0.0451313550357132 0.0721915665844569 0.028352419292754314 0.07249933845564799 0.028214670963991023 0.3742352867581848 -0.08792015893427022
3357625000.0 0.4146361653781504 -0.047721485182864204 0.07306380548430476 0.026373513053457014 0.07309291546892198 0.026290146362287586 0.372427093746623 -0.08804836075753557
3358688000.0 0.41326825260774097 -0.05045787995300368 0.07374966823405825 0.02433491160018452 0.07378116954182361 0.024248995643505005 0.37085189125760337 -0.08762737691069501
3359750000.0 0.41199641308108226 -0.05336905515120151 0.07443883638618486 0.022228952154811046 0.07445630928985247 0.022253453676788475 0.3683039826072437 -0.08807328244178868
3360812000.0 0.4104968890587859 -0.05599441248340266 0.0750298714727316 0.020243198535689993 0.07510947018292191 0.020165703516499555 0.36515961061476365 -0.08782783588254867
3361875000.0 0.4095145601001568 -0.058820378659914116 0.07549424978179566 0.018139097767973775 0.07559455278820779 0.018104814522735328 0.36103966795443837 -0.0884428279736973
3362938000.0 0.40790659929481915 -0.061311918514700345 0.07597532373094085 0.016016326270207333 0.07612687307214731 0.016127400121143533 0.3571880054969831 -0.08979467363934775
3364000000.0 0.40636337775171455 -0.06413761344992396 0.07637934560794274 0.0138903596975596 0.07654394883611473 0.014108250851029335 0.35258143047331786 -0.09146817234592594
3365062000.0 0.40498691201696835 -0.06677422514035188 0.07670962015637975 0.01178880713419193 0.07692252027902494 0.01200796889833888 0.34885120600966696 -0.09386738375820702
3366125000.0 0.4036917346697079 -0.06949374876103803 0.0770982070554968 0.009696207692327081 0.07752503959506742 0.009837946780140808 0.3448985921091224 -0.09710934472794436
3367188000.0 0.4022595362978799 -0.07240021114126548 0.07735911764764794 0.007595125375156732 0.0778120428122491 0.007647407874311435 0.3422585399257092 -0.10026212494777087
3368250000.0 0.40069351086920396 -0.07502612022850255 0.07767086393268054 0.005370652535640588 0.07805623339255427 0.00534720158194736 0.33937424327115423 -0.10548521260863586
3369312000.0 0.3996491495653649 -0.07788695043259938 0.0779666433294925 0.003139104646948309 0.07846418292920758 0.0029957610931957974 0.33717098166407716 -0.1094755032913014
3370375000.0 0.3981919411352628 -0.08037001935642725 0.07818860535761522 0.0008758720359459572 0.07854795889821327 0.0006362820710753184 0.3370281036488529 -0.11387595222364302
3371438000.0 0.3966977661088639 -0.08306587875476087 0.07830515647546797 -0.0012730324100444983 0.07871757029919989 -0.0015320828666315791 0.33730135299214514 -0.11703723087213942
3372500000.0 0.39543134890077863 -0.08586178160329797 0.07852770578948451 -0.0035048629811293163 0.07871135543263362 -0.0038086381912977394 0.33846821277044237 -0.11992656915205818
3373562000.0 0.393944469553965 -0.088269040171253 0.07854681483796448 -0.0057473541539379246 0.07866375943624909 -0.006056095262913256 0.3389500097886295 -0.12163165294509126
3374625000.0 0.3928715644576241 -0.09097342167529568 0.07857327500035363 -0.007979323969187808 0.07862916473734843 -0.008243036443318358 0.3392179664074064 -0.12343092292488671
3375688000.0 0.3915957627671333 -0.09336867167431587 0.07847942631750403 -0.010239589651293268 0.0785334198400028 -0.010395785280991774 0.3397335837036327 -0.12354348597707808
3376750000.0 0.39037594453045527 -0.09589691461007548 0.07840764138280093 -0.012521403036514589 0.07837899858542584 -0.012669558136477823 0.33883216358339346 -0.12361286119503093
3377812000.0 0.3893156191270372 -0.09830797609167116 0.07817108084424394 -0.014743500283089335 0.07825685534498471 -0.014805882702274937 0.33723155461302323 -0.1226428784588105
3378875000.0 0.3879800905898316 -0.10063258874876803 0.07795381594256165 -0.016892909899920507 0.07794226173938684 -0.016914942548317515 0.3358370286977731 -0.12184095185085356
3379938000.0 0.38706396494424156 -0.10292621640668519 0.0776144996312378 -0.019105648522960986 0.07772364595915467 -0.01911606841424577 0.3329774247207021 -0.1213741749688785
3381000000.0 0.3859465642492094 -0.10498903293562728 0.07718560884820701 -0.02134712224046689 0.07728254885051336 -0.021357492256185502 0.32925276118666585 -0.12147700774498069
3382062000.0 0.3850152512738123 -0.1071961903407393 0.07672124825565353 -0.02358063053695051 0.07674843264610899 -0.023639360427742007 0.3261296543557106 -0.12126075128342419
3383125000.0 0.38393553087344523 -0.1091637886654708 0.07614804285251676 -0.02576613668664423 0.07624173551398095 -0.025827619159986954 0.32173450528506914 -0.12128582192753061
3384188000.0 0.38279389661472235 -0.1111352629431171 0.07546527058545102 -0.0280369105453832 0.07570933546724627 -0.02820129134119135 0.31797970582271834 -0.12356520727753545
3385250000.0 0.38180126728264246 -0.11307438510953549 0.07466562071023046 -0.030301414381622795 0.07485733760653199 -0.030392871229093423 0.313448535412525 -0.12570518863617866
3386312000.0 0.380693602685795 -0.1148603793427727 0.0738796191246083 -0.03248023166410719 0.07401592085323695 -0.03263812902381248 0.3105417953407044 -0.12832542384211684
3387375000.0 0.3797230657605752 -0.11657504197968563 0.07293805878189348 -0.03477296730843367 0.07308934632476356 -0.03482117164455024 0.3078025330683859 -0.13177964544880455
3388438000.0 0.37859903970594877 -0.11846725170985138 0.07195786991553085 -0.036981135842002286 0.07212369962068424 -0.03716036167617612 0.30573098144518795 -0.13527052111966129
3389500000.0 0.37732352162497046 -0.1202495388863075 0.07087360037930471 -0.039115874555238093 0.07089201799171571 -0.03927342572510613 0.3046471215710836 -0.13866956363629218
3390562000.0 0.37629596111389646 -0.12211106576720905 0.06980126093368391 -0.04120859742122797 0.06982139130769136 -0.041406648935169585 0.30392893386194175 -0.14261500297805896
3391625000.0 0.3750398780272336 -0.1236280374892618 0.06860717172468066 -0.043280876013992275 0.06880661567222865 -0.043482970079707806 0.3046998519813046 -0.14592990892289337
3392688000.0 0.37391819766993206 -0.1253699417013807 0.0675070029578511 -0.045384391491846865 0.06749177323431232 -0.04548745696999579 0.3056725921203204 -0.14917175822908965
3393750000.0 0.3727445465571563 -0.12690451410240317 0.06622764588369134 -0.04737696469357076 0.06629393517372091 -0.04749783870329429 0.3066824606288883 -0.15164048675031785
3394812000.0 0.3714895583033582 -0.128518240343778 0.06500097506929735 -0.04934004277728402 0.06507500945492634 -0.04950054249306634 0.3082558084642721 -0.15264115641943013
3395875000.0 0.3705702223775661 -0.1302686371752898 0.06376402699865748 -0.05126682571052339 0.06392385585265438 -0.05143609773002464 0.30926400844824203 -0.15211255284705222
3396938000.0 0.36938784112805556 -0.13179947393308852 0.062489742046110554 -0.053199686930663716 0.06276043514274211 -0.05347511309798308 0.3098314616452148 -0.15125969568414324
3398000000.0 0.3682443953997677 -0.1332336988436571 0.06116492806423263 -0.0551209101365116 0.061313984140539075 -0.05539408615344826 0.3096107775931903 -0.15088945064919063
3399062000.0 0.3671347908837999 -0.13476565410835806 0.05978741555757186 -0.05706320234026625 0.05984306736598435 -0.05734257073708926 0.3088014250615897 -0.14941991636830992
3400125000.0 0.3660387695545628 -0.13615558221254573 0.05825781857289076 -0.058944737495407996 0.05836443741609931 -0.059215061668911204 0.3069658320810764 -0.14784407226092944
3401188000.0 0.36464195412675127 -0.13746877689765863 0.05673988380645624 -0.06069950396365177 0.056746795957271494 -0.06102212068907514 0.30419296568875137 -0.14714779951181337
3402250000.0 0.36339385460422907 -0.13911521283984085 0.054963922686982476 -0.06249280358895927 0.05491607095723942 -0.06277550548404341 0.30135355747681614 -0.1470865801390292
3403312000.0 0.3622958408858363 -0.14057269102582692 0.05319520114694778 -0.06422252079227472 0.0530704394365192 -0.06445427468024058 0.2979813068134173 -0.1471803556039651
3404375000.0 0.36110819408661315 -0.14177547680303768 0.05129193909814624 -0.06592753440730104 0.0511796619077426 -0.06603507899387362 0.29451043760611395 -0.1483738811416617
3405438000.0 0.3600352719160673 -0.14313738812456878 0.04928601027558136 -0.06748808635680421 0.04907621663573721 -0.06752572190600514 0.2916095809798683 -0.1500238507144966
3406500000.0 0.3588114351904682 -0.14464320040168185 0.04716254068892928 -0.06896090269404868 0.04715750870993689 -0.06898506801798626 0.2887781204809449 -0.15210453163234336
3407562000.0 0.3576374304995668 -0.1458813340150757 0.04509336949420832 -0.07036421202805361 0.045099509635707434 -0.0703502476518082 0.2866137084987192 -0.15476469023969816
3408625000.0 0.3564304735039574 -0.14709956390712184 0.042894255834242556 -0.0716725761681048 0.04294466829736007 -0.07161483102202984 0.2849495863246631 -0.15733791195236183
3409688000.0 0.3554889922927762 -0.14834671207638844 0.040703513754039716 -0.07287400406915175 0.040877641176240556 -0.07290822738212582 0.28399521158511004 -0.15997123496121518
3410750000.0 0.35443619648084945 -0.14962751131065818 0.038595303041257245 -0.07402093345568912 0.03876268989654766 -0.0740715683845695 0.2833951358833737 -0.16220288684291084
3411812000.0 0.35352538537817185 -0.15094837325240643 0.036392868605803735 -0.07513313694085305 0.03670808961492185 -0.07532663213141819 0.28350261627057743 -0.16417482524224303
3412875000.0 0.3524673874282035 -0.15189950637433458 0.034224144939046464 -0.0762086083827613 0.03450704719824462 -0.07652295987815516 0.28379649036501947 -0.16580343861824998
3413938000.0 0.3514621991401355 -0.15330754622295065 0.03208284805979346 -0.07723320015876695 0.03234149882074673 -0.07758777420649401 0.2839114040788024 -0.1667093609838101
3415000000.0 0.350360642406271 -0.15422662823272548 0.029961584330384483 -0.07821652617608967 0.03003060117742514 -0.07869392406719175 0.2841708803675668 -0.16714422691523506
3416062000.0 0.3493709511869446 -0.15521421373840671 0.027784608585927923 -0.07921369443912095 0.027767482099912883 -0.07978178704009024 0.28439304294321566 -0.16718645029377355
3417125000.0 0.3482615670240547 -0.1561578062572424 0.02553454394608534 -0.08007639174510084 0.02538484595218336 -0.0806814650043236 0.28389636622785686 -0.16643860438326405
3418188000.0 0.3469126438845128 -0.1572472259535523 0.023285877165680504 -0.08097306386838471 0.023059940436159315 -0.08141835751532174 0.2828665995025196 -0.16564154124883285
3419250000.0 0.3457775328894758 -0.15826690677582766 0.020965149689408605 -0.08180161913610658 0.02058792184692721 -0.08219450001541699 0.2812545843908227 -0.16499757964614833
3420312000.0 0.34464060715158984 -0.15923715559520443 0.018592774372320216 -0.08247302220708738 0.01826031805648292 -0.08274952647985902 0.2790785119524316 -0.16430037722342883
3421375000.0 0.3434281605400625 -0.16041029380269342 0.01611988692760175 -0.08315735817111196 0.01585535371372008 -0.08329623482725702 0.2765788942514157 -0.16389245741859143
3422438000.0 0.3419164555748855 -0.16146267643763612 0.013686004171935518 -0.08371792481972269 0.013407986278265064 -0.08358627767870387 0.2739099011696839 -0.16429123844336654
3423500000.0 0.34091165785599853 -0.16275437171633975 0.011182440552633913 -0.08412831883929056 0.011004186685050134 -0.08387658478102283 0.2708923717280774 -0.16517402729362382
3424562000.0 0.33964537653156335 -0.16373652008685574 0.008650380377764336 -0.08442180669712593 0.008660281164254172 -0.08422928581833666 0.26803719093610484 -0.16620249472535967
3425625000.0 0.3383156936434811 -0.1651509403551384 0.006151358126911956 -0.08462360908886121 0.0063124956807272285 -0.08438269244919872 0.26531633198349164 -0.16781203605154785
3426688000.0 0.33703175265862667 -0.16638364064803224 0.0036274423133058177 -0.08460781462401369 0.003964350546296036 -0.08466073712466532 0.2630749633891784 -0.17001620060034936
3427750000.0 0.335663224229535 -0.16766569368443845 0.0011787953385904357 -0.08459116182302318 0.00158625364664966 -0.08487853250436361 0.26112314180841906 -0.1721152685645799
3428812000.0 0.33426258929515185 -0.16899460044648026 -0.0013151529118352798 -0.0844549187776391 -0.0009838617798290617 -0.08486059867944251 0.25947402953061605 -0.17449769056575828
3429875000.0 0.3328808237342275 -0.1704473650005089 -0.003727174297006386 -0.08430025210011645 -0.003599339302357907 -0.08502135061331138 0.2589163158625075 -0.17692573948850468
3430938000.0 0.3314607376216135 -0.17170979751286974 -0.0062440226450373535 -0.08405820085137493 -0.006143789653726243 -0.08486201253051412 0.25840702634407553 -0.17900714292397876
3432000000.0 0.3300229165532273 -0.17332298874904492 -0.00871009027815983 -0.08379862313524894 -0.008871298708480663 -0.08457955310672335 0.2585509461092905 -0.18079982084748172
3433062000.0 0.32889212952819696 -0.17460528518530632 -0.011167459363850598 -0.08358452458459809 -0.01148954130163998 -0.08439250642203075 0.2584071735280219 -0.18221635431506925
3434125000.0 0.3270408548357826 -0.17587201988953918 -0.013565667848382514 -0.08322067061092774 -0.014106160064938202 -0.08383404335062311 0.25878414543675005 -0.1828676623894418
3435188000.0 0.3256176899129136 -0.1773877834077721 -0.016037675922266417 -0.08283843191307243 -0.016663418853100957 -0.08330576843581165 0.25817198007622283 -0.1831269227151127
3436250000.0 0.3240878158485055 -0.17915325777418847 -0.018488400598460547 -0.08246194189413321 -0.01917487886536227 -0.08263135475364759 0.2576391714405175 -0.1831311994650437
3437312000.0 0.3224124034939884 -0.18074696479679472 -0.020945908558084092 -0.0819684563500708 -0.021517009461211736 -0.082039678040964 0.25642362435790167 -0.18285195359288503
3438375000.0 0.3208733265403469 -0.18247912838881275 -0.023376180485236837 -0.08142044486995202 -0.023982575962444234 -0.08129033971465674 0.25480531746661533 -0.18259930314881068
3439438000.0 0.3193085880474288 -0.18416323090680123 -0.025838711184997695 -0.08076681734904467 -0.026260124962525503 -0.08064013910039777 0.252612543043789 -0.18242392919837558
3440500000.0 0.3177509486183044 -0.1859642566040452 -0.02826487892879321 -0.08007782135946087 -0.028544462775373067 -0.0797658674134579 0.25043768978989356 -0.18290850555780694
3441562000.0 0.31603499561558396 -0.18782227399464424 -0.03071126275423719 -0.07926547413977963 -0.030868579081107947 -0.0790090334838042 0.24737316233102738 -0.1840408345266078
3442625000.0 0.3143087683015108 -0.1894523991776355 -0.033047715012000795 -0.07838550967432806 -0.03303751406648403 -0.07828286898336445 0.2454052473459527 -0.18547512554496842
3443688000.0 0.3126950509675553 -0.19147464511542012 -0.03550145508386063 -0.07734524441367231 -0.03532707911507724 -0.0773981551577919 0.24259636603071102 -0.18745935700429897
3444750000.0 0.31105398370365916 -0.19326340134585218 -0.037738357224500634 -0.07622541161959892 -0.03755517929388123 -0.07650842006403118 0.24047217807012589 -0.18957493075786497
3445812000.0 0.30922091623986114 -0.19508315521439623 -0.04007555399852175 -0.07509235324409398 -0.039790521533001645 -0.07555413953512245 0.23900049011234897 -0.1923966638846513
3446875000.0 0.3075085367098006 -0.19656602764912687 -0.042348912902246384 -0.07389911131569574 -0.04214852297591111 -0.07434466001214149 0.23791748962617143 -0.19548608089261252
3447938000.0 0.3057643322652848 -0.19868593604151816 -0.0444683873991193 -0.07257146129992832 -0.04448669169789478 -0.07316657860777463 0.23733744527726083 -0.19826732486373685
3449000000.0 0.30401700347031624 -0.2004667786343805 -0.04654979995548079 -0.07117672643796645 -0.04663731046126633 -0.07176328779443975 0.23717522931161594 -0.20111790543497607
3450062000.0 0.3022897322314786 -0.2023364692959897 -0.048541380867866434 -0.06980156802678396 -0.04899020467723207 -0.07038578065241284 0.23743798044928685 -0.20368189313989407
3451125000.0 0.3005882757179527 -0.20415050655441194 -0.050527342615747914 -0.06834170880386417 -0.05105698546885436 -0.06878099053198139 0.2380877173243276 -0.2059917260474171
3452188000.0 0.2985330308858559 -0.20584952157687347 -0.05239706333045884 -0.06676404147121819 -0.052891569204197096 -0.06703417577221545 0.23881106131814994 -0.207314614612364
3453250000.0 0.2967112826941089 -0.207701027201168 -0.05425513419134193 -0.06512143447405834 -0.05488935980329774 -0.0653043915180895 0.2393941675083293 -0.2086483939873071
3454312000.0 0.2947256839994996 -0.20938274728794062 -0.05607245743153257 -0.0634736751162807 -0.0566474082245473 -0.06360635732141819 0.2398222181368357 -0.20914604461558547
3455375000.0 0.2931136046814461 -0.21158759231413424 -0.057903304928614445 -0.06185452536440931 -0.05844365861478975 -0.06166594795499802 0.2400863758872059 -0.20946858110672736
3456438000.0 0.2911931579409407 -0.21333021500193194 -0.05966210233922531 -0.060108995118602536 -0.060142572101608574 -0.05996459916848274 0.239137790168214 -0.20939013429215345
3457500000.0 0.2890953640500538 -0.21521068742745605 -0.06140182915074083 -0.05832297387182071 -0.061797392550577916 -0.05822655120962441 0.23825724535228587 -0.2091980540557083
3458562000.0 0.2870852186342897 -0.21713010133353006 -0.0631733909121585 -0.05654743126102846 -0.0634715853810205 -0.056318488292246865 0.23670488371119539 -0.20906501469510327
3459625000.0 0.2852461690976214 -0.21902483903846712 -0.06488969941322673 -0.05477334670308607 -0.06513773878429854 -0.054521578391691417 0.2348732266862732 -0.20925445696060432
3460688000.0 0.28308514417836883 -0.22088311351420506 -0.06650558167660232 -0.05276747255445435 -0.06680693088392861 -0.05270133195700089 0.23240793964183074 -0.2102848229670194
3461750000.0 0.28124199496349683 -0.22288992472896502 -0.06813255536785398 -0.05086632376485318 -0.06821560177662712 -0.05087129971329833 0.22975524717605467 -0.2113055665394942
3462812000.0 0.2791625741088015 -0.22464303431002086 -0.06965481439813671 -0.04882390817960908 -0.0698140158256926 -0.04876437629109941 0.22746916414834334 -0.21301195630673597
3463875000.0 0.27740902032799447 -0.22641109541016002 -0.0711153153696223 -0.046693093349733164 -0.07119542583881326 -0.04671409334795456 0.22557724510138852 -0.21558958956072957
3464938000.0 0.27522188514390383 -0.22811393216837572 -0.07257252047641138 -0.04444442460314653 -0.07263398510492118 -0.04451942817808033 0.22406217486997523 -0.21841373347385434
3466000000.0 0.27352500219031134 -0.23017595959204493 -0.07388171140631579 -0.04221196355450761 -0.07408327406031283 -0.04235627671357831 0.22295804222981033 -0.22104410466569077
3467062000.0 0.2715173570073991 -0.23192024811173517 -0.07507325253895984 -0.0399132233089885 -0.0752723623648845 -0.04009744252797836 0.22247654188324997 -0.22372457056255732
3468125000.0 0.26962675486053156 -0.23344674665481513 -0.07621632926693801 -0.03765961856703169 -0.07639659921594431 -0.037882421645881535 0.22241632208975473 -0.22629107781095356
3469188000.0 0.2677922370175457 -0.23548645152476833 -0.07713411668180487 -0.03533466421346744 -0.0774114698222638 -0.03558364819937866 0.2227274374073448 -0.22846988960838896
3470250000.0 0.26605388263926355 -0.23716042314031913 -0.07807328234357769 -0.033148554402007625 -0.07830843097465141 -0.03331696704857783 0.22316783240253005 -0.23030225473878083
3471312000.0 0.26403643801223114 -0.2389125422894102 -0.0788042155392295 -0.030905984488668464 -0.07909321985710487 -0.031059564128423645 0.22388828183785672 -0.23146252588588817
3472375000.0 0.2620393987031353 -0.24053538731560814 -0.0794344794582546 -0.028645615574439228 -0.07984933814538442 -0.02883891110170171 0.22417425392028242 -0.23166113087394583
3473438000.0 0.26013908485253595 -0.2421709113844961 -0.0800055609796563 -0.02646815627790408 -0.08042813585080236 -0.026555205656033917 0.22456572088368243 -0.23176950655751827
3474500000.0 0.2580565539595167 -0.24392959005222672 -0.08057742228949348 -0.024286566861450375 -0.08109783190706193 -0.024341998557218324 0.22426369031033827 -0.23113241438807489
3475562000.0 0.2560994329105319 -0.2455591333892081 -0.0810805608716922 -0.022007313571637134 -0.0817098741410618 -0.022070627353873187 0.22333986039029652 -0.22991730318932713
3476625000.0 0.25416879182172986 -0.24691732467805155 -0.0815652765969887 -0.019822218351408762 -0.08216063157964142 -0.019661917964990103 0.22180516864477542 -0.22868216874678882
3477688000.0 0.2522030950731119 -0.2484528821707719 -0.08207052800705796 -0.01755619601165883 -0.08262501119352579 -0.017326520198128414 0.2194339175079033 -0.2277888162224247
3478750000.0 0.2502443743396364 -0.2498298726481966 -0.08251860400249779 -0.015196877048108612 -0.08303609199968183 -0.014915748559137722 0.21642047098121767 -0.22702777194766793
3479812000.0 0.24829150544770703 -0.25085546228063865 -0.08287535437753886 -0.012956835840964308 -0.08331706263954353 -0.01256587494800316 0.21299781200108345 -0.22713595260940597
3480875000.0 0.24638734579290805 -0.2524026939321612 -0.08317759204113734 -0.010513005356741408 -0.0835195079917745 -0.010147640683366842 0.20955198604679764 -0.22800489491044618
3481938000.0 0.24441319025396732 -0.25378817879657467 -0.08343315063638362 -0.00807316050516915 -0.08362871596421032 -0.007747664976836149 0.2059813593096051 -0.22950519407138423
3483000000.0 0.24257094302569834 -0.2549889701365833 -0.0835846498422372 -0.005549561990486495 -0.08367493335258777 -0.0052954160718572275 0.2023576373561417 -0.2315748926534875
3484062000.0 0.24038194986174038 -0.25619141261987927 -0.08368328390080276 -0.003092643190996734 -0.08370688579361392 -0.002838106859362099 0.19966315633281026 -0.23447350939679162
3485125000.0 0.23866515560739865 -0.2573502837215973 -0.08367705159916743 -0.0005813468407704271 -0.08359002076871602 -0.0005115530145806867 0.19782545189156006 -0.23729892595898974
3486188000.0 0.23644137219790967 -0.258440045891833 -0.08358570688952158 0.001897947414382848 -0.08358593750434809 0.001829356019792394 0.19654684361702743 -0.24047499837065567
3487250000.0 0.23451741816630894 -0.2592425158356305 -0.08344520969063735 0.00430454482751434 -0.08349638259621713 0.004168618122674742 0.19552197157588455 -0.2429961793331962
3488312000.0 0.23225722749052694 -0.26054574159636484 -0.08322657679003281 0.0067498989057710535 -0.08325906636636768 0.006578065179403264 0.19507376802510348 -0.24538889431673566
3489375000.0 0.2303179011947354 -0.2611640091984747 -0.08303250425813281 0.008998359108223863 -0.08310283993451331 0.008818497775123918 0.19526831994823068 -0.2476008159438373
3490438000.0 0.22831181293699382 -0.2619900999189072 -0.08270160020946127 0.01134493560036849 -0.08296666861666721 0.011170415403111289 0.19540557547344162 -0.24842724163886462
3491500000.0 0.22637284379884892 -0.26300347700957144 -0.08225770110425519 0.013530916632752767 -0.08282241392519275 0.01334634990618405 0.19594545025566246 -0.24884156296046625
3492562000.0 0.22424534672920007 -0.26361936844440276 -0.08177292589197391 0.01576018269891438 -0.08225234987647255 0.01573769114008161 0.19610280632668134 -0.2486298560475314
3493625000.0 0.22220960092332995 -0.2641779896145543 -0.08132273366931314 0.017867956120866803 -0.08183497464952297 0.018025906078942847 0.19575902595771277 -0.24821065035249096
3494688000.0 0.2200060990978287 -0.2650319073956684 -0.08071934207611065 0.02014858016401858 -0.08125859218884875 0.020289273435200435 0.19436847543142868 -0.24693808392294803
3495750000.0 0.21800467450383768 -0.2651088156164674 -0.080081671383657 0.022223899319311728 -0.08058578263753603 0.022409730161470555 0.19352976644542003 -0.24491199758003246
3496812000.0 0.21606054243975556 -0.26567164244178515 -0.07936373121000938 0.024382034950242992 -0.07975688743531427 0.024657821515555324 0.19034825015397852 -0.24282979663101084
3497875000.0 0.21390939622096988 -0.2660279071946389 -0.07856922907765922 0.02642332628072434 -0.07883478462858673 0.02676637933490186 0.18767106135112463 -0.24106290952804316
3498938000.0 0.21191092906764514 -0.26635338997433444 -0.0777763143320342 0.02852160689183278 -0.07788174585648582 0.0289013505407599 0.18341997632917578 -0.23903107131725654
3500000000.0 0.20983308731137695 -0.26665943675687526 -0.07683163632892374 0.030658018256873604 -0.07701089352009902 0.03100139753128448 0.17867339870238416 -0.23852529484612917
